5376 2688 16128
0 1
0 896
0 1792
1 2
1 897
1 1793
2 3
2 898
2 1794
3 4
3 899
3 1795
4 5
4 900
4 1796
5 6
5 901
5 1797
6 7
6 902
6 1798
7 8
7 903
7 1799
8 9
8 904
8 1800
9 10
9 905
9 1801
10 11
10 906
10 1802
11 12
11 907
11 1803
12 13
12 908
12 1804
13 14
13 909
13 1805
14 15
14 910
14 1806
15 16
15 911
15 1807
16 17
16 912
16 1808
17 18
17 913
17 1809
18 19
18 914
18 1810
19 20
19 915
19 1811
20 21
20 916
20 1812
21 22
21 917
21 1813
22 23
22 918
22 1814
23 24
23 919
23 1815
24 25
24 920
24 1816
25 26
25 921
25 1817
26 27
26 922
26 1818
27 28
27 923
27 1819
28 29
28 924
28 1820
29 30
29 925
29 1821
30 31
30 926
30 1822
31 32
31 927
31 1823
32 33
32 928
32 1824
33 34
33 929
33 1825
34 35
34 930
34 1826
35 36
35 931
35 1827
36 37
36 932
36 1828
37 38
37 933
37 1829
38 39
38 934
38 1830
39 40
39 935
39 1831
40 41
40 936
40 1832
41 42
41 937
41 1833
42 43
42 938
42 1834
43 44
43 939
43 1835
44 45
44 940
44 1836
45 46
45 941
45 1837
46 47
46 942
46 1838
47 48
47 943
47 1839
48 49
48 944
48 1840
49 50
49 945
49 1841
50 51
50 946
50 1842
51 52
51 947
51 1843
52 53
52 948
52 1844
53 54
53 949
53 1845
54 55
54 950
54 1846
55 56
55 951
55 1847
56 57
56 952
56 1848
57 58
57 953
57 1849
58 59
58 954
58 1850
59 60
59 955
59 1851
60 61
60 956
60 1852
61 62
61 957
61 1853
62 63
62 958
62 1854
63 64
63 959
63 1855
64 65
64 960
64 1856
65 66
65 961
65 1857
66 67
66 962
66 1858
67 68
67 963
67 1859
68 69
68 964
68 1860
69 70
69 965
69 1861
70 71
70 966
70 1862
71 72
71 967
71 1863
72 73
72 968
72 1864
73 74
73 969
73 1865
74 75
74 970
74 1866
75 76
75 971
75 1867
76 77
76 972
76 1868
77 78
77 973
77 1869
78 79
78 974
78 1870
79 80
79 975
79 1871
80 81
80 976
80 1872
81 82
81 977
81 1873
82 83
82 978
82 1874
83 84
83 979
83 1875
84 85
84 980
84 1876
85 86
85 981
85 1877
86 87
86 982
86 1878
87 88
87 983
87 1879
88 89
88 984
88 1880
89 90
89 985
89 1881
90 91
90 986
90 1882
91 92
91 987
91 1883
92 93
92 988
92 1884
93 94
93 989
93 1885
94 95
94 990
94 1886
95 96
95 991
95 1887
96 97
96 992
96 1888
97 98
97 993
97 1889
98 99
98 994
98 1890
99 100
99 995
99 1891
100 101
100 996
100 1892
101 102
101 997
101 1893
102 103
102 998
102 1894
103 104
103 999
103 1895
104 105
104 1000
104 1896
105 106
105 1001
105 1897
106 107
106 1002
106 1898
107 108
107 1003
107 1899
108 109
108 1004
108 1900
109 110
109 1005
109 1901
110 111
110 1006
110 1902
111 112
111 1007
111 1903
112 113
112 1008
112 1904
113 114
113 1009
113 1905
114 115
114 1010
114 1906
115 116
115 1011
115 1907
116 117
116 1012
116 1908
117 118
117 1013
117 1909
118 119
118 1014
118 1910
119 120
119 1015
119 1911
120 121
120 1016
120 1912
121 122
121 1017
121 1913
122 123
122 1018
122 1914
123 124
123 1019
123 1915
124 125
124 1020
124 1916
125 126
125 1021
125 1917
126 127
126 1022
126 1918
127 0
127 1023
127 1919
128 128
128 1024
128 1920
129 129
129 1025
129 1921
130 130
130 1026
130 1922
131 131
131 1027
131 1923
132 132
132 1028
132 1924
133 133
133 1029
133 1925
134 134
134 1030
134 1926
135 135
135 1031
135 1927
136 136
136 1032
136 1928
137 137
137 1033
137 1929
138 138
138 1034
138 1930
139 139
139 1035
139 1931
140 140
140 1036
140 1932
141 141
141 1037
141 1933
142 142
142 1038
142 1934
143 143
143 1039
143 1935
144 144
144 1040
144 1936
145 145
145 1041
145 1937
146 146
146 1042
146 1938
147 147
147 1043
147 1939
148 148
148 1044
148 1940
149 149
149 1045
149 1941
150 150
150 1046
150 1942
151 151
151 1047
151 1943
152 152
152 1048
152 1944
153 153
153 1049
153 1945
154 154
154 1050
154 1946
155 155
155 1051
155 1947
156 156
156 1052
156 1948
157 157
157 1053
157 1949
158 158
158 1054
158 1950
159 159
159 1055
159 1951
160 160
160 1056
160 1952
161 161
161 1057
161 1953
162 162
162 1058
162 1954
163 163
163 1059
163 1955
164 164
164 1060
164 1956
165 165
165 1061
165 1957
166 166
166 1062
166 1958
167 167
167 1063
167 1959
168 168
168 1064
168 1960
169 169
169 1065
169 1961
170 170
170 1066
170 1962
171 171
171 1067
171 1963
172 172
172 1068
172 1964
173 173
173 1069
173 1965
174 174
174 1070
174 1966
175 175
175 1071
175 1967
176 176
176 1072
176 1968
177 177
177 1073
177 1969
178 178
178 1074
178 1970
179 179
179 1075
179 1971
180 180
180 1076
180 1972
181 181
181 1077
181 1973
182 182
182 1078
182 1974
183 183
183 1079
183 1975
184 184
184 1080
184 1976
185 185
185 1081
185 1977
186 186
186 1082
186 1978
187 187
187 1083
187 1979
188 188
188 1084
188 1980
189 189
189 1085
189 1981
190 190
190 1086
190 1982
191 191
191 1087
191 1983
192 192
192 1088
192 1984
193 193
193 1089
193 1985
194 194
194 1090
194 1986
195 195
195 1091
195 1987
196 196
196 1092
196 1988
197 197
197 1093
197 1989
198 198
198 1094
198 1990
199 199
199 1095
199 1991
200 200
200 1096
200 1992
201 201
201 1097
201 1993
202 202
202 1098
202 1994
203 203
203 1099
203 1995
204 204
204 1100
204 1996
205 205
205 1101
205 1997
206 206
206 1102
206 1998
207 207
207 1103
207 1999
208 208
208 1104
208 2000
209 209
209 1105
209 2001
210 210
210 1106
210 2002
211 211
211 1107
211 2003
212 212
212 1108
212 2004
213 213
213 1109
213 2005
214 214
214 1110
214 2006
215 215
215 1111
215 2007
216 216
216 1112
216 2008
217 217
217 1113
217 2009
218 218
218 1114
218 2010
219 219
219 1115
219 2011
220 220
220 1116
220 2012
221 221
221 1117
221 2013
222 222
222 1118
222 2014
223 223
223 1119
223 2015
224 224
224 1120
224 2016
225 225
225 1121
225 2017
226 226
226 1122
226 2018
227 227
227 1123
227 2019
228 228
228 1124
228 2020
229 229
229 1125
229 2021
230 230
230 1126
230 2022
231 231
231 1127
231 2023
232 232
232 1128
232 2024
233 233
233 1129
233 2025
234 234
234 1130
234 2026
235 235
235 1131
235 2027
236 236
236 1132
236 2028
237 237
237 1133
237 2029
238 238
238 1134
238 2030
239 239
239 1135
239 2031
240 240
240 1136
240 2032
241 241
241 1137
241 2033
242 242
242 1138
242 2034
243 243
243 1139
243 2035
244 244
244 1140
244 2036
245 245
245 1141
245 2037
246 246
246 1142
246 2038
247 247
247 1143
247 2039
248 248
248 1144
248 2040
249 249
249 1145
249 2041
250 250
250 1146
250 2042
251 251
251 1147
251 2043
252 252
252 1148
252 2044
253 253
253 1149
253 2045
254 254
254 1150
254 2046
255 255
255 1151
255 2047
256 256
256 1152
256 2048
257 257
257 1153
257 2049
258 258
258 1154
258 2050
259 259
259 1155
259 2051
260 260
260 1156
260 2052
261 261
261 1157
261 2053
262 262
262 1158
262 2054
263 263
263 1159
263 2055
264 264
264 1160
264 2056
265 265
265 1161
265 2057
266 266
266 1162
266 2058
267 267
267 1163
267 2059
268 268
268 1164
268 2060
269 269
269 1165
269 2061
270 270
270 1166
270 2062
271 271
271 1167
271 2063
272 272
272 1168
272 2064
273 273
273 1169
273 2065
274 274
274 1170
274 2066
275 275
275 1171
275 2067
276 276
276 1172
276 2068
277 277
277 1173
277 2069
278 278
278 1174
278 2070
279 279
279 1175
279 2071
280 280
280 1176
280 2072
281 281
281 1177
281 2073
282 282
282 1178
282 2074
283 283
283 1179
283 2075
284 284
284 1180
284 2076
285 285
285 1181
285 2077
286 286
286 1182
286 2078
287 287
287 1183
287 2079
288 288
288 1184
288 2080
289 289
289 1185
289 2081
290 290
290 1186
290 2082
291 291
291 1187
291 2083
292 292
292 1188
292 2084
293 293
293 1189
293 2085
294 294
294 1190
294 2086
295 295
295 1191
295 2087
296 296
296 1192
296 2088
297 297
297 1193
297 2089
298 298
298 1194
298 2090
299 299
299 1195
299 2091
300 300
300 1196
300 2092
301 301
301 1197
301 2093
302 302
302 1198
302 2094
303 303
303 1199
303 2095
304 304
304 1200
304 2096
305 305
305 1201
305 2097
306 306
306 1202
306 2098
307 307
307 1203
307 2099
308 308
308 1204
308 2100
309 309
309 1205
309 2101
310 310
310 1206
310 2102
311 311
311 1207
311 2103
312 312
312 1208
312 2104
313 313
313 1209
313 2105
314 314
314 1210
314 2106
315 315
315 1211
315 2107
316 316
316 1212
316 2108
317 317
317 1213
317 2109
318 318
318 1214
318 2110
319 319
319 1215
319 2111
320 320
320 1216
320 2112
321 321
321 1217
321 2113
322 322
322 1218
322 2114
323 323
323 1219
323 2115
324 324
324 1220
324 2116
325 325
325 1221
325 2117
326 326
326 1222
326 2118
327 327
327 1223
327 2119
328 328
328 1224
328 2120
329 329
329 1225
329 2121
330 330
330 1226
330 2122
331 331
331 1227
331 2123
332 332
332 1228
332 2124
333 333
333 1229
333 2125
334 334
334 1230
334 2126
335 335
335 1231
335 2127
336 336
336 1232
336 2128
337 337
337 1233
337 2129
338 338
338 1234
338 2130
339 339
339 1235
339 2131
340 340
340 1236
340 2132
341 341
341 1237
341 2133
342 342
342 1238
342 2134
343 343
343 1239
343 2135
344 344
344 1240
344 2136
345 345
345 1241
345 2137
346 346
346 1242
346 2138
347 347
347 1243
347 2139
348 348
348 1244
348 2140
349 349
349 1245
349 2141
350 350
350 1246
350 2142
351 351
351 1247
351 2143
352 352
352 1248
352 2144
353 353
353 1249
353 2145
354 354
354 1250
354 2146
355 355
355 1251
355 2147
356 356
356 1252
356 2148
357 357
357 1253
357 2149
358 358
358 1254
358 2150
359 359
359 1255
359 2151
360 360
360 1256
360 2152
361 361
361 1257
361 2153
362 362
362 1258
362 2154
363 363
363 1259
363 2155
364 364
364 1260
364 2156
365 365
365 1261
365 2157
366 366
366 1262
366 2158
367 367
367 1263
367 2159
368 368
368 1264
368 2160
369 369
369 1265
369 2161
370 370
370 1266
370 2162
371 371
371 1267
371 2163
372 372
372 1268
372 2164
373 373
373 1269
373 2165
374 374
374 1270
374 2166
375 375
375 1271
375 2167
376 376
376 1272
376 2168
377 377
377 1273
377 2169
378 378
378 1274
378 2170
379 379
379 1275
379 2171
380 380
380 1276
380 2172
381 381
381 1277
381 2173
382 382
382 1278
382 2174
383 383
383 1279
383 2175
384 384
384 1280
384 2176
385 385
385 1281
385 2177
386 386
386 1282
386 2178
387 387
387 1283
387 2179
388 388
388 1284
388 2180
389 389
389 1285
389 2181
390 390
390 1286
390 2182
391 391
391 1287
391 2183
392 392
392 1288
392 2184
393 393
393 1289
393 2185
394 394
394 1290
394 2186
395 395
395 1291
395 2187
396 396
396 1292
396 2188
397 397
397 1293
397 2189
398 398
398 1294
398 2190
399 399
399 1295
399 2191
400 400
400 1296
400 2192
401 401
401 1297
401 2193
402 402
402 1298
402 2194
403 403
403 1299
403 2195
404 404
404 1300
404 2196
405 405
405 1301
405 2197
406 406
406 1302
406 2198
407 407
407 1303
407 2199
408 408
408 1304
408 2200
409 409
409 1305
409 2201
410 410
410 1306
410 2202
411 411
411 1307
411 2203
412 412
412 1308
412 2204
413 413
413 1309
413 2205
414 414
414 1310
414 2206
415 415
415 1311
415 2207
416 416
416 1312
416 2208
417 417
417 1313
417 2209
418 418
418 1314
418 2210
419 419
419 1315
419 2211
420 420
420 1316
420 2212
421 421
421 1317
421 2213
422 422
422 1318
422 2214
423 423
423 1319
423 2215
424 424
424 1320
424 2216
425 425
425 1321
425 2217
426 426
426 1322
426 2218
427 427
427 1323
427 2219
428 428
428 1324
428 2220
429 429
429 1325
429 2221
430 430
430 1326
430 2222
431 431
431 1327
431 2223
432 432
432 1328
432 2224
433 433
433 1329
433 2225
434 434
434 1330
434 2226
435 435
435 1331
435 2227
436 436
436 1332
436 2228
437 437
437 1333
437 2229
438 438
438 1334
438 2230
439 439
439 1335
439 2231
440 440
440 1336
440 2232
441 441
441 1337
441 2233
442 442
442 1338
442 2234
443 443
443 1339
443 2235
444 444
444 1340
444 2236
445 445
445 1341
445 2237
446 446
446 1342
446 2238
447 447
447 1343
447 2239
448 448
448 1344
448 2240
449 449
449 1345
449 2241
450 450
450 1346
450 2242
451 451
451 1347
451 2243
452 452
452 1348
452 2244
453 453
453 1349
453 2245
454 454
454 1350
454 2246
455 455
455 1351
455 2247
456 456
456 1352
456 2248
457 457
457 1353
457 2249
458 458
458 1354
458 2250
459 459
459 1355
459 2251
460 460
460 1356
460 2252
461 461
461 1357
461 2253
462 462
462 1358
462 2254
463 463
463 1359
463 2255
464 464
464 1360
464 2256
465 465
465 1361
465 2257
466 466
466 1362
466 2258
467 467
467 1363
467 2259
468 468
468 1364
468 2260
469 469
469 1365
469 2261
470 470
470 1366
470 2262
471 471
471 1367
471 2263
472 472
472 1368
472 2264
473 473
473 1369
473 2265
474 474
474 1370
474 2266
475 475
475 1371
475 2267
476 476
476 1372
476 2268
477 477
477 1373
477 2269
478 478
478 1374
478 2270
479 479
479 1375
479 2271
480 480
480 1376
480 2272
481 481
481 1377
481 2273
482 482
482 1378
482 2274
483 483
483 1379
483 2275
484 484
484 1380
484 2276
485 485
485 1381
485 2277
486 486
486 1382
486 2278
487 487
487 1383
487 2279
488 488
488 1384
488 2280
489 489
489 1385
489 2281
490 490
490 1386
490 2282
491 491
491 1387
491 2283
492 492
492 1388
492 2284
493 493
493 1389
493 2285
494 494
494 1390
494 2286
495 495
495 1391
495 2287
496 496
496 1392
496 2288
497 497
497 1393
497 2289
498 498
498 1394
498 2290
499 499
499 1395
499 2291
500 500
500 1396
500 2292
501 501
501 1397
501 2293
502 502
502 1398
502 2294
503 503
503 1399
503 2295
504 504
504 1400
504 2296
505 505
505 1401
505 2297
506 506
506 1402
506 2298
507 507
507 1403
507 2299
508 508
508 1404
508 2300
509 509
509 1405
509 2301
510 510
510 1406
510 2302
511 511
511 1407
511 2303
512 512
512 1408
512 2304
513 513
513 1409
513 2305
514 514
514 1410
514 2306
515 515
515 1411
515 2307
516 516
516 1412
516 2308
517 517
517 1413
517 2309
518 518
518 1414
518 2310
519 519
519 1415
519 2311
520 520
520 1416
520 2312
521 521
521 1417
521 2313
522 522
522 1418
522 2314
523 523
523 1419
523 2315
524 524
524 1420
524 2316
525 525
525 1421
525 2317
526 526
526 1422
526 2318
527 527
527 1423
527 2319
528 528
528 1424
528 2320
529 529
529 1425
529 2321
530 530
530 1426
530 2322
531 531
531 1427
531 2323
532 532
532 1428
532 2324
533 533
533 1429
533 2325
534 534
534 1430
534 2326
535 535
535 1431
535 2327
536 536
536 1432
536 2328
537 537
537 1433
537 2329
538 538
538 1434
538 2330
539 539
539 1435
539 2331
540 540
540 1436
540 2332
541 541
541 1437
541 2333
542 542
542 1438
542 2334
543 543
543 1439
543 2335
544 544
544 1440
544 2336
545 545
545 1441
545 2337
546 546
546 1442
546 2338
547 547
547 1443
547 2339
548 548
548 1444
548 2340
549 549
549 1445
549 2341
550 550
550 1446
550 2342
551 551
551 1447
551 2343
552 552
552 1448
552 2344
553 553
553 1449
553 2345
554 554
554 1450
554 2346
555 555
555 1451
555 2347
556 556
556 1452
556 2348
557 557
557 1453
557 2349
558 558
558 1454
558 2350
559 559
559 1455
559 2351
560 560
560 1456
560 2352
561 561
561 1457
561 2353
562 562
562 1458
562 2354
563 563
563 1459
563 2355
564 564
564 1460
564 2356
565 565
565 1461
565 2357
566 566
566 1462
566 2358
567 567
567 1463
567 2359
568 568
568 1464
568 2360
569 569
569 1465
569 2361
570 570
570 1466
570 2362
571 571
571 1467
571 2363
572 572
572 1468
572 2364
573 573
573 1469
573 2365
574 574
574 1470
574 2366
575 575
575 1471
575 2367
576 576
576 1472
576 2368
577 577
577 1473
577 2369
578 578
578 1474
578 2370
579 579
579 1475
579 2371
580 580
580 1476
580 2372
581 581
581 1477
581 2373
582 582
582 1478
582 2374
583 583
583 1479
583 2375
584 584
584 1480
584 2376
585 585
585 1481
585 2377
586 586
586 1482
586 2378
587 587
587 1483
587 2379
588 588
588 1484
588 2380
589 589
589 1485
589 2381
590 590
590 1486
590 2382
591 591
591 1487
591 2383
592 592
592 1488
592 2384
593 593
593 1489
593 2385
594 594
594 1490
594 2386
595 595
595 1491
595 2387
596 596
596 1492
596 2388
597 597
597 1493
597 2389
598 598
598 1494
598 2390
599 599
599 1495
599 2391
600 600
600 1496
600 2392
601 601
601 1497
601 2393
602 602
602 1498
602 2394
603 603
603 1499
603 2395
604 604
604 1500
604 2396
605 605
605 1501
605 2397
606 606
606 1502
606 2398
607 607
607 1503
607 2399
608 608
608 1504
608 2400
609 609
609 1505
609 2401
610 610
610 1506
610 2402
611 611
611 1507
611 2403
612 612
612 1508
612 2404
613 613
613 1509
613 2405
614 614
614 1510
614 2406
615 615
615 1511
615 2407
616 616
616 1512
616 2408
617 617
617 1513
617 2409
618 618
618 1514
618 2410
619 619
619 1515
619 2411
620 620
620 1516
620 2412
621 621
621 1517
621 2413
622 622
622 1518
622 2414
623 623
623 1519
623 2415
624 624
624 1520
624 2416
625 625
625 1521
625 2417
626 626
626 1522
626 2418
627 627
627 1523
627 2419
628 628
628 1524
628 2420
629 629
629 1525
629 2421
630 630
630 1526
630 2422
631 631
631 1527
631 2423
632 632
632 1528
632 2424
633 633
633 1529
633 2425
634 634
634 1530
634 2426
635 635
635 1531
635 2427
636 636
636 1532
636 2428
637 637
637 1533
637 2429
638 638
638 1534
638 2430
639 639
639 1535
639 2431
640 640
640 1536
640 2432
641 641
641 1537
641 2433
642 642
642 1538
642 2434
643 643
643 1539
643 2435
644 644
644 1540
644 2436
645 645
645 1541
645 2437
646 646
646 1542
646 2438
647 647
647 1543
647 2439
648 648
648 1544
648 2440
649 649
649 1545
649 2441
650 650
650 1546
650 2442
651 651
651 1547
651 2443
652 652
652 1548
652 2444
653 653
653 1549
653 2445
654 654
654 1550
654 2446
655 655
655 1551
655 2447
656 656
656 1552
656 2448
657 657
657 1553
657 2449
658 658
658 1554
658 2450
659 659
659 1555
659 2451
660 660
660 1556
660 2452
661 661
661 1557
661 2453
662 662
662 1558
662 2454
663 663
663 1559
663 2455
664 664
664 1560
664 2456
665 665
665 1561
665 2457
666 666
666 1562
666 2458
667 667
667 1563
667 2459
668 668
668 1564
668 2460
669 669
669 1565
669 2461
670 670
670 1566
670 2462
671 671
671 1567
671 2463
672 672
672 1568
672 2464
673 673
673 1569
673 2465
674 674
674 1570
674 2466
675 675
675 1571
675 2467
676 676
676 1572
676 2468
677 677
677 1573
677 2469
678 678
678 1574
678 2470
679 679
679 1575
679 2471
680 680
680 1576
680 2472
681 681
681 1577
681 2473
682 682
682 1578
682 2474
683 683
683 1579
683 2475
684 684
684 1580
684 2476
685 685
685 1581
685 2477
686 686
686 1582
686 2478
687 687
687 1583
687 2479
688 688
688 1584
688 2480
689 689
689 1585
689 2481
690 690
690 1586
690 2482
691 691
691 1587
691 2483
692 692
692 1588
692 2484
693 693
693 1589
693 2485
694 694
694 1590
694 2486
695 695
695 1591
695 2487
696 696
696 1592
696 2488
697 697
697 1593
697 2489
698 698
698 1594
698 2490
699 699
699 1595
699 2491
700 700
700 1596
700 2492
701 701
701 1597
701 2493
702 702
702 1598
702 2494
703 703
703 1599
703 2495
704 704
704 1600
704 2496
705 705
705 1601
705 2497
706 706
706 1602
706 2498
707 707
707 1603
707 2499
708 708
708 1604
708 2500
709 709
709 1605
709 2501
710 710
710 1606
710 2502
711 711
711 1607
711 2503
712 712
712 1608
712 2504
713 713
713 1609
713 2505
714 714
714 1610
714 2506
715 715
715 1611
715 2507
716 716
716 1612
716 2508
717 717
717 1613
717 2509
718 718
718 1614
718 2510
719 719
719 1615
719 2511
720 720
720 1616
720 2512
721 721
721 1617
721 2513
722 722
722 1618
722 2514
723 723
723 1619
723 2515
724 724
724 1620
724 2516
725 725
725 1621
725 2517
726 726
726 1622
726 2518
727 727
727 1623
727 2519
728 728
728 1624
728 2520
729 729
729 1625
729 2521
730 730
730 1626
730 2522
731 731
731 1627
731 2523
732 732
732 1628
732 2524
733 733
733 1629
733 2525
734 734
734 1630
734 2526
735 735
735 1631
735 2527
736 736
736 1632
736 2528
737 737
737 1633
737 2529
738 738
738 1634
738 2530
739 739
739 1635
739 2531
740 740
740 1636
740 2532
741 741
741 1637
741 2533
742 742
742 1638
742 2534
743 743
743 1639
743 2535
744 744
744 1640
744 2536
745 745
745 1641
745 2537
746 746
746 1642
746 2538
747 747
747 1643
747 2539
748 748
748 1644
748 2540
749 749
749 1645
749 2541
750 750
750 1646
750 2542
751 751
751 1647
751 2543
752 752
752 1648
752 2544
753 753
753 1649
753 2545
754 754
754 1650
754 2546
755 755
755 1651
755 2547
756 756
756 1652
756 2548
757 757
757 1653
757 2549
758 758
758 1654
758 2550
759 759
759 1655
759 2551
760 760
760 1656
760 2552
761 761
761 1657
761 2553
762 762
762 1658
762 2554
763 763
763 1659
763 2555
764 764
764 1660
764 2556
765 765
765 1661
765 2557
766 766
766 1662
766 2558
767 767
767 1663
767 2559
768 768
768 1664
768 2560
769 769
769 1665
769 2561
770 770
770 1666
770 2562
771 771
771 1667
771 2563
772 772
772 1668
772 2564
773 773
773 1669
773 2565
774 774
774 1670
774 2566
775 775
775 1671
775 2567
776 776
776 1672
776 2568
777 777
777 1673
777 2569
778 778
778 1674
778 2570
779 779
779 1675
779 2571
780 780
780 1676
780 2572
781 781
781 1677
781 2573
782 782
782 1678
782 2574
783 783
783 1679
783 2575
784 784
784 1680
784 2576
785 785
785 1681
785 2577
786 786
786 1682
786 2578
787 787
787 1683
787 2579
788 788
788 1684
788 2580
789 789
789 1685
789 2581
790 790
790 1686
790 2582
791 791
791 1687
791 2583
792 792
792 1688
792 2584
793 793
793 1689
793 2585
794 794
794 1690
794 2586
795 795
795 1691
795 2587
796 796
796 1692
796 2588
797 797
797 1693
797 2589
798 798
798 1694
798 2590
799 799
799 1695
799 2591
800 800
800 1696
800 2592
801 801
801 1697
801 2593
802 802
802 1698
802 2594
803 803
803 1699
803 2595
804 804
804 1700
804 2596
805 805
805 1701
805 2597
806 806
806 1702
806 2598
807 807
807 1703
807 2599
808 808
808 1704
808 2600
809 809
809 1705
809 2601
810 810
810 1706
810 2602
811 811
811 1707
811 2603
812 812
812 1708
812 2604
813 813
813 1709
813 2605
814 814
814 1710
814 2606
815 815
815 1711
815 2607
816 816
816 1712
816 2608
817 817
817 1713
817 2609
818 818
818 1714
818 2610
819 819
819 1715
819 2611
820 820
820 1716
820 2612
821 821
821 1717
821 2613
822 822
822 1718
822 2614
823 823
823 1719
823 2615
824 824
824 1720
824 2616
825 825
825 1721
825 2617
826 826
826 1722
826 2618
827 827
827 1723
827 2619
828 828
828 1724
828 2620
829 829
829 1725
829 2621
830 830
830 1726
830 2622
831 831
831 1727
831 2623
832 832
832 1728
832 2624
833 833
833 1729
833 2625
834 834
834 1730
834 2626
835 835
835 1731
835 2627
836 836
836 1732
836 2628
837 837
837 1733
837 2629
838 838
838 1734
838 2630
839 839
839 1735
839 2631
840 840
840 1736
840 2632
841 841
841 1737
841 2633
842 842
842 1738
842 2634
843 843
843 1739
843 2635
844 844
844 1740
844 2636
845 845
845 1741
845 2637
846 846
846 1742
846 2638
847 847
847 1743
847 2639
848 848
848 1744
848 2640
849 849
849 1745
849 2641
850 850
850 1746
850 2642
851 851
851 1747
851 2643
852 852
852 1748
852 2644
853 853
853 1749
853 2645
854 854
854 1750
854 2646
855 855
855 1751
855 2647
856 856
856 1752
856 2648
857 857
857 1753
857 2649
858 858
858 1754
858 2650
859 859
859 1755
859 2651
860 860
860 1756
860 2652
861 861
861 1757
861 2653
862 862
862 1758
862 2654
863 863
863 1759
863 2655
864 864
864 1760
864 2656
865 865
865 1761
865 2657
866 866
866 1762
866 2658
867 867
867 1763
867 2659
868 868
868 1764
868 2660
869 869
869 1765
869 2661
870 870
870 1766
870 2662
871 871
871 1767
871 2663
872 872
872 1768
872 2664
873 873
873 1769
873 2665
874 874
874 1770
874 2666
875 875
875 1771
875 2667
876 876
876 1772
876 2668
877 877
877 1773
877 2669
878 878
878 1774
878 2670
879 879
879 1775
879 2671
880 880
880 1776
880 2672
881 881
881 1777
881 2673
882 882
882 1778
882 2674
883 883
883 1779
883 2675
884 884
884 1780
884 2676
885 885
885 1781
885 2677
886 886
886 1782
886 2678
887 887
887 1783
887 2679
888 888
888 1784
888 2680
889 889
889 1785
889 2681
890 890
890 1786
890 2682
891 891
891 1787
891 2683
892 892
892 1788
892 2684
893 893
893 1789
893 2685
894 894
894 1790
894 2686
895 895
895 1791
895 2687
896 0
896 1664
896 2432
897 1
897 1665
897 2433
898 2
898 1666
898 2434
899 3
899 1667
899 2435
900 4
900 1668
900 2436
901 5
901 1669
901 2437
902 6
902 1670
902 2438
903 7
903 1671
903 2439
904 8
904 1672
904 2440
905 9
905 1673
905 2441
906 10
906 1674
906 2442
907 11
907 1675
907 2443
908 12
908 1676
908 2444
909 13
909 1677
909 2445
910 14
910 1678
910 2446
911 15
911 1679
911 2447
912 16
912 1680
912 2448
913 17
913 1681
913 2449
914 18
914 1682
914 2450
915 19
915 1683
915 2451
916 20
916 1684
916 2452
917 21
917 1685
917 2453
918 22
918 1686
918 2454
919 23
919 1687
919 2455
920 24
920 1688
920 2456
921 25
921 1689
921 2457
922 26
922 1690
922 2458
923 27
923 1691
923 2459
924 28
924 1692
924 2460
925 29
925 1693
925 2461
926 30
926 1694
926 2462
927 31
927 1695
927 2463
928 32
928 1696
928 2464
929 33
929 1697
929 2465
930 34
930 1698
930 2466
931 35
931 1699
931 2467
932 36
932 1700
932 2468
933 37
933 1701
933 2469
934 38
934 1702
934 2470
935 39
935 1703
935 2471
936 40
936 1704
936 2472
937 41
937 1705
937 2473
938 42
938 1706
938 2474
939 43
939 1707
939 2475
940 44
940 1708
940 2476
941 45
941 1709
941 2477
942 46
942 1710
942 2478
943 47
943 1711
943 2479
944 48
944 1712
944 2480
945 49
945 1713
945 2481
946 50
946 1714
946 2482
947 51
947 1715
947 2483
948 52
948 1716
948 2484
949 53
949 1717
949 2485
950 54
950 1718
950 2486
951 55
951 1719
951 2487
952 56
952 1720
952 2488
953 57
953 1721
953 2489
954 58
954 1722
954 2490
955 59
955 1723
955 2491
956 60
956 1724
956 2492
957 61
957 1725
957 2493
958 62
958 1726
958 2494
959 63
959 1727
959 2495
960 64
960 1728
960 2496
961 65
961 1729
961 2497
962 66
962 1730
962 2498
963 67
963 1731
963 2499
964 68
964 1732
964 2500
965 69
965 1733
965 2501
966 70
966 1734
966 2502
967 71
967 1735
967 2503
968 72
968 1736
968 2504
969 73
969 1737
969 2505
970 74
970 1738
970 2506
971 75
971 1739
971 2507
972 76
972 1740
972 2508
973 77
973 1741
973 2509
974 78
974 1742
974 2510
975 79
975 1743
975 2511
976 80
976 1744
976 2512
977 81
977 1745
977 2513
978 82
978 1746
978 2514
979 83
979 1747
979 2515
980 84
980 1748
980 2516
981 85
981 1749
981 2517
982 86
982 1750
982 2518
983 87
983 1751
983 2519
984 88
984 1752
984 2520
985 89
985 1753
985 2521
986 90
986 1754
986 2522
987 91
987 1755
987 2523
988 92
988 1756
988 2524
989 93
989 1757
989 2525
990 94
990 1758
990 2526
991 95
991 1759
991 2527
992 96
992 1760
992 2528
993 97
993 1761
993 2529
994 98
994 1762
994 2530
995 99
995 1763
995 2531
996 100
996 1764
996 2532
997 101
997 1765
997 2533
998 102
998 1766
998 2534
999 103
999 1767
999 2535
1000 104
1000 1768
1000 2536
1001 105
1001 1769
1001 2537
1002 106
1002 1770
1002 2538
1003 107
1003 1771
1003 2539
1004 108
1004 1772
1004 2540
1005 109
1005 1773
1005 2541
1006 110
1006 1774
1006 2542
1007 111
1007 1775
1007 2543
1008 112
1008 1776
1008 2544
1009 113
1009 1777
1009 2545
1010 114
1010 1778
1010 2546
1011 115
1011 1779
1011 2547
1012 116
1012 1780
1012 2548
1013 117
1013 1781
1013 2549
1014 118
1014 1782
1014 2550
1015 119
1015 1783
1015 2551
1016 120
1016 1784
1016 2552
1017 121
1017 1785
1017 2553
1018 122
1018 1786
1018 2554
1019 123
1019 1787
1019 2555
1020 124
1020 1788
1020 2556
1021 125
1021 1789
1021 2557
1022 126
1022 1790
1022 2558
1023 127
1023 1791
1023 2559
1024 128
1024 896
1024 2560
1025 129
1025 897
1025 2561
1026 130
1026 898
1026 2562
1027 131
1027 899
1027 2563
1028 132
1028 900
1028 2564
1029 133
1029 901
1029 2565
1030 134
1030 902
1030 2566
1031 135
1031 903
1031 2567
1032 136
1032 904
1032 2568
1033 137
1033 905
1033 2569
1034 138
1034 906
1034 2570
1035 139
1035 907
1035 2571
1036 140
1036 908
1036 2572
1037 141
1037 909
1037 2573
1038 142
1038 910
1038 2574
1039 143
1039 911
1039 2575
1040 144
1040 912
1040 2576
1041 145
1041 913
1041 2577
1042 146
1042 914
1042 2578
1043 147
1043 915
1043 2579
1044 148
1044 916
1044 2580
1045 149
1045 917
1045 2581
1046 150
1046 918
1046 2582
1047 151
1047 919
1047 2583
1048 152
1048 920
1048 2584
1049 153
1049 921
1049 2585
1050 154
1050 922
1050 2586
1051 155
1051 923
1051 2587
1052 156
1052 924
1052 2588
1053 157
1053 925
1053 2589
1054 158
1054 926
1054 2590
1055 159
1055 927
1055 2591
1056 160
1056 928
1056 2592
1057 161
1057 929
1057 2593
1058 162
1058 930
1058 2594
1059 163
1059 931
1059 2595
1060 164
1060 932
1060 2596
1061 165
1061 933
1061 2597
1062 166
1062 934
1062 2598
1063 167
1063 935
1063 2599
1064 168
1064 936
1064 2600
1065 169
1065 937
1065 2601
1066 170
1066 938
1066 2602
1067 171
1067 939
1067 2603
1068 172
1068 940
1068 2604
1069 173
1069 941
1069 2605
1070 174
1070 942
1070 2606
1071 175
1071 943
1071 2607
1072 176
1072 944
1072 2608
1073 177
1073 945
1073 2609
1074 178
1074 946
1074 2610
1075 179
1075 947
1075 2611
1076 180
1076 948
1076 2612
1077 181
1077 949
1077 2613
1078 182
1078 950
1078 2614
1079 183
1079 951
1079 2615
1080 184
1080 952
1080 2616
1081 185
1081 953
1081 2617
1082 186
1082 954
1082 2618
1083 187
1083 955
1083 2619
1084 188
1084 956
1084 2620
1085 189
1085 957
1085 2621
1086 190
1086 958
1086 2622
1087 191
1087 959
1087 2623
1088 192
1088 960
1088 2624
1089 193
1089 961
1089 2625
1090 194
1090 962
1090 2626
1091 195
1091 963
1091 2627
1092 196
1092 964
1092 2628
1093 197
1093 965
1093 2629
1094 198
1094 966
1094 2630
1095 199
1095 967
1095 2631
1096 200
1096 968
1096 2632
1097 201
1097 969
1097 2633
1098 202
1098 970
1098 2634
1099 203
1099 971
1099 2635
1100 204
1100 972
1100 2636
1101 205
1101 973
1101 2637
1102 206
1102 974
1102 2638
1103 207
1103 975
1103 2639
1104 208
1104 976
1104 2640
1105 209
1105 977
1105 2641
1106 210
1106 978
1106 2642
1107 211
1107 979
1107 2643
1108 212
1108 980
1108 2644
1109 213
1109 981
1109 2645
1110 214
1110 982
1110 2646
1111 215
1111 983
1111 2647
1112 216
1112 984
1112 2648
1113 217
1113 985
1113 2649
1114 218
1114 986
1114 2650
1115 219
1115 987
1115 2651
1116 220
1116 988
1116 2652
1117 221
1117 989
1117 2653
1118 222
1118 990
1118 2654
1119 223
1119 991
1119 2655
1120 224
1120 992
1120 2656
1121 225
1121 993
1121 2657
1122 226
1122 994
1122 2658
1123 227
1123 995
1123 2659
1124 228
1124 996
1124 2660
1125 229
1125 997
1125 2661
1126 230
1126 998
1126 2662
1127 231
1127 999
1127 2663
1128 232
1128 1000
1128 2664
1129 233
1129 1001
1129 2665
1130 234
1130 1002
1130 2666
1131 235
1131 1003
1131 2667
1132 236
1132 1004
1132 2668
1133 237
1133 1005
1133 2669
1134 238
1134 1006
1134 2670
1135 239
1135 1007
1135 2671
1136 240
1136 1008
1136 2672
1137 241
1137 1009
1137 2673
1138 242
1138 1010
1138 2674
1139 243
1139 1011
1139 2675
1140 244
1140 1012
1140 2676
1141 245
1141 1013
1141 2677
1142 246
1142 1014
1142 2678
1143 247
1143 1015
1143 2679
1144 248
1144 1016
1144 2680
1145 249
1145 1017
1145 2681
1146 250
1146 1018
1146 2682
1147 251
1147 1019
1147 2683
1148 252
1148 1020
1148 2684
1149 253
1149 1021
1149 2685
1150 254
1150 1022
1150 2686
1151 255
1151 1023
1151 2687
1152 256
1152 1024
1152 1792
1153 257
1153 1025
1153 1793
1154 258
1154 1026
1154 1794
1155 259
1155 1027
1155 1795
1156 260
1156 1028
1156 1796
1157 261
1157 1029
1157 1797
1158 262
1158 1030
1158 1798
1159 263
1159 1031
1159 1799
1160 264
1160 1032
1160 1800
1161 265
1161 1033
1161 1801
1162 266
1162 1034
1162 1802
1163 267
1163 1035
1163 1803
1164 268
1164 1036
1164 1804
1165 269
1165 1037
1165 1805
1166 270
1166 1038
1166 1806
1167 271
1167 1039
1167 1807
1168 272
1168 1040
1168 1808
1169 273
1169 1041
1169 1809
1170 274
1170 1042
1170 1810
1171 275
1171 1043
1171 1811
1172 276
1172 1044
1172 1812
1173 277
1173 1045
1173 1813
1174 278
1174 1046
1174 1814
1175 279
1175 1047
1175 1815
1176 280
1176 1048
1176 1816
1177 281
1177 1049
1177 1817
1178 282
1178 1050
1178 1818
1179 283
1179 1051
1179 1819
1180 284
1180 1052
1180 1820
1181 285
1181 1053
1181 1821
1182 286
1182 1054
1182 1822
1183 287
1183 1055
1183 1823
1184 288
1184 1056
1184 1824
1185 289
1185 1057
1185 1825
1186 290
1186 1058
1186 1826
1187 291
1187 1059
1187 1827
1188 292
1188 1060
1188 1828
1189 293
1189 1061
1189 1829
1190 294
1190 1062
1190 1830
1191 295
1191 1063
1191 1831
1192 296
1192 1064
1192 1832
1193 297
1193 1065
1193 1833
1194 298
1194 1066
1194 1834
1195 299
1195 1067
1195 1835
1196 300
1196 1068
1196 1836
1197 301
1197 1069
1197 1837
1198 302
1198 1070
1198 1838
1199 303
1199 1071
1199 1839
1200 304
1200 1072
1200 1840
1201 305
1201 1073
1201 1841
1202 306
1202 1074
1202 1842
1203 307
1203 1075
1203 1843
1204 308
1204 1076
1204 1844
1205 309
1205 1077
1205 1845
1206 310
1206 1078
1206 1846
1207 311
1207 1079
1207 1847
1208 312
1208 1080
1208 1848
1209 313
1209 1081
1209 1849
1210 314
1210 1082
1210 1850
1211 315
1211 1083
1211 1851
1212 316
1212 1084
1212 1852
1213 317
1213 1085
1213 1853
1214 318
1214 1086
1214 1854
1215 319
1215 1087
1215 1855
1216 320
1216 1088
1216 1856
1217 321
1217 1089
1217 1857
1218 322
1218 1090
1218 1858
1219 323
1219 1091
1219 1859
1220 324
1220 1092
1220 1860
1221 325
1221 1093
1221 1861
1222 326
1222 1094
1222 1862
1223 327
1223 1095
1223 1863
1224 328
1224 1096
1224 1864
1225 329
1225 1097
1225 1865
1226 330
1226 1098
1226 1866
1227 331
1227 1099
1227 1867
1228 332
1228 1100
1228 1868
1229 333
1229 1101
1229 1869
1230 334
1230 1102
1230 1870
1231 335
1231 1103
1231 1871
1232 336
1232 1104
1232 1872
1233 337
1233 1105
1233 1873
1234 338
1234 1106
1234 1874
1235 339
1235 1107
1235 1875
1236 340
1236 1108
1236 1876
1237 341
1237 1109
1237 1877
1238 342
1238 1110
1238 1878
1239 343
1239 1111
1239 1879
1240 344
1240 1112
1240 1880
1241 345
1241 1113
1241 1881
1242 346
1242 1114
1242 1882
1243 347
1243 1115
1243 1883
1244 348
1244 1116
1244 1884
1245 349
1245 1117
1245 1885
1246 350
1246 1118
1246 1886
1247 351
1247 1119
1247 1887
1248 352
1248 1120
1248 1888
1249 353
1249 1121
1249 1889
1250 354
1250 1122
1250 1890
1251 355
1251 1123
1251 1891
1252 356
1252 1124
1252 1892
1253 357
1253 1125
1253 1893
1254 358
1254 1126
1254 1894
1255 359
1255 1127
1255 1895
1256 360
1256 1128
1256 1896
1257 361
1257 1129
1257 1897
1258 362
1258 1130
1258 1898
1259 363
1259 1131
1259 1899
1260 364
1260 1132
1260 1900
1261 365
1261 1133
1261 1901
1262 366
1262 1134
1262 1902
1263 367
1263 1135
1263 1903
1264 368
1264 1136
1264 1904
1265 369
1265 1137
1265 1905
1266 370
1266 1138
1266 1906
1267 371
1267 1139
1267 1907
1268 372
1268 1140
1268 1908
1269 373
1269 1141
1269 1909
1270 374
1270 1142
1270 1910
1271 375
1271 1143
1271 1911
1272 376
1272 1144
1272 1912
1273 377
1273 1145
1273 1913
1274 378
1274 1146
1274 1914
1275 379
1275 1147
1275 1915
1276 380
1276 1148
1276 1916
1277 381
1277 1149
1277 1917
1278 382
1278 1150
1278 1918
1279 383
1279 1151
1279 1919
1280 384
1280 1152
1280 1920
1281 385
1281 1153
1281 1921
1282 386
1282 1154
1282 1922
1283 387
1283 1155
1283 1923
1284 388
1284 1156
1284 1924
1285 389
1285 1157
1285 1925
1286 390
1286 1158
1286 1926
1287 391
1287 1159
1287 1927
1288 392
1288 1160
1288 1928
1289 393
1289 1161
1289 1929
1290 394
1290 1162
1290 1930
1291 395
1291 1163
1291 1931
1292 396
1292 1164
1292 1932
1293 397
1293 1165
1293 1933
1294 398
1294 1166
1294 1934
1295 399
1295 1167
1295 1935
1296 400
1296 1168
1296 1936
1297 401
1297 1169
1297 1937
1298 402
1298 1170
1298 1938
1299 403
1299 1171
1299 1939
1300 404
1300 1172
1300 1940
1301 405
1301 1173
1301 1941
1302 406
1302 1174
1302 1942
1303 407
1303 1175
1303 1943
1304 408
1304 1176
1304 1944
1305 409
1305 1177
1305 1945
1306 410
1306 1178
1306 1946
1307 411
1307 1179
1307 1947
1308 412
1308 1180
1308 1948
1309 413
1309 1181
1309 1949
1310 414
1310 1182
1310 1950
1311 415
1311 1183
1311 1951
1312 416
1312 1184
1312 1952
1313 417
1313 1185
1313 1953
1314 418
1314 1186
1314 1954
1315 419
1315 1187
1315 1955
1316 420
1316 1188
1316 1956
1317 421
1317 1189
1317 1957
1318 422
1318 1190
1318 1958
1319 423
1319 1191
1319 1959
1320 424
1320 1192
1320 1960
1321 425
1321 1193
1321 1961
1322 426
1322 1194
1322 1962
1323 427
1323 1195
1323 1963
1324 428
1324 1196
1324 1964
1325 429
1325 1197
1325 1965
1326 430
1326 1198
1326 1966
1327 431
1327 1199
1327 1967
1328 432
1328 1200
1328 1968
1329 433
1329 1201
1329 1969
1330 434
1330 1202
1330 1970
1331 435
1331 1203
1331 1971
1332 436
1332 1204
1332 1972
1333 437
1333 1205
1333 1973
1334 438
1334 1206
1334 1974
1335 439
1335 1207
1335 1975
1336 440
1336 1208
1336 1976
1337 441
1337 1209
1337 1977
1338 442
1338 1210
1338 1978
1339 443
1339 1211
1339 1979
1340 444
1340 1212
1340 1980
1341 445
1341 1213
1341 1981
1342 446
1342 1214
1342 1982
1343 447
1343 1215
1343 1983
1344 448
1344 1216
1344 1984
1345 449
1345 1217
1345 1985
1346 450
1346 1218
1346 1986
1347 451
1347 1219
1347 1987
1348 452
1348 1220
1348 1988
1349 453
1349 1221
1349 1989
1350 454
1350 1222
1350 1990
1351 455
1351 1223
1351 1991
1352 456
1352 1224
1352 1992
1353 457
1353 1225
1353 1993
1354 458
1354 1226
1354 1994
1355 459
1355 1227
1355 1995
1356 460
1356 1228
1356 1996
1357 461
1357 1229
1357 1997
1358 462
1358 1230
1358 1998
1359 463
1359 1231
1359 1999
1360 464
1360 1232
1360 2000
1361 465
1361 1233
1361 2001
1362 466
1362 1234
1362 2002
1363 467
1363 1235
1363 2003
1364 468
1364 1236
1364 2004
1365 469
1365 1237
1365 2005
1366 470
1366 1238
1366 2006
1367 471
1367 1239
1367 2007
1368 472
1368 1240
1368 2008
1369 473
1369 1241
1369 2009
1370 474
1370 1242
1370 2010
1371 475
1371 1243
1371 2011
1372 476
1372 1244
1372 2012
1373 477
1373 1245
1373 2013
1374 478
1374 1246
1374 2014
1375 479
1375 1247
1375 2015
1376 480
1376 1248
1376 2016
1377 481
1377 1249
1377 2017
1378 482
1378 1250
1378 2018
1379 483
1379 1251
1379 2019
1380 484
1380 1252
1380 2020
1381 485
1381 1253
1381 2021
1382 486
1382 1254
1382 2022
1383 487
1383 1255
1383 2023
1384 488
1384 1256
1384 2024
1385 489
1385 1257
1385 2025
1386 490
1386 1258
1386 2026
1387 491
1387 1259
1387 2027
1388 492
1388 1260
1388 2028
1389 493
1389 1261
1389 2029
1390 494
1390 1262
1390 2030
1391 495
1391 1263
1391 2031
1392 496
1392 1264
1392 2032
1393 497
1393 1265
1393 2033
1394 498
1394 1266
1394 2034
1395 499
1395 1267
1395 2035
1396 500
1396 1268
1396 2036
1397 501
1397 1269
1397 2037
1398 502
1398 1270
1398 2038
1399 503
1399 1271
1399 2039
1400 504
1400 1272
1400 2040
1401 505
1401 1273
1401 2041
1402 506
1402 1274
1402 2042
1403 507
1403 1275
1403 2043
1404 508
1404 1276
1404 2044
1405 509
1405 1277
1405 2045
1406 510
1406 1278
1406 2046
1407 511
1407 1279
1407 2047
1408 512
1408 1280
1408 2048
1409 513
1409 1281
1409 2049
1410 514
1410 1282
1410 2050
1411 515
1411 1283
1411 2051
1412 516
1412 1284
1412 2052
1413 517
1413 1285
1413 2053
1414 518
1414 1286
1414 2054
1415 519
1415 1287
1415 2055
1416 520
1416 1288
1416 2056
1417 521
1417 1289
1417 2057
1418 522
1418 1290
1418 2058
1419 523
1419 1291
1419 2059
1420 524
1420 1292
1420 2060
1421 525
1421 1293
1421 2061
1422 526
1422 1294
1422 2062
1423 527
1423 1295
1423 2063
1424 528
1424 1296
1424 2064
1425 529
1425 1297
1425 2065
1426 530
1426 1298
1426 2066
1427 531
1427 1299
1427 2067
1428 532
1428 1300
1428 2068
1429 533
1429 1301
1429 2069
1430 534
1430 1302
1430 2070
1431 535
1431 1303
1431 2071
1432 536
1432 1304
1432 2072
1433 537
1433 1305
1433 2073
1434 538
1434 1306
1434 2074
1435 539
1435 1307
1435 2075
1436 540
1436 1308
1436 2076
1437 541
1437 1309
1437 2077
1438 542
1438 1310
1438 2078
1439 543
1439 1311
1439 2079
1440 544
1440 1312
1440 2080
1441 545
1441 1313
1441 2081
1442 546
1442 1314
1442 2082
1443 547
1443 1315
1443 2083
1444 548
1444 1316
1444 2084
1445 549
1445 1317
1445 2085
1446 550
1446 1318
1446 2086
1447 551
1447 1319
1447 2087
1448 552
1448 1320
1448 2088
1449 553
1449 1321
1449 2089
1450 554
1450 1322
1450 2090
1451 555
1451 1323
1451 2091
1452 556
1452 1324
1452 2092
1453 557
1453 1325
1453 2093
1454 558
1454 1326
1454 2094
1455 559
1455 1327
1455 2095
1456 560
1456 1328
1456 2096
1457 561
1457 1329
1457 2097
1458 562
1458 1330
1458 2098
1459 563
1459 1331
1459 2099
1460 564
1460 1332
1460 2100
1461 565
1461 1333
1461 2101
1462 566
1462 1334
1462 2102
1463 567
1463 1335
1463 2103
1464 568
1464 1336
1464 2104
1465 569
1465 1337
1465 2105
1466 570
1466 1338
1466 2106
1467 571
1467 1339
1467 2107
1468 572
1468 1340
1468 2108
1469 573
1469 1341
1469 2109
1470 574
1470 1342
1470 2110
1471 575
1471 1343
1471 2111
1472 576
1472 1344
1472 2112
1473 577
1473 1345
1473 2113
1474 578
1474 1346
1474 2114
1475 579
1475 1347
1475 2115
1476 580
1476 1348
1476 2116
1477 581
1477 1349
1477 2117
1478 582
1478 1350
1478 2118
1479 583
1479 1351
1479 2119
1480 584
1480 1352
1480 2120
1481 585
1481 1353
1481 2121
1482 586
1482 1354
1482 2122
1483 587
1483 1355
1483 2123
1484 588
1484 1356
1484 2124
1485 589
1485 1357
1485 2125
1486 590
1486 1358
1486 2126
1487 591
1487 1359
1487 2127
1488 592
1488 1360
1488 2128
1489 593
1489 1361
1489 2129
1490 594
1490 1362
1490 2130
1491 595
1491 1363
1491 2131
1492 596
1492 1364
1492 2132
1493 597
1493 1365
1493 2133
1494 598
1494 1366
1494 2134
1495 599
1495 1367
1495 2135
1496 600
1496 1368
1496 2136
1497 601
1497 1369
1497 2137
1498 602
1498 1370
1498 2138
1499 603
1499 1371
1499 2139
1500 604
1500 1372
1500 2140
1501 605
1501 1373
1501 2141
1502 606
1502 1374
1502 2142
1503 607
1503 1375
1503 2143
1504 608
1504 1376
1504 2144
1505 609
1505 1377
1505 2145
1506 610
1506 1378
1506 2146
1507 611
1507 1379
1507 2147
1508 612
1508 1380
1508 2148
1509 613
1509 1381
1509 2149
1510 614
1510 1382
1510 2150
1511 615
1511 1383
1511 2151
1512 616
1512 1384
1512 2152
1513 617
1513 1385
1513 2153
1514 618
1514 1386
1514 2154
1515 619
1515 1387
1515 2155
1516 620
1516 1388
1516 2156
1517 621
1517 1389
1517 2157
1518 622
1518 1390
1518 2158
1519 623
1519 1391
1519 2159
1520 624
1520 1392
1520 2160
1521 625
1521 1393
1521 2161
1522 626
1522 1394
1522 2162
1523 627
1523 1395
1523 2163
1524 628
1524 1396
1524 2164
1525 629
1525 1397
1525 2165
1526 630
1526 1398
1526 2166
1527 631
1527 1399
1527 2167
1528 632
1528 1400
1528 2168
1529 633
1529 1401
1529 2169
1530 634
1530 1402
1530 2170
1531 635
1531 1403
1531 2171
1532 636
1532 1404
1532 2172
1533 637
1533 1405
1533 2173
1534 638
1534 1406
1534 2174
1535 639
1535 1407
1535 2175
1536 640
1536 1408
1536 2176
1537 641
1537 1409
1537 2177
1538 642
1538 1410
1538 2178
1539 643
1539 1411
1539 2179
1540 644
1540 1412
1540 2180
1541 645
1541 1413
1541 2181
1542 646
1542 1414
1542 2182
1543 647
1543 1415
1543 2183
1544 648
1544 1416
1544 2184
1545 649
1545 1417
1545 2185
1546 650
1546 1418
1546 2186
1547 651
1547 1419
1547 2187
1548 652
1548 1420
1548 2188
1549 653
1549 1421
1549 2189
1550 654
1550 1422
1550 2190
1551 655
1551 1423
1551 2191
1552 656
1552 1424
1552 2192
1553 657
1553 1425
1553 2193
1554 658
1554 1426
1554 2194
1555 659
1555 1427
1555 2195
1556 660
1556 1428
1556 2196
1557 661
1557 1429
1557 2197
1558 662
1558 1430
1558 2198
1559 663
1559 1431
1559 2199
1560 664
1560 1432
1560 2200
1561 665
1561 1433
1561 2201
1562 666
1562 1434
1562 2202
1563 667
1563 1435
1563 2203
1564 668
1564 1436
1564 2204
1565 669
1565 1437
1565 2205
1566 670
1566 1438
1566 2206
1567 671
1567 1439
1567 2207
1568 672
1568 1440
1568 2208
1569 673
1569 1441
1569 2209
1570 674
1570 1442
1570 2210
1571 675
1571 1443
1571 2211
1572 676
1572 1444
1572 2212
1573 677
1573 1445
1573 2213
1574 678
1574 1446
1574 2214
1575 679
1575 1447
1575 2215
1576 680
1576 1448
1576 2216
1577 681
1577 1449
1577 2217
1578 682
1578 1450
1578 2218
1579 683
1579 1451
1579 2219
1580 684
1580 1452
1580 2220
1581 685
1581 1453
1581 2221
1582 686
1582 1454
1582 2222
1583 687
1583 1455
1583 2223
1584 688
1584 1456
1584 2224
1585 689
1585 1457
1585 2225
1586 690
1586 1458
1586 2226
1587 691
1587 1459
1587 2227
1588 692
1588 1460
1588 2228
1589 693
1589 1461
1589 2229
1590 694
1590 1462
1590 2230
1591 695
1591 1463
1591 2231
1592 696
1592 1464
1592 2232
1593 697
1593 1465
1593 2233
1594 698
1594 1466
1594 2234
1595 699
1595 1467
1595 2235
1596 700
1596 1468
1596 2236
1597 701
1597 1469
1597 2237
1598 702
1598 1470
1598 2238
1599 703
1599 1471
1599 2239
1600 704
1600 1472
1600 2240
1601 705
1601 1473
1601 2241
1602 706
1602 1474
1602 2242
1603 707
1603 1475
1603 2243
1604 708
1604 1476
1604 2244
1605 709
1605 1477
1605 2245
1606 710
1606 1478
1606 2246
1607 711
1607 1479
1607 2247
1608 712
1608 1480
1608 2248
1609 713
1609 1481
1609 2249
1610 714
1610 1482
1610 2250
1611 715
1611 1483
1611 2251
1612 716
1612 1484
1612 2252
1613 717
1613 1485
1613 2253
1614 718
1614 1486
1614 2254
1615 719
1615 1487
1615 2255
1616 720
1616 1488
1616 2256
1617 721
1617 1489
1617 2257
1618 722
1618 1490
1618 2258
1619 723
1619 1491
1619 2259
1620 724
1620 1492
1620 2260
1621 725
1621 1493
1621 2261
1622 726
1622 1494
1622 2262
1623 727
1623 1495
1623 2263
1624 728
1624 1496
1624 2264
1625 729
1625 1497
1625 2265
1626 730
1626 1498
1626 2266
1627 731
1627 1499
1627 2267
1628 732
1628 1500
1628 2268
1629 733
1629 1501
1629 2269
1630 734
1630 1502
1630 2270
1631 735
1631 1503
1631 2271
1632 736
1632 1504
1632 2272
1633 737
1633 1505
1633 2273
1634 738
1634 1506
1634 2274
1635 739
1635 1507
1635 2275
1636 740
1636 1508
1636 2276
1637 741
1637 1509
1637 2277
1638 742
1638 1510
1638 2278
1639 743
1639 1511
1639 2279
1640 744
1640 1512
1640 2280
1641 745
1641 1513
1641 2281
1642 746
1642 1514
1642 2282
1643 747
1643 1515
1643 2283
1644 748
1644 1516
1644 2284
1645 749
1645 1517
1645 2285
1646 750
1646 1518
1646 2286
1647 751
1647 1519
1647 2287
1648 752
1648 1520
1648 2288
1649 753
1649 1521
1649 2289
1650 754
1650 1522
1650 2290
1651 755
1651 1523
1651 2291
1652 756
1652 1524
1652 2292
1653 757
1653 1525
1653 2293
1654 758
1654 1526
1654 2294
1655 759
1655 1527
1655 2295
1656 760
1656 1528
1656 2296
1657 761
1657 1529
1657 2297
1658 762
1658 1530
1658 2298
1659 763
1659 1531
1659 2299
1660 764
1660 1532
1660 2300
1661 765
1661 1533
1661 2301
1662 766
1662 1534
1662 2302
1663 767
1663 1535
1663 2303
1664 768
1664 1536
1664 2304
1665 769
1665 1537
1665 2305
1666 770
1666 1538
1666 2306
1667 771
1667 1539
1667 2307
1668 772
1668 1540
1668 2308
1669 773
1669 1541
1669 2309
1670 774
1670 1542
1670 2310
1671 775
1671 1543
1671 2311
1672 776
1672 1544
1672 2312
1673 777
1673 1545
1673 2313
1674 778
1674 1546
1674 2314
1675 779
1675 1547
1675 2315
1676 780
1676 1548
1676 2316
1677 781
1677 1549
1677 2317
1678 782
1678 1550
1678 2318
1679 783
1679 1551
1679 2319
1680 784
1680 1552
1680 2320
1681 785
1681 1553
1681 2321
1682 786
1682 1554
1682 2322
1683 787
1683 1555
1683 2323
1684 788
1684 1556
1684 2324
1685 789
1685 1557
1685 2325
1686 790
1686 1558
1686 2326
1687 791
1687 1559
1687 2327
1688 792
1688 1560
1688 2328
1689 793
1689 1561
1689 2329
1690 794
1690 1562
1690 2330
1691 795
1691 1563
1691 2331
1692 796
1692 1564
1692 2332
1693 797
1693 1565
1693 2333
1694 798
1694 1566
1694 2334
1695 799
1695 1567
1695 2335
1696 800
1696 1568
1696 2336
1697 801
1697 1569
1697 2337
1698 802
1698 1570
1698 2338
1699 803
1699 1571
1699 2339
1700 804
1700 1572
1700 2340
1701 805
1701 1573
1701 2341
1702 806
1702 1574
1702 2342
1703 807
1703 1575
1703 2343
1704 808
1704 1576
1704 2344
1705 809
1705 1577
1705 2345
1706 810
1706 1578
1706 2346
1707 811
1707 1579
1707 2347
1708 812
1708 1580
1708 2348
1709 813
1709 1581
1709 2349
1710 814
1710 1582
1710 2350
1711 815
1711 1583
1711 2351
1712 816
1712 1584
1712 2352
1713 817
1713 1585
1713 2353
1714 818
1714 1586
1714 2354
1715 819
1715 1587
1715 2355
1716 820
1716 1588
1716 2356
1717 821
1717 1589
1717 2357
1718 822
1718 1590
1718 2358
1719 823
1719 1591
1719 2359
1720 824
1720 1592
1720 2360
1721 825
1721 1593
1721 2361
1722 826
1722 1594
1722 2362
1723 827
1723 1595
1723 2363
1724 828
1724 1596
1724 2364
1725 829
1725 1597
1725 2365
1726 830
1726 1598
1726 2366
1727 831
1727 1599
1727 2367
1728 832
1728 1600
1728 2368
1729 833
1729 1601
1729 2369
1730 834
1730 1602
1730 2370
1731 835
1731 1603
1731 2371
1732 836
1732 1604
1732 2372
1733 837
1733 1605
1733 2373
1734 838
1734 1606
1734 2374
1735 839
1735 1607
1735 2375
1736 840
1736 1608
1736 2376
1737 841
1737 1609
1737 2377
1738 842
1738 1610
1738 2378
1739 843
1739 1611
1739 2379
1740 844
1740 1612
1740 2380
1741 845
1741 1613
1741 2381
1742 846
1742 1614
1742 2382
1743 847
1743 1615
1743 2383
1744 848
1744 1616
1744 2384
1745 849
1745 1617
1745 2385
1746 850
1746 1618
1746 2386
1747 851
1747 1619
1747 2387
1748 852
1748 1620
1748 2388
1749 853
1749 1621
1749 2389
1750 854
1750 1622
1750 2390
1751 855
1751 1623
1751 2391
1752 856
1752 1624
1752 2392
1753 857
1753 1625
1753 2393
1754 858
1754 1626
1754 2394
1755 859
1755 1627
1755 2395
1756 860
1756 1628
1756 2396
1757 861
1757 1629
1757 2397
1758 862
1758 1630
1758 2398
1759 863
1759 1631
1759 2399
1760 864
1760 1632
1760 2400
1761 865
1761 1633
1761 2401
1762 866
1762 1634
1762 2402
1763 867
1763 1635
1763 2403
1764 868
1764 1636
1764 2404
1765 869
1765 1637
1765 2405
1766 870
1766 1638
1766 2406
1767 871
1767 1639
1767 2407
1768 872
1768 1640
1768 2408
1769 873
1769 1641
1769 2409
1770 874
1770 1642
1770 2410
1771 875
1771 1643
1771 2411
1772 876
1772 1644
1772 2412
1773 877
1773 1645
1773 2413
1774 878
1774 1646
1774 2414
1775 879
1775 1647
1775 2415
1776 880
1776 1648
1776 2416
1777 881
1777 1649
1777 2417
1778 882
1778 1650
1778 2418
1779 883
1779 1651
1779 2419
1780 884
1780 1652
1780 2420
1781 885
1781 1653
1781 2421
1782 886
1782 1654
1782 2422
1783 887
1783 1655
1783 2423
1784 888
1784 1656
1784 2424
1785 889
1785 1657
1785 2425
1786 890
1786 1658
1786 2426
1787 891
1787 1659
1787 2427
1788 892
1788 1660
1788 2428
1789 893
1789 1661
1789 2429
1790 894
1790 1662
1790 2430
1791 895
1791 1663
1791 2431
1792 0
1792 1536
1792 2176
1793 1
1793 1537
1793 2177
1794 2
1794 1538
1794 2178
1795 3
1795 1539
1795 2179
1796 4
1796 1540
1796 2180
1797 5
1797 1541
1797 2181
1798 6
1798 1542
1798 2182
1799 7
1799 1543
1799 2183
1800 8
1800 1544
1800 2184
1801 9
1801 1545
1801 2185
1802 10
1802 1546
1802 2186
1803 11
1803 1547
1803 2187
1804 12
1804 1548
1804 2188
1805 13
1805 1549
1805 2189
1806 14
1806 1550
1806 2190
1807 15
1807 1551
1807 2191
1808 16
1808 1552
1808 2192
1809 17
1809 1553
1809 2193
1810 18
1810 1554
1810 2194
1811 19
1811 1555
1811 2195
1812 20
1812 1556
1812 2196
1813 21
1813 1557
1813 2197
1814 22
1814 1558
1814 2198
1815 23
1815 1559
1815 2199
1816 24
1816 1560
1816 2200
1817 25
1817 1561
1817 2201
1818 26
1818 1562
1818 2202
1819 27
1819 1563
1819 2203
1820 28
1820 1564
1820 2204
1821 29
1821 1565
1821 2205
1822 30
1822 1566
1822 2206
1823 31
1823 1567
1823 2207
1824 32
1824 1568
1824 2208
1825 33
1825 1569
1825 2209
1826 34
1826 1570
1826 2210
1827 35
1827 1571
1827 2211
1828 36
1828 1572
1828 2212
1829 37
1829 1573
1829 2213
1830 38
1830 1574
1830 2214
1831 39
1831 1575
1831 2215
1832 40
1832 1576
1832 2216
1833 41
1833 1577
1833 2217
1834 42
1834 1578
1834 2218
1835 43
1835 1579
1835 2219
1836 44
1836 1580
1836 2220
1837 45
1837 1581
1837 2221
1838 46
1838 1582
1838 2222
1839 47
1839 1583
1839 2223
1840 48
1840 1584
1840 2224
1841 49
1841 1585
1841 2225
1842 50
1842 1586
1842 2226
1843 51
1843 1587
1843 2227
1844 52
1844 1588
1844 2228
1845 53
1845 1589
1845 2229
1846 54
1846 1590
1846 2230
1847 55
1847 1591
1847 2231
1848 56
1848 1592
1848 2232
1849 57
1849 1593
1849 2233
1850 58
1850 1594
1850 2234
1851 59
1851 1595
1851 2235
1852 60
1852 1596
1852 2236
1853 61
1853 1597
1853 2237
1854 62
1854 1598
1854 2238
1855 63
1855 1599
1855 2239
1856 64
1856 1600
1856 2240
1857 65
1857 1601
1857 2241
1858 66
1858 1602
1858 2242
1859 67
1859 1603
1859 2243
1860 68
1860 1604
1860 2244
1861 69
1861 1605
1861 2245
1862 70
1862 1606
1862 2246
1863 71
1863 1607
1863 2247
1864 72
1864 1608
1864 2248
1865 73
1865 1609
1865 2249
1866 74
1866 1610
1866 2250
1867 75
1867 1611
1867 2251
1868 76
1868 1612
1868 2252
1869 77
1869 1613
1869 2253
1870 78
1870 1614
1870 2254
1871 79
1871 1615
1871 2255
1872 80
1872 1616
1872 2256
1873 81
1873 1617
1873 2257
1874 82
1874 1618
1874 2258
1875 83
1875 1619
1875 2259
1876 84
1876 1620
1876 2260
1877 85
1877 1621
1877 2261
1878 86
1878 1622
1878 2262
1879 87
1879 1623
1879 2263
1880 88
1880 1624
1880 2264
1881 89
1881 1625
1881 2265
1882 90
1882 1626
1882 2266
1883 91
1883 1627
1883 2267
1884 92
1884 1628
1884 2268
1885 93
1885 1629
1885 2269
1886 94
1886 1630
1886 2270
1887 95
1887 1631
1887 2271
1888 96
1888 1632
1888 2272
1889 97
1889 1633
1889 2273
1890 98
1890 1634
1890 2274
1891 99
1891 1635
1891 2275
1892 100
1892 1636
1892 2276
1893 101
1893 1637
1893 2277
1894 102
1894 1638
1894 2278
1895 103
1895 1639
1895 2279
1896 104
1896 1640
1896 2280
1897 105
1897 1641
1897 2281
1898 106
1898 1642
1898 2282
1899 107
1899 1643
1899 2283
1900 108
1900 1644
1900 2284
1901 109
1901 1645
1901 2285
1902 110
1902 1646
1902 2286
1903 111
1903 1647
1903 2287
1904 112
1904 1648
1904 2288
1905 113
1905 1649
1905 2289
1906 114
1906 1650
1906 2290
1907 115
1907 1651
1907 2291
1908 116
1908 1652
1908 2292
1909 117
1909 1653
1909 2293
1910 118
1910 1654
1910 2294
1911 119
1911 1655
1911 2295
1912 120
1912 1656
1912 2296
1913 121
1913 1657
1913 2297
1914 122
1914 1658
1914 2298
1915 123
1915 1659
1915 2299
1916 124
1916 1660
1916 2300
1917 125
1917 1661
1917 2301
1918 126
1918 1662
1918 2302
1919 127
1919 1663
1919 2303
1920 128
1920 1664
1920 2304
1921 129
1921 1665
1921 2305
1922 130
1922 1666
1922 2306
1923 131
1923 1667
1923 2307
1924 132
1924 1668
1924 2308
1925 133
1925 1669
1925 2309
1926 134
1926 1670
1926 2310
1927 135
1927 1671
1927 2311
1928 136
1928 1672
1928 2312
1929 137
1929 1673
1929 2313
1930 138
1930 1674
1930 2314
1931 139
1931 1675
1931 2315
1932 140
1932 1676
1932 2316
1933 141
1933 1677
1933 2317
1934 142
1934 1678
1934 2318
1935 143
1935 1679
1935 2319
1936 144
1936 1680
1936 2320
1937 145
1937 1681
1937 2321
1938 146
1938 1682
1938 2322
1939 147
1939 1683
1939 2323
1940 148
1940 1684
1940 2324
1941 149
1941 1685
1941 2325
1942 150
1942 1686
1942 2326
1943 151
1943 1687
1943 2327
1944 152
1944 1688
1944 2328
1945 153
1945 1689
1945 2329
1946 154
1946 1690
1946 2330
1947 155
1947 1691
1947 2331
1948 156
1948 1692
1948 2332
1949 157
1949 1693
1949 2333
1950 158
1950 1694
1950 2334
1951 159
1951 1695
1951 2335
1952 160
1952 1696
1952 2336
1953 161
1953 1697
1953 2337
1954 162
1954 1698
1954 2338
1955 163
1955 1699
1955 2339
1956 164
1956 1700
1956 2340
1957 165
1957 1701
1957 2341
1958 166
1958 1702
1958 2342
1959 167
1959 1703
1959 2343
1960 168
1960 1704
1960 2344
1961 169
1961 1705
1961 2345
1962 170
1962 1706
1962 2346
1963 171
1963 1707
1963 2347
1964 172
1964 1708
1964 2348
1965 173
1965 1709
1965 2349
1966 174
1966 1710
1966 2350
1967 175
1967 1711
1967 2351
1968 176
1968 1712
1968 2352
1969 177
1969 1713
1969 2353
1970 178
1970 1714
1970 2354
1971 179
1971 1715
1971 2355
1972 180
1972 1716
1972 2356
1973 181
1973 1717
1973 2357
1974 182
1974 1718
1974 2358
1975 183
1975 1719
1975 2359
1976 184
1976 1720
1976 2360
1977 185
1977 1721
1977 2361
1978 186
1978 1722
1978 2362
1979 187
1979 1723
1979 2363
1980 188
1980 1724
1980 2364
1981 189
1981 1725
1981 2365
1982 190
1982 1726
1982 2366
1983 191
1983 1727
1983 2367
1984 192
1984 1728
1984 2368
1985 193
1985 1729
1985 2369
1986 194
1986 1730
1986 2370
1987 195
1987 1731
1987 2371
1988 196
1988 1732
1988 2372
1989 197
1989 1733
1989 2373
1990 198
1990 1734
1990 2374
1991 199
1991 1735
1991 2375
1992 200
1992 1736
1992 2376
1993 201
1993 1737
1993 2377
1994 202
1994 1738
1994 2378
1995 203
1995 1739
1995 2379
1996 204
1996 1740
1996 2380
1997 205
1997 1741
1997 2381
1998 206
1998 1742
1998 2382
1999 207
1999 1743
1999 2383
2000 208
2000 1744
2000 2384
2001 209
2001 1745
2001 2385
2002 210
2002 1746
2002 2386
2003 211
2003 1747
2003 2387
2004 212
2004 1748
2004 2388
2005 213
2005 1749
2005 2389
2006 214
2006 1750
2006 2390
2007 215
2007 1751
2007 2391
2008 216
2008 1752
2008 2392
2009 217
2009 1753
2009 2393
2010 218
2010 1754
2010 2394
2011 219
2011 1755
2011 2395
2012 220
2012 1756
2012 2396
2013 221
2013 1757
2013 2397
2014 222
2014 1758
2014 2398
2015 223
2015 1759
2015 2399
2016 224
2016 1760
2016 2400
2017 225
2017 1761
2017 2401
2018 226
2018 1762
2018 2402
2019 227
2019 1763
2019 2403
2020 228
2020 1764
2020 2404
2021 229
2021 1765
2021 2405
2022 230
2022 1766
2022 2406
2023 231
2023 1767
2023 2407
2024 232
2024 1768
2024 2408
2025 233
2025 1769
2025 2409
2026 234
2026 1770
2026 2410
2027 235
2027 1771
2027 2411
2028 236
2028 1772
2028 2412
2029 237
2029 1773
2029 2413
2030 238
2030 1774
2030 2414
2031 239
2031 1775
2031 2415
2032 240
2032 1776
2032 2416
2033 241
2033 1777
2033 2417
2034 242
2034 1778
2034 2418
2035 243
2035 1779
2035 2419
2036 244
2036 1780
2036 2420
2037 245
2037 1781
2037 2421
2038 246
2038 1782
2038 2422
2039 247
2039 1783
2039 2423
2040 248
2040 1784
2040 2424
2041 249
2041 1785
2041 2425
2042 250
2042 1786
2042 2426
2043 251
2043 1787
2043 2427
2044 252
2044 1788
2044 2428
2045 253
2045 1789
2045 2429
2046 254
2046 1790
2046 2430
2047 255
2047 1791
2047 2431
2048 256
2048 896
2048 2432
2049 257
2049 897
2049 2433
2050 258
2050 898
2050 2434
2051 259
2051 899
2051 2435
2052 260
2052 900
2052 2436
2053 261
2053 901
2053 2437
2054 262
2054 902
2054 2438
2055 263
2055 903
2055 2439
2056 264
2056 904
2056 2440
2057 265
2057 905
2057 2441
2058 266
2058 906
2058 2442
2059 267
2059 907
2059 2443
2060 268
2060 908
2060 2444
2061 269
2061 909
2061 2445
2062 270
2062 910
2062 2446
2063 271
2063 911
2063 2447
2064 272
2064 912
2064 2448
2065 273
2065 913
2065 2449
2066 274
2066 914
2066 2450
2067 275
2067 915
2067 2451
2068 276
2068 916
2068 2452
2069 277
2069 917
2069 2453
2070 278
2070 918
2070 2454
2071 279
2071 919
2071 2455
2072 280
2072 920
2072 2456
2073 281
2073 921
2073 2457
2074 282
2074 922
2074 2458
2075 283
2075 923
2075 2459
2076 284
2076 924
2076 2460
2077 285
2077 925
2077 2461
2078 286
2078 926
2078 2462
2079 287
2079 927
2079 2463
2080 288
2080 928
2080 2464
2081 289
2081 929
2081 2465
2082 290
2082 930
2082 2466
2083 291
2083 931
2083 2467
2084 292
2084 932
2084 2468
2085 293
2085 933
2085 2469
2086 294
2086 934
2086 2470
2087 295
2087 935
2087 2471
2088 296
2088 936
2088 2472
2089 297
2089 937
2089 2473
2090 298
2090 938
2090 2474
2091 299
2091 939
2091 2475
2092 300
2092 940
2092 2476
2093 301
2093 941
2093 2477
2094 302
2094 942
2094 2478
2095 303
2095 943
2095 2479
2096 304
2096 944
2096 2480
2097 305
2097 945
2097 2481
2098 306
2098 946
2098 2482
2099 307
2099 947
2099 2483
2100 308
2100 948
2100 2484
2101 309
2101 949
2101 2485
2102 310
2102 950
2102 2486
2103 311
2103 951
2103 2487
2104 312
2104 952
2104 2488
2105 313
2105 953
2105 2489
2106 314
2106 954
2106 2490
2107 315
2107 955
2107 2491
2108 316
2108 956
2108 2492
2109 317
2109 957
2109 2493
2110 318
2110 958
2110 2494
2111 319
2111 959
2111 2495
2112 320
2112 960
2112 2496
2113 321
2113 961
2113 2497
2114 322
2114 962
2114 2498
2115 323
2115 963
2115 2499
2116 324
2116 964
2116 2500
2117 325
2117 965
2117 2501
2118 326
2118 966
2118 2502
2119 327
2119 967
2119 2503
2120 328
2120 968
2120 2504
2121 329
2121 969
2121 2505
2122 330
2122 970
2122 2506
2123 331
2123 971
2123 2507
2124 332
2124 972
2124 2508
2125 333
2125 973
2125 2509
2126 334
2126 974
2126 2510
2127 335
2127 975
2127 2511
2128 336
2128 976
2128 2512
2129 337
2129 977
2129 2513
2130 338
2130 978
2130 2514
2131 339
2131 979
2131 2515
2132 340
2132 980
2132 2516
2133 341
2133 981
2133 2517
2134 342
2134 982
2134 2518
2135 343
2135 983
2135 2519
2136 344
2136 984
2136 2520
2137 345
2137 985
2137 2521
2138 346
2138 986
2138 2522
2139 347
2139 987
2139 2523
2140 348
2140 988
2140 2524
2141 349
2141 989
2141 2525
2142 350
2142 990
2142 2526
2143 351
2143 991
2143 2527
2144 352
2144 992
2144 2528
2145 353
2145 993
2145 2529
2146 354
2146 994
2146 2530
2147 355
2147 995
2147 2531
2148 356
2148 996
2148 2532
2149 357
2149 997
2149 2533
2150 358
2150 998
2150 2534
2151 359
2151 999
2151 2535
2152 360
2152 1000
2152 2536
2153 361
2153 1001
2153 2537
2154 362
2154 1002
2154 2538
2155 363
2155 1003
2155 2539
2156 364
2156 1004
2156 2540
2157 365
2157 1005
2157 2541
2158 366
2158 1006
2158 2542
2159 367
2159 1007
2159 2543
2160 368
2160 1008
2160 2544
2161 369
2161 1009
2161 2545
2162 370
2162 1010
2162 2546
2163 371
2163 1011
2163 2547
2164 372
2164 1012
2164 2548
2165 373
2165 1013
2165 2549
2166 374
2166 1014
2166 2550
2167 375
2167 1015
2167 2551
2168 376
2168 1016
2168 2552
2169 377
2169 1017
2169 2553
2170 378
2170 1018
2170 2554
2171 379
2171 1019
2171 2555
2172 380
2172 1020
2172 2556
2173 381
2173 1021
2173 2557
2174 382
2174 1022
2174 2558
2175 383
2175 1023
2175 2559
2176 384
2176 1024
2176 2560
2177 385
2177 1025
2177 2561
2178 386
2178 1026
2178 2562
2179 387
2179 1027
2179 2563
2180 388
2180 1028
2180 2564
2181 389
2181 1029
2181 2565
2182 390
2182 1030
2182 2566
2183 391
2183 1031
2183 2567
2184 392
2184 1032
2184 2568
2185 393
2185 1033
2185 2569
2186 394
2186 1034
2186 2570
2187 395
2187 1035
2187 2571
2188 396
2188 1036
2188 2572
2189 397
2189 1037
2189 2573
2190 398
2190 1038
2190 2574
2191 399
2191 1039
2191 2575
2192 400
2192 1040
2192 2576
2193 401
2193 1041
2193 2577
2194 402
2194 1042
2194 2578
2195 403
2195 1043
2195 2579
2196 404
2196 1044
2196 2580
2197 405
2197 1045
2197 2581
2198 406
2198 1046
2198 2582
2199 407
2199 1047
2199 2583
2200 408
2200 1048
2200 2584
2201 409
2201 1049
2201 2585
2202 410
2202 1050
2202 2586
2203 411
2203 1051
2203 2587
2204 412
2204 1052
2204 2588
2205 413
2205 1053
2205 2589
2206 414
2206 1054
2206 2590
2207 415
2207 1055
2207 2591
2208 416
2208 1056
2208 2592
2209 417
2209 1057
2209 2593
2210 418
2210 1058
2210 2594
2211 419
2211 1059
2211 2595
2212 420
2212 1060
2212 2596
2213 421
2213 1061
2213 2597
2214 422
2214 1062
2214 2598
2215 423
2215 1063
2215 2599
2216 424
2216 1064
2216 2600
2217 425
2217 1065
2217 2601
2218 426
2218 1066
2218 2602
2219 427
2219 1067
2219 2603
2220 428
2220 1068
2220 2604
2221 429
2221 1069
2221 2605
2222 430
2222 1070
2222 2606
2223 431
2223 1071
2223 2607
2224 432
2224 1072
2224 2608
2225 433
2225 1073
2225 2609
2226 434
2226 1074
2226 2610
2227 435
2227 1075
2227 2611
2228 436
2228 1076
2228 2612
2229 437
2229 1077
2229 2613
2230 438
2230 1078
2230 2614
2231 439
2231 1079
2231 2615
2232 440
2232 1080
2232 2616
2233 441
2233 1081
2233 2617
2234 442
2234 1082
2234 2618
2235 443
2235 1083
2235 2619
2236 444
2236 1084
2236 2620
2237 445
2237 1085
2237 2621
2238 446
2238 1086
2238 2622
2239 447
2239 1087
2239 2623
2240 448
2240 1088
2240 2624
2241 449
2241 1089
2241 2625
2242 450
2242 1090
2242 2626
2243 451
2243 1091
2243 2627
2244 452
2244 1092
2244 2628
2245 453
2245 1093
2245 2629
2246 454
2246 1094
2246 2630
2247 455
2247 1095
2247 2631
2248 456
2248 1096
2248 2632
2249 457
2249 1097
2249 2633
2250 458
2250 1098
2250 2634
2251 459
2251 1099
2251 2635
2252 460
2252 1100
2252 2636
2253 461
2253 1101
2253 2637
2254 462
2254 1102
2254 2638
2255 463
2255 1103
2255 2639
2256 464
2256 1104
2256 2640
2257 465
2257 1105
2257 2641
2258 466
2258 1106
2258 2642
2259 467
2259 1107
2259 2643
2260 468
2260 1108
2260 2644
2261 469
2261 1109
2261 2645
2262 470
2262 1110
2262 2646
2263 471
2263 1111
2263 2647
2264 472
2264 1112
2264 2648
2265 473
2265 1113
2265 2649
2266 474
2266 1114
2266 2650
2267 475
2267 1115
2267 2651
2268 476
2268 1116
2268 2652
2269 477
2269 1117
2269 2653
2270 478
2270 1118
2270 2654
2271 479
2271 1119
2271 2655
2272 480
2272 1120
2272 2656
2273 481
2273 1121
2273 2657
2274 482
2274 1122
2274 2658
2275 483
2275 1123
2275 2659
2276 484
2276 1124
2276 2660
2277 485
2277 1125
2277 2661
2278 486
2278 1126
2278 2662
2279 487
2279 1127
2279 2663
2280 488
2280 1128
2280 2664
2281 489
2281 1129
2281 2665
2282 490
2282 1130
2282 2666
2283 491
2283 1131
2283 2667
2284 492
2284 1132
2284 2668
2285 493
2285 1133
2285 2669
2286 494
2286 1134
2286 2670
2287 495
2287 1135
2287 2671
2288 496
2288 1136
2288 2672
2289 497
2289 1137
2289 2673
2290 498
2290 1138
2290 2674
2291 499
2291 1139
2291 2675
2292 500
2292 1140
2292 2676
2293 501
2293 1141
2293 2677
2294 502
2294 1142
2294 2678
2295 503
2295 1143
2295 2679
2296 504
2296 1144
2296 2680
2297 505
2297 1145
2297 2681
2298 506
2298 1146
2298 2682
2299 507
2299 1147
2299 2683
2300 508
2300 1148
2300 2684
2301 509
2301 1149
2301 2685
2302 510
2302 1150
2302 2686
2303 511
2303 1151
2303 2687
2304 512
2304 1152
2304 1792
2305 513
2305 1153
2305 1793
2306 514
2306 1154
2306 1794
2307 515
2307 1155
2307 1795
2308 516
2308 1156
2308 1796
2309 517
2309 1157
2309 1797
2310 518
2310 1158
2310 1798
2311 519
2311 1159
2311 1799
2312 520
2312 1160
2312 1800
2313 521
2313 1161
2313 1801
2314 522
2314 1162
2314 1802
2315 523
2315 1163
2315 1803
2316 524
2316 1164
2316 1804
2317 525
2317 1165
2317 1805
2318 526
2318 1166
2318 1806
2319 527
2319 1167
2319 1807
2320 528
2320 1168
2320 1808
2321 529
2321 1169
2321 1809
2322 530
2322 1170
2322 1810
2323 531
2323 1171
2323 1811
2324 532
2324 1172
2324 1812
2325 533
2325 1173
2325 1813
2326 534
2326 1174
2326 1814
2327 535
2327 1175
2327 1815
2328 536
2328 1176
2328 1816
2329 537
2329 1177
2329 1817
2330 538
2330 1178
2330 1818
2331 539
2331 1179
2331 1819
2332 540
2332 1180
2332 1820
2333 541
2333 1181
2333 1821
2334 542
2334 1182
2334 1822
2335 543
2335 1183
2335 1823
2336 544
2336 1184
2336 1824
2337 545
2337 1185
2337 1825
2338 546
2338 1186
2338 1826
2339 547
2339 1187
2339 1827
2340 548
2340 1188
2340 1828
2341 549
2341 1189
2341 1829
2342 550
2342 1190
2342 1830
2343 551
2343 1191
2343 1831
2344 552
2344 1192
2344 1832
2345 553
2345 1193
2345 1833
2346 554
2346 1194
2346 1834
2347 555
2347 1195
2347 1835
2348 556
2348 1196
2348 1836
2349 557
2349 1197
2349 1837
2350 558
2350 1198
2350 1838
2351 559
2351 1199
2351 1839
2352 560
2352 1200
2352 1840
2353 561
2353 1201
2353 1841
2354 562
2354 1202
2354 1842
2355 563
2355 1203
2355 1843
2356 564
2356 1204
2356 1844
2357 565
2357 1205
2357 1845
2358 566
2358 1206
2358 1846
2359 567
2359 1207
2359 1847
2360 568
2360 1208
2360 1848
2361 569
2361 1209
2361 1849
2362 570
2362 1210
2362 1850
2363 571
2363 1211
2363 1851
2364 572
2364 1212
2364 1852
2365 573
2365 1213
2365 1853
2366 574
2366 1214
2366 1854
2367 575
2367 1215
2367 1855
2368 576
2368 1216
2368 1856
2369 577
2369 1217
2369 1857
2370 578
2370 1218
2370 1858
2371 579
2371 1219
2371 1859
2372 580
2372 1220
2372 1860
2373 581
2373 1221
2373 1861
2374 582
2374 1222
2374 1862
2375 583
2375 1223
2375 1863
2376 584
2376 1224
2376 1864
2377 585
2377 1225
2377 1865
2378 586
2378 1226
2378 1866
2379 587
2379 1227
2379 1867
2380 588
2380 1228
2380 1868
2381 589
2381 1229
2381 1869
2382 590
2382 1230
2382 1870
2383 591
2383 1231
2383 1871
2384 592
2384 1232
2384 1872
2385 593
2385 1233
2385 1873
2386 594
2386 1234
2386 1874
2387 595
2387 1235
2387 1875
2388 596
2388 1236
2388 1876
2389 597
2389 1237
2389 1877
2390 598
2390 1238
2390 1878
2391 599
2391 1239
2391 1879
2392 600
2392 1240
2392 1880
2393 601
2393 1241
2393 1881
2394 602
2394 1242
2394 1882
2395 603
2395 1243
2395 1883
2396 604
2396 1244
2396 1884
2397 605
2397 1245
2397 1885
2398 606
2398 1246
2398 1886
2399 607
2399 1247
2399 1887
2400 608
2400 1248
2400 1888
2401 609
2401 1249
2401 1889
2402 610
2402 1250
2402 1890
2403 611
2403 1251
2403 1891
2404 612
2404 1252
2404 1892
2405 613
2405 1253
2405 1893
2406 614
2406 1254
2406 1894
2407 615
2407 1255
2407 1895
2408 616
2408 1256
2408 1896
2409 617
2409 1257
2409 1897
2410 618
2410 1258
2410 1898
2411 619
2411 1259
2411 1899
2412 620
2412 1260
2412 1900
2413 621
2413 1261
2413 1901
2414 622
2414 1262
2414 1902
2415 623
2415 1263
2415 1903
2416 624
2416 1264
2416 1904
2417 625
2417 1265
2417 1905
2418 626
2418 1266
2418 1906
2419 627
2419 1267
2419 1907
2420 628
2420 1268
2420 1908
2421 629
2421 1269
2421 1909
2422 630
2422 1270
2422 1910
2423 631
2423 1271
2423 1911
2424 632
2424 1272
2424 1912
2425 633
2425 1273
2425 1913
2426 634
2426 1274
2426 1914
2427 635
2427 1275
2427 1915
2428 636
2428 1276
2428 1916
2429 637
2429 1277
2429 1917
2430 638
2430 1278
2430 1918
2431 639
2431 1279
2431 1919
2432 640
2432 1280
2432 1920
2433 641
2433 1281
2433 1921
2434 642
2434 1282
2434 1922
2435 643
2435 1283
2435 1923
2436 644
2436 1284
2436 1924
2437 645
2437 1285
2437 1925
2438 646
2438 1286
2438 1926
2439 647
2439 1287
2439 1927
2440 648
2440 1288
2440 1928
2441 649
2441 1289
2441 1929
2442 650
2442 1290
2442 1930
2443 651
2443 1291
2443 1931
2444 652
2444 1292
2444 1932
2445 653
2445 1293
2445 1933
2446 654
2446 1294
2446 1934
2447 655
2447 1295
2447 1935
2448 656
2448 1296
2448 1936
2449 657
2449 1297
2449 1937
2450 658
2450 1298
2450 1938
2451 659
2451 1299
2451 1939
2452 660
2452 1300
2452 1940
2453 661
2453 1301
2453 1941
2454 662
2454 1302
2454 1942
2455 663
2455 1303
2455 1943
2456 664
2456 1304
2456 1944
2457 665
2457 1305
2457 1945
2458 666
2458 1306
2458 1946
2459 667
2459 1307
2459 1947
2460 668
2460 1308
2460 1948
2461 669
2461 1309
2461 1949
2462 670
2462 1310
2462 1950
2463 671
2463 1311
2463 1951
2464 672
2464 1312
2464 1952
2465 673
2465 1313
2465 1953
2466 674
2466 1314
2466 1954
2467 675
2467 1315
2467 1955
2468 676
2468 1316
2468 1956
2469 677
2469 1317
2469 1957
2470 678
2470 1318
2470 1958
2471 679
2471 1319
2471 1959
2472 680
2472 1320
2472 1960
2473 681
2473 1321
2473 1961
2474 682
2474 1322
2474 1962
2475 683
2475 1323
2475 1963
2476 684
2476 1324
2476 1964
2477 685
2477 1325
2477 1965
2478 686
2478 1326
2478 1966
2479 687
2479 1327
2479 1967
2480 688
2480 1328
2480 1968
2481 689
2481 1329
2481 1969
2482 690
2482 1330
2482 1970
2483 691
2483 1331
2483 1971
2484 692
2484 1332
2484 1972
2485 693
2485 1333
2485 1973
2486 694
2486 1334
2486 1974
2487 695
2487 1335
2487 1975
2488 696
2488 1336
2488 1976
2489 697
2489 1337
2489 1977
2490 698
2490 1338
2490 1978
2491 699
2491 1339
2491 1979
2492 700
2492 1340
2492 1980
2493 701
2493 1341
2493 1981
2494 702
2494 1342
2494 1982
2495 703
2495 1343
2495 1983
2496 704
2496 1344
2496 1984
2497 705
2497 1345
2497 1985
2498 706
2498 1346
2498 1986
2499 707
2499 1347
2499 1987
2500 708
2500 1348
2500 1988
2501 709
2501 1349
2501 1989
2502 710
2502 1350
2502 1990
2503 711
2503 1351
2503 1991
2504 712
2504 1352
2504 1992
2505 713
2505 1353
2505 1993
2506 714
2506 1354
2506 1994
2507 715
2507 1355
2507 1995
2508 716
2508 1356
2508 1996
2509 717
2509 1357
2509 1997
2510 718
2510 1358
2510 1998
2511 719
2511 1359
2511 1999
2512 720
2512 1360
2512 2000
2513 721
2513 1361
2513 2001
2514 722
2514 1362
2514 2002
2515 723
2515 1363
2515 2003
2516 724
2516 1364
2516 2004
2517 725
2517 1365
2517 2005
2518 726
2518 1366
2518 2006
2519 727
2519 1367
2519 2007
2520 728
2520 1368
2520 2008
2521 729
2521 1369
2521 2009
2522 730
2522 1370
2522 2010
2523 731
2523 1371
2523 2011
2524 732
2524 1372
2524 2012
2525 733
2525 1373
2525 2013
2526 734
2526 1374
2526 2014
2527 735
2527 1375
2527 2015
2528 736
2528 1376
2528 2016
2529 737
2529 1377
2529 2017
2530 738
2530 1378
2530 2018
2531 739
2531 1379
2531 2019
2532 740
2532 1380
2532 2020
2533 741
2533 1381
2533 2021
2534 742
2534 1382
2534 2022
2535 743
2535 1383
2535 2023
2536 744
2536 1384
2536 2024
2537 745
2537 1385
2537 2025
2538 746
2538 1386
2538 2026
2539 747
2539 1387
2539 2027
2540 748
2540 1388
2540 2028
2541 749
2541 1389
2541 2029
2542 750
2542 1390
2542 2030
2543 751
2543 1391
2543 2031
2544 752
2544 1392
2544 2032
2545 753
2545 1393
2545 2033
2546 754
2546 1394
2546 2034
2547 755
2547 1395
2547 2035
2548 756
2548 1396
2548 2036
2549 757
2549 1397
2549 2037
2550 758
2550 1398
2550 2038
2551 759
2551 1399
2551 2039
2552 760
2552 1400
2552 2040
2553 761
2553 1401
2553 2041
2554 762
2554 1402
2554 2042
2555 763
2555 1403
2555 2043
2556 764
2556 1404
2556 2044
2557 765
2557 1405
2557 2045
2558 766
2558 1406
2558 2046
2559 767
2559 1407
2559 2047
2560 768
2560 1408
2560 2048
2561 769
2561 1409
2561 2049
2562 770
2562 1410
2562 2050
2563 771
2563 1411
2563 2051
2564 772
2564 1412
2564 2052
2565 773
2565 1413
2565 2053
2566 774
2566 1414
2566 2054
2567 775
2567 1415
2567 2055
2568 776
2568 1416
2568 2056
2569 777
2569 1417
2569 2057
2570 778
2570 1418
2570 2058
2571 779
2571 1419
2571 2059
2572 780
2572 1420
2572 2060
2573 781
2573 1421
2573 2061
2574 782
2574 1422
2574 2062
2575 783
2575 1423
2575 2063
2576 784
2576 1424
2576 2064
2577 785
2577 1425
2577 2065
2578 786
2578 1426
2578 2066
2579 787
2579 1427
2579 2067
2580 788
2580 1428
2580 2068
2581 789
2581 1429
2581 2069
2582 790
2582 1430
2582 2070
2583 791
2583 1431
2583 2071
2584 792
2584 1432
2584 2072
2585 793
2585 1433
2585 2073
2586 794
2586 1434
2586 2074
2587 795
2587 1435
2587 2075
2588 796
2588 1436
2588 2076
2589 797
2589 1437
2589 2077
2590 798
2590 1438
2590 2078
2591 799
2591 1439
2591 2079
2592 800
2592 1440
2592 2080
2593 801
2593 1441
2593 2081
2594 802
2594 1442
2594 2082
2595 803
2595 1443
2595 2083
2596 804
2596 1444
2596 2084
2597 805
2597 1445
2597 2085
2598 806
2598 1446
2598 2086
2599 807
2599 1447
2599 2087
2600 808
2600 1448
2600 2088
2601 809
2601 1449
2601 2089
2602 810
2602 1450
2602 2090
2603 811
2603 1451
2603 2091
2604 812
2604 1452
2604 2092
2605 813
2605 1453
2605 2093
2606 814
2606 1454
2606 2094
2607 815
2607 1455
2607 2095
2608 816
2608 1456
2608 2096
2609 817
2609 1457
2609 2097
2610 818
2610 1458
2610 2098
2611 819
2611 1459
2611 2099
2612 820
2612 1460
2612 2100
2613 821
2613 1461
2613 2101
2614 822
2614 1462
2614 2102
2615 823
2615 1463
2615 2103
2616 824
2616 1464
2616 2104
2617 825
2617 1465
2617 2105
2618 826
2618 1466
2618 2106
2619 827
2619 1467
2619 2107
2620 828
2620 1468
2620 2108
2621 829
2621 1469
2621 2109
2622 830
2622 1470
2622 2110
2623 831
2623 1471
2623 2111
2624 832
2624 1472
2624 2112
2625 833
2625 1473
2625 2113
2626 834
2626 1474
2626 2114
2627 835
2627 1475
2627 2115
2628 836
2628 1476
2628 2116
2629 837
2629 1477
2629 2117
2630 838
2630 1478
2630 2118
2631 839
2631 1479
2631 2119
2632 840
2632 1480
2632 2120
2633 841
2633 1481
2633 2121
2634 842
2634 1482
2634 2122
2635 843
2635 1483
2635 2123
2636 844
2636 1484
2636 2124
2637 845
2637 1485
2637 2125
2638 846
2638 1486
2638 2126
2639 847
2639 1487
2639 2127
2640 848
2640 1488
2640 2128
2641 849
2641 1489
2641 2129
2642 850
2642 1490
2642 2130
2643 851
2643 1491
2643 2131
2644 852
2644 1492
2644 2132
2645 853
2645 1493
2645 2133
2646 854
2646 1494
2646 2134
2647 855
2647 1495
2647 2135
2648 856
2648 1496
2648 2136
2649 857
2649 1497
2649 2137
2650 858
2650 1498
2650 2138
2651 859
2651 1499
2651 2139
2652 860
2652 1500
2652 2140
2653 861
2653 1501
2653 2141
2654 862
2654 1502
2654 2142
2655 863
2655 1503
2655 2143
2656 864
2656 1504
2656 2144
2657 865
2657 1505
2657 2145
2658 866
2658 1506
2658 2146
2659 867
2659 1507
2659 2147
2660 868
2660 1508
2660 2148
2661 869
2661 1509
2661 2149
2662 870
2662 1510
2662 2150
2663 871
2663 1511
2663 2151
2664 872
2664 1512
2664 2152
2665 873
2665 1513
2665 2153
2666 874
2666 1514
2666 2154
2667 875
2667 1515
2667 2155
2668 876
2668 1516
2668 2156
2669 877
2669 1517
2669 2157
2670 878
2670 1518
2670 2158
2671 879
2671 1519
2671 2159
2672 880
2672 1520
2672 2160
2673 881
2673 1521
2673 2161
2674 882
2674 1522
2674 2162
2675 883
2675 1523
2675 2163
2676 884
2676 1524
2676 2164
2677 885
2677 1525
2677 2165
2678 886
2678 1526
2678 2166
2679 887
2679 1527
2679 2167
2680 888
2680 1528
2680 2168
2681 889
2681 1529
2681 2169
2682 890
2682 1530
2682 2170
2683 891
2683 1531
2683 2171
2684 892
2684 1532
2684 2172
2685 893
2685 1533
2685 2173
2686 894
2686 1534
2686 2174
2687 895
2687 1535
2687 2175
2688 0
2688 1408
2688 1920
2689 1
2689 1409
2689 1921
2690 2
2690 1410
2690 1922
2691 3
2691 1411
2691 1923
2692 4
2692 1412
2692 1924
2693 5
2693 1413
2693 1925
2694 6
2694 1414
2694 1926
2695 7
2695 1415
2695 1927
2696 8
2696 1416
2696 1928
2697 9
2697 1417
2697 1929
2698 10
2698 1418
2698 1930
2699 11
2699 1419
2699 1931
2700 12
2700 1420
2700 1932
2701 13
2701 1421
2701 1933
2702 14
2702 1422
2702 1934
2703 15
2703 1423
2703 1935
2704 16
2704 1424
2704 1936
2705 17
2705 1425
2705 1937
2706 18
2706 1426
2706 1938
2707 19
2707 1427
2707 1939
2708 20
2708 1428
2708 1940
2709 21
2709 1429
2709 1941
2710 22
2710 1430
2710 1942
2711 23
2711 1431
2711 1943
2712 24
2712 1432
2712 1944
2713 25
2713 1433
2713 1945
2714 26
2714 1434
2714 1946
2715 27
2715 1435
2715 1947
2716 28
2716 1436
2716 1948
2717 29
2717 1437
2717 1949
2718 30
2718 1438
2718 1950
2719 31
2719 1439
2719 1951
2720 32
2720 1440
2720 1952
2721 33
2721 1441
2721 1953
2722 34
2722 1442
2722 1954
2723 35
2723 1443
2723 1955
2724 36
2724 1444
2724 1956
2725 37
2725 1445
2725 1957
2726 38
2726 1446
2726 1958
2727 39
2727 1447
2727 1959
2728 40
2728 1448
2728 1960
2729 41
2729 1449
2729 1961
2730 42
2730 1450
2730 1962
2731 43
2731 1451
2731 1963
2732 44
2732 1452
2732 1964
2733 45
2733 1453
2733 1965
2734 46
2734 1454
2734 1966
2735 47
2735 1455
2735 1967
2736 48
2736 1456
2736 1968
2737 49
2737 1457
2737 1969
2738 50
2738 1458
2738 1970
2739 51
2739 1459
2739 1971
2740 52
2740 1460
2740 1972
2741 53
2741 1461
2741 1973
2742 54
2742 1462
2742 1974
2743 55
2743 1463
2743 1975
2744 56
2744 1464
2744 1976
2745 57
2745 1465
2745 1977
2746 58
2746 1466
2746 1978
2747 59
2747 1467
2747 1979
2748 60
2748 1468
2748 1980
2749 61
2749 1469
2749 1981
2750 62
2750 1470
2750 1982
2751 63
2751 1471
2751 1983
2752 64
2752 1472
2752 1984
2753 65
2753 1473
2753 1985
2754 66
2754 1474
2754 1986
2755 67
2755 1475
2755 1987
2756 68
2756 1476
2756 1988
2757 69
2757 1477
2757 1989
2758 70
2758 1478
2758 1990
2759 71
2759 1479
2759 1991
2760 72
2760 1480
2760 1992
2761 73
2761 1481
2761 1993
2762 74
2762 1482
2762 1994
2763 75
2763 1483
2763 1995
2764 76
2764 1484
2764 1996
2765 77
2765 1485
2765 1997
2766 78
2766 1486
2766 1998
2767 79
2767 1487
2767 1999
2768 80
2768 1488
2768 2000
2769 81
2769 1489
2769 2001
2770 82
2770 1490
2770 2002
2771 83
2771 1491
2771 2003
2772 84
2772 1492
2772 2004
2773 85
2773 1493
2773 2005
2774 86
2774 1494
2774 2006
2775 87
2775 1495
2775 2007
2776 88
2776 1496
2776 2008
2777 89
2777 1497
2777 2009
2778 90
2778 1498
2778 2010
2779 91
2779 1499
2779 2011
2780 92
2780 1500
2780 2012
2781 93
2781 1501
2781 2013
2782 94
2782 1502
2782 2014
2783 95
2783 1503
2783 2015
2784 96
2784 1504
2784 2016
2785 97
2785 1505
2785 2017
2786 98
2786 1506
2786 2018
2787 99
2787 1507
2787 2019
2788 100
2788 1508
2788 2020
2789 101
2789 1509
2789 2021
2790 102
2790 1510
2790 2022
2791 103
2791 1511
2791 2023
2792 104
2792 1512
2792 2024
2793 105
2793 1513
2793 2025
2794 106
2794 1514
2794 2026
2795 107
2795 1515
2795 2027
2796 108
2796 1516
2796 2028
2797 109
2797 1517
2797 2029
2798 110
2798 1518
2798 2030
2799 111
2799 1519
2799 2031
2800 112
2800 1520
2800 2032
2801 113
2801 1521
2801 2033
2802 114
2802 1522
2802 2034
2803 115
2803 1523
2803 2035
2804 116
2804 1524
2804 2036
2805 117
2805 1525
2805 2037
2806 118
2806 1526
2806 2038
2807 119
2807 1527
2807 2039
2808 120
2808 1528
2808 2040
2809 121
2809 1529
2809 2041
2810 122
2810 1530
2810 2042
2811 123
2811 1531
2811 2043
2812 124
2812 1532
2812 2044
2813 125
2813 1533
2813 2045
2814 126
2814 1534
2814 2046
2815 127
2815 1535
2815 2047
2816 128
2816 1536
2816 2048
2817 129
2817 1537
2817 2049
2818 130
2818 1538
2818 2050
2819 131
2819 1539
2819 2051
2820 132
2820 1540
2820 2052
2821 133
2821 1541
2821 2053
2822 134
2822 1542
2822 2054
2823 135
2823 1543
2823 2055
2824 136
2824 1544
2824 2056
2825 137
2825 1545
2825 2057
2826 138
2826 1546
2826 2058
2827 139
2827 1547
2827 2059
2828 140
2828 1548
2828 2060
2829 141
2829 1549
2829 2061
2830 142
2830 1550
2830 2062
2831 143
2831 1551
2831 2063
2832 144
2832 1552
2832 2064
2833 145
2833 1553
2833 2065
2834 146
2834 1554
2834 2066
2835 147
2835 1555
2835 2067
2836 148
2836 1556
2836 2068
2837 149
2837 1557
2837 2069
2838 150
2838 1558
2838 2070
2839 151
2839 1559
2839 2071
2840 152
2840 1560
2840 2072
2841 153
2841 1561
2841 2073
2842 154
2842 1562
2842 2074
2843 155
2843 1563
2843 2075
2844 156
2844 1564
2844 2076
2845 157
2845 1565
2845 2077
2846 158
2846 1566
2846 2078
2847 159
2847 1567
2847 2079
2848 160
2848 1568
2848 2080
2849 161
2849 1569
2849 2081
2850 162
2850 1570
2850 2082
2851 163
2851 1571
2851 2083
2852 164
2852 1572
2852 2084
2853 165
2853 1573
2853 2085
2854 166
2854 1574
2854 2086
2855 167
2855 1575
2855 2087
2856 168
2856 1576
2856 2088
2857 169
2857 1577
2857 2089
2858 170
2858 1578
2858 2090
2859 171
2859 1579
2859 2091
2860 172
2860 1580
2860 2092
2861 173
2861 1581
2861 2093
2862 174
2862 1582
2862 2094
2863 175
2863 1583
2863 2095
2864 176
2864 1584
2864 2096
2865 177
2865 1585
2865 2097
2866 178
2866 1586
2866 2098
2867 179
2867 1587
2867 2099
2868 180
2868 1588
2868 2100
2869 181
2869 1589
2869 2101
2870 182
2870 1590
2870 2102
2871 183
2871 1591
2871 2103
2872 184
2872 1592
2872 2104
2873 185
2873 1593
2873 2105
2874 186
2874 1594
2874 2106
2875 187
2875 1595
2875 2107
2876 188
2876 1596
2876 2108
2877 189
2877 1597
2877 2109
2878 190
2878 1598
2878 2110
2879 191
2879 1599
2879 2111
2880 192
2880 1600
2880 2112
2881 193
2881 1601
2881 2113
2882 194
2882 1602
2882 2114
2883 195
2883 1603
2883 2115
2884 196
2884 1604
2884 2116
2885 197
2885 1605
2885 2117
2886 198
2886 1606
2886 2118
2887 199
2887 1607
2887 2119
2888 200
2888 1608
2888 2120
2889 201
2889 1609
2889 2121
2890 202
2890 1610
2890 2122
2891 203
2891 1611
2891 2123
2892 204
2892 1612
2892 2124
2893 205
2893 1613
2893 2125
2894 206
2894 1614
2894 2126
2895 207
2895 1615
2895 2127
2896 208
2896 1616
2896 2128
2897 209
2897 1617
2897 2129
2898 210
2898 1618
2898 2130
2899 211
2899 1619
2899 2131
2900 212
2900 1620
2900 2132
2901 213
2901 1621
2901 2133
2902 214
2902 1622
2902 2134
2903 215
2903 1623
2903 2135
2904 216
2904 1624
2904 2136
2905 217
2905 1625
2905 2137
2906 218
2906 1626
2906 2138
2907 219
2907 1627
2907 2139
2908 220
2908 1628
2908 2140
2909 221
2909 1629
2909 2141
2910 222
2910 1630
2910 2142
2911 223
2911 1631
2911 2143
2912 224
2912 1632
2912 2144
2913 225
2913 1633
2913 2145
2914 226
2914 1634
2914 2146
2915 227
2915 1635
2915 2147
2916 228
2916 1636
2916 2148
2917 229
2917 1637
2917 2149
2918 230
2918 1638
2918 2150
2919 231
2919 1639
2919 2151
2920 232
2920 1640
2920 2152
2921 233
2921 1641
2921 2153
2922 234
2922 1642
2922 2154
2923 235
2923 1643
2923 2155
2924 236
2924 1644
2924 2156
2925 237
2925 1645
2925 2157
2926 238
2926 1646
2926 2158
2927 239
2927 1647
2927 2159
2928 240
2928 1648
2928 2160
2929 241
2929 1649
2929 2161
2930 242
2930 1650
2930 2162
2931 243
2931 1651
2931 2163
2932 244
2932 1652
2932 2164
2933 245
2933 1653
2933 2165
2934 246
2934 1654
2934 2166
2935 247
2935 1655
2935 2167
2936 248
2936 1656
2936 2168
2937 249
2937 1657
2937 2169
2938 250
2938 1658
2938 2170
2939 251
2939 1659
2939 2171
2940 252
2940 1660
2940 2172
2941 253
2941 1661
2941 2173
2942 254
2942 1662
2942 2174
2943 255
2943 1663
2943 2175
2944 256
2944 1664
2944 2176
2945 257
2945 1665
2945 2177
2946 258
2946 1666
2946 2178
2947 259
2947 1667
2947 2179
2948 260
2948 1668
2948 2180
2949 261
2949 1669
2949 2181
2950 262
2950 1670
2950 2182
2951 263
2951 1671
2951 2183
2952 264
2952 1672
2952 2184
2953 265
2953 1673
2953 2185
2954 266
2954 1674
2954 2186
2955 267
2955 1675
2955 2187
2956 268
2956 1676
2956 2188
2957 269
2957 1677
2957 2189
2958 270
2958 1678
2958 2190
2959 271
2959 1679
2959 2191
2960 272
2960 1680
2960 2192
2961 273
2961 1681
2961 2193
2962 274
2962 1682
2962 2194
2963 275
2963 1683
2963 2195
2964 276
2964 1684
2964 2196
2965 277
2965 1685
2965 2197
2966 278
2966 1686
2966 2198
2967 279
2967 1687
2967 2199
2968 280
2968 1688
2968 2200
2969 281
2969 1689
2969 2201
2970 282
2970 1690
2970 2202
2971 283
2971 1691
2971 2203
2972 284
2972 1692
2972 2204
2973 285
2973 1693
2973 2205
2974 286
2974 1694
2974 2206
2975 287
2975 1695
2975 2207
2976 288
2976 1696
2976 2208
2977 289
2977 1697
2977 2209
2978 290
2978 1698
2978 2210
2979 291
2979 1699
2979 2211
2980 292
2980 1700
2980 2212
2981 293
2981 1701
2981 2213
2982 294
2982 1702
2982 2214
2983 295
2983 1703
2983 2215
2984 296
2984 1704
2984 2216
2985 297
2985 1705
2985 2217
2986 298
2986 1706
2986 2218
2987 299
2987 1707
2987 2219
2988 300
2988 1708
2988 2220
2989 301
2989 1709
2989 2221
2990 302
2990 1710
2990 2222
2991 303
2991 1711
2991 2223
2992 304
2992 1712
2992 2224
2993 305
2993 1713
2993 2225
2994 306
2994 1714
2994 2226
2995 307
2995 1715
2995 2227
2996 308
2996 1716
2996 2228
2997 309
2997 1717
2997 2229
2998 310
2998 1718
2998 2230
2999 311
2999 1719
2999 2231
3000 312
3000 1720
3000 2232
3001 313
3001 1721
3001 2233
3002 314
3002 1722
3002 2234
3003 315
3003 1723
3003 2235
3004 316
3004 1724
3004 2236
3005 317
3005 1725
3005 2237
3006 318
3006 1726
3006 2238
3007 319
3007 1727
3007 2239
3008 320
3008 1728
3008 2240
3009 321
3009 1729
3009 2241
3010 322
3010 1730
3010 2242
3011 323
3011 1731
3011 2243
3012 324
3012 1732
3012 2244
3013 325
3013 1733
3013 2245
3014 326
3014 1734
3014 2246
3015 327
3015 1735
3015 2247
3016 328
3016 1736
3016 2248
3017 329
3017 1737
3017 2249
3018 330
3018 1738
3018 2250
3019 331
3019 1739
3019 2251
3020 332
3020 1740
3020 2252
3021 333
3021 1741
3021 2253
3022 334
3022 1742
3022 2254
3023 335
3023 1743
3023 2255
3024 336
3024 1744
3024 2256
3025 337
3025 1745
3025 2257
3026 338
3026 1746
3026 2258
3027 339
3027 1747
3027 2259
3028 340
3028 1748
3028 2260
3029 341
3029 1749
3029 2261
3030 342
3030 1750
3030 2262
3031 343
3031 1751
3031 2263
3032 344
3032 1752
3032 2264
3033 345
3033 1753
3033 2265
3034 346
3034 1754
3034 2266
3035 347
3035 1755
3035 2267
3036 348
3036 1756
3036 2268
3037 349
3037 1757
3037 2269
3038 350
3038 1758
3038 2270
3039 351
3039 1759
3039 2271
3040 352
3040 1760
3040 2272
3041 353
3041 1761
3041 2273
3042 354
3042 1762
3042 2274
3043 355
3043 1763
3043 2275
3044 356
3044 1764
3044 2276
3045 357
3045 1765
3045 2277
3046 358
3046 1766
3046 2278
3047 359
3047 1767
3047 2279
3048 360
3048 1768
3048 2280
3049 361
3049 1769
3049 2281
3050 362
3050 1770
3050 2282
3051 363
3051 1771
3051 2283
3052 364
3052 1772
3052 2284
3053 365
3053 1773
3053 2285
3054 366
3054 1774
3054 2286
3055 367
3055 1775
3055 2287
3056 368
3056 1776
3056 2288
3057 369
3057 1777
3057 2289
3058 370
3058 1778
3058 2290
3059 371
3059 1779
3059 2291
3060 372
3060 1780
3060 2292
3061 373
3061 1781
3061 2293
3062 374
3062 1782
3062 2294
3063 375
3063 1783
3063 2295
3064 376
3064 1784
3064 2296
3065 377
3065 1785
3065 2297
3066 378
3066 1786
3066 2298
3067 379
3067 1787
3067 2299
3068 380
3068 1788
3068 2300
3069 381
3069 1789
3069 2301
3070 382
3070 1790
3070 2302
3071 383
3071 1791
3071 2303
3072 384
3072 896
3072 2304
3073 385
3073 897
3073 2305
3074 386
3074 898
3074 2306
3075 387
3075 899
3075 2307
3076 388
3076 900
3076 2308
3077 389
3077 901
3077 2309
3078 390
3078 902
3078 2310
3079 391
3079 903
3079 2311
3080 392
3080 904
3080 2312
3081 393
3081 905
3081 2313
3082 394
3082 906
3082 2314
3083 395
3083 907
3083 2315
3084 396
3084 908
3084 2316
3085 397
3085 909
3085 2317
3086 398
3086 910
3086 2318
3087 399
3087 911
3087 2319
3088 400
3088 912
3088 2320
3089 401
3089 913
3089 2321
3090 402
3090 914
3090 2322
3091 403
3091 915
3091 2323
3092 404
3092 916
3092 2324
3093 405
3093 917
3093 2325
3094 406
3094 918
3094 2326
3095 407
3095 919
3095 2327
3096 408
3096 920
3096 2328
3097 409
3097 921
3097 2329
3098 410
3098 922
3098 2330
3099 411
3099 923
3099 2331
3100 412
3100 924
3100 2332
3101 413
3101 925
3101 2333
3102 414
3102 926
3102 2334
3103 415
3103 927
3103 2335
3104 416
3104 928
3104 2336
3105 417
3105 929
3105 2337
3106 418
3106 930
3106 2338
3107 419
3107 931
3107 2339
3108 420
3108 932
3108 2340
3109 421
3109 933
3109 2341
3110 422
3110 934
3110 2342
3111 423
3111 935
3111 2343
3112 424
3112 936
3112 2344
3113 425
3113 937
3113 2345
3114 426
3114 938
3114 2346
3115 427
3115 939
3115 2347
3116 428
3116 940
3116 2348
3117 429
3117 941
3117 2349
3118 430
3118 942
3118 2350
3119 431
3119 943
3119 2351
3120 432
3120 944
3120 2352
3121 433
3121 945
3121 2353
3122 434
3122 946
3122 2354
3123 435
3123 947
3123 2355
3124 436
3124 948
3124 2356
3125 437
3125 949
3125 2357
3126 438
3126 950
3126 2358
3127 439
3127 951
3127 2359
3128 440
3128 952
3128 2360
3129 441
3129 953
3129 2361
3130 442
3130 954
3130 2362
3131 443
3131 955
3131 2363
3132 444
3132 956
3132 2364
3133 445
3133 957
3133 2365
3134 446
3134 958
3134 2366
3135 447
3135 959
3135 2367
3136 448
3136 960
3136 2368
3137 449
3137 961
3137 2369
3138 450
3138 962
3138 2370
3139 451
3139 963
3139 2371
3140 452
3140 964
3140 2372
3141 453
3141 965
3141 2373
3142 454
3142 966
3142 2374
3143 455
3143 967
3143 2375
3144 456
3144 968
3144 2376
3145 457
3145 969
3145 2377
3146 458
3146 970
3146 2378
3147 459
3147 971
3147 2379
3148 460
3148 972
3148 2380
3149 461
3149 973
3149 2381
3150 462
3150 974
3150 2382
3151 463
3151 975
3151 2383
3152 464
3152 976
3152 2384
3153 465
3153 977
3153 2385
3154 466
3154 978
3154 2386
3155 467
3155 979
3155 2387
3156 468
3156 980
3156 2388
3157 469
3157 981
3157 2389
3158 470
3158 982
3158 2390
3159 471
3159 983
3159 2391
3160 472
3160 984
3160 2392
3161 473
3161 985
3161 2393
3162 474
3162 986
3162 2394
3163 475
3163 987
3163 2395
3164 476
3164 988
3164 2396
3165 477
3165 989
3165 2397
3166 478
3166 990
3166 2398
3167 479
3167 991
3167 2399
3168 480
3168 992
3168 2400
3169 481
3169 993
3169 2401
3170 482
3170 994
3170 2402
3171 483
3171 995
3171 2403
3172 484
3172 996
3172 2404
3173 485
3173 997
3173 2405
3174 486
3174 998
3174 2406
3175 487
3175 999
3175 2407
3176 488
3176 1000
3176 2408
3177 489
3177 1001
3177 2409
3178 490
3178 1002
3178 2410
3179 491
3179 1003
3179 2411
3180 492
3180 1004
3180 2412
3181 493
3181 1005
3181 2413
3182 494
3182 1006
3182 2414
3183 495
3183 1007
3183 2415
3184 496
3184 1008
3184 2416
3185 497
3185 1009
3185 2417
3186 498
3186 1010
3186 2418
3187 499
3187 1011
3187 2419
3188 500
3188 1012
3188 2420
3189 501
3189 1013
3189 2421
3190 502
3190 1014
3190 2422
3191 503
3191 1015
3191 2423
3192 504
3192 1016
3192 2424
3193 505
3193 1017
3193 2425
3194 506
3194 1018
3194 2426
3195 507
3195 1019
3195 2427
3196 508
3196 1020
3196 2428
3197 509
3197 1021
3197 2429
3198 510
3198 1022
3198 2430
3199 511
3199 1023
3199 2431
3200 512
3200 1024
3200 2432
3201 513
3201 1025
3201 2433
3202 514
3202 1026
3202 2434
3203 515
3203 1027
3203 2435
3204 516
3204 1028
3204 2436
3205 517
3205 1029
3205 2437
3206 518
3206 1030
3206 2438
3207 519
3207 1031
3207 2439
3208 520
3208 1032
3208 2440
3209 521
3209 1033
3209 2441
3210 522
3210 1034
3210 2442
3211 523
3211 1035
3211 2443
3212 524
3212 1036
3212 2444
3213 525
3213 1037
3213 2445
3214 526
3214 1038
3214 2446
3215 527
3215 1039
3215 2447
3216 528
3216 1040
3216 2448
3217 529
3217 1041
3217 2449
3218 530
3218 1042
3218 2450
3219 531
3219 1043
3219 2451
3220 532
3220 1044
3220 2452
3221 533
3221 1045
3221 2453
3222 534
3222 1046
3222 2454
3223 535
3223 1047
3223 2455
3224 536
3224 1048
3224 2456
3225 537
3225 1049
3225 2457
3226 538
3226 1050
3226 2458
3227 539
3227 1051
3227 2459
3228 540
3228 1052
3228 2460
3229 541
3229 1053
3229 2461
3230 542
3230 1054
3230 2462
3231 543
3231 1055
3231 2463
3232 544
3232 1056
3232 2464
3233 545
3233 1057
3233 2465
3234 546
3234 1058
3234 2466
3235 547
3235 1059
3235 2467
3236 548
3236 1060
3236 2468
3237 549
3237 1061
3237 2469
3238 550
3238 1062
3238 2470
3239 551
3239 1063
3239 2471
3240 552
3240 1064
3240 2472
3241 553
3241 1065
3241 2473
3242 554
3242 1066
3242 2474
3243 555
3243 1067
3243 2475
3244 556
3244 1068
3244 2476
3245 557
3245 1069
3245 2477
3246 558
3246 1070
3246 2478
3247 559
3247 1071
3247 2479
3248 560
3248 1072
3248 2480
3249 561
3249 1073
3249 2481
3250 562
3250 1074
3250 2482
3251 563
3251 1075
3251 2483
3252 564
3252 1076
3252 2484
3253 565
3253 1077
3253 2485
3254 566
3254 1078
3254 2486
3255 567
3255 1079
3255 2487
3256 568
3256 1080
3256 2488
3257 569
3257 1081
3257 2489
3258 570
3258 1082
3258 2490
3259 571
3259 1083
3259 2491
3260 572
3260 1084
3260 2492
3261 573
3261 1085
3261 2493
3262 574
3262 1086
3262 2494
3263 575
3263 1087
3263 2495
3264 576
3264 1088
3264 2496
3265 577
3265 1089
3265 2497
3266 578
3266 1090
3266 2498
3267 579
3267 1091
3267 2499
3268 580
3268 1092
3268 2500
3269 581
3269 1093
3269 2501
3270 582
3270 1094
3270 2502
3271 583
3271 1095
3271 2503
3272 584
3272 1096
3272 2504
3273 585
3273 1097
3273 2505
3274 586
3274 1098
3274 2506
3275 587
3275 1099
3275 2507
3276 588
3276 1100
3276 2508
3277 589
3277 1101
3277 2509
3278 590
3278 1102
3278 2510
3279 591
3279 1103
3279 2511
3280 592
3280 1104
3280 2512
3281 593
3281 1105
3281 2513
3282 594
3282 1106
3282 2514
3283 595
3283 1107
3283 2515
3284 596
3284 1108
3284 2516
3285 597
3285 1109
3285 2517
3286 598
3286 1110
3286 2518
3287 599
3287 1111
3287 2519
3288 600
3288 1112
3288 2520
3289 601
3289 1113
3289 2521
3290 602
3290 1114
3290 2522
3291 603
3291 1115
3291 2523
3292 604
3292 1116
3292 2524
3293 605
3293 1117
3293 2525
3294 606
3294 1118
3294 2526
3295 607
3295 1119
3295 2527
3296 608
3296 1120
3296 2528
3297 609
3297 1121
3297 2529
3298 610
3298 1122
3298 2530
3299 611
3299 1123
3299 2531
3300 612
3300 1124
3300 2532
3301 613
3301 1125
3301 2533
3302 614
3302 1126
3302 2534
3303 615
3303 1127
3303 2535
3304 616
3304 1128
3304 2536
3305 617
3305 1129
3305 2537
3306 618
3306 1130
3306 2538
3307 619
3307 1131
3307 2539
3308 620
3308 1132
3308 2540
3309 621
3309 1133
3309 2541
3310 622
3310 1134
3310 2542
3311 623
3311 1135
3311 2543
3312 624
3312 1136
3312 2544
3313 625
3313 1137
3313 2545
3314 626
3314 1138
3314 2546
3315 627
3315 1139
3315 2547
3316 628
3316 1140
3316 2548
3317 629
3317 1141
3317 2549
3318 630
3318 1142
3318 2550
3319 631
3319 1143
3319 2551
3320 632
3320 1144
3320 2552
3321 633
3321 1145
3321 2553
3322 634
3322 1146
3322 2554
3323 635
3323 1147
3323 2555
3324 636
3324 1148
3324 2556
3325 637
3325 1149
3325 2557
3326 638
3326 1150
3326 2558
3327 639
3327 1151
3327 2559
3328 640
3328 1152
3328 2560
3329 641
3329 1153
3329 2561
3330 642
3330 1154
3330 2562
3331 643
3331 1155
3331 2563
3332 644
3332 1156
3332 2564
3333 645
3333 1157
3333 2565
3334 646
3334 1158
3334 2566
3335 647
3335 1159
3335 2567
3336 648
3336 1160
3336 2568
3337 649
3337 1161
3337 2569
3338 650
3338 1162
3338 2570
3339 651
3339 1163
3339 2571
3340 652
3340 1164
3340 2572
3341 653
3341 1165
3341 2573
3342 654
3342 1166
3342 2574
3343 655
3343 1167
3343 2575
3344 656
3344 1168
3344 2576
3345 657
3345 1169
3345 2577
3346 658
3346 1170
3346 2578
3347 659
3347 1171
3347 2579
3348 660
3348 1172
3348 2580
3349 661
3349 1173
3349 2581
3350 662
3350 1174
3350 2582
3351 663
3351 1175
3351 2583
3352 664
3352 1176
3352 2584
3353 665
3353 1177
3353 2585
3354 666
3354 1178
3354 2586
3355 667
3355 1179
3355 2587
3356 668
3356 1180
3356 2588
3357 669
3357 1181
3357 2589
3358 670
3358 1182
3358 2590
3359 671
3359 1183
3359 2591
3360 672
3360 1184
3360 2592
3361 673
3361 1185
3361 2593
3362 674
3362 1186
3362 2594
3363 675
3363 1187
3363 2595
3364 676
3364 1188
3364 2596
3365 677
3365 1189
3365 2597
3366 678
3366 1190
3366 2598
3367 679
3367 1191
3367 2599
3368 680
3368 1192
3368 2600
3369 681
3369 1193
3369 2601
3370 682
3370 1194
3370 2602
3371 683
3371 1195
3371 2603
3372 684
3372 1196
3372 2604
3373 685
3373 1197
3373 2605
3374 686
3374 1198
3374 2606
3375 687
3375 1199
3375 2607
3376 688
3376 1200
3376 2608
3377 689
3377 1201
3377 2609
3378 690
3378 1202
3378 2610
3379 691
3379 1203
3379 2611
3380 692
3380 1204
3380 2612
3381 693
3381 1205
3381 2613
3382 694
3382 1206
3382 2614
3383 695
3383 1207
3383 2615
3384 696
3384 1208
3384 2616
3385 697
3385 1209
3385 2617
3386 698
3386 1210
3386 2618
3387 699
3387 1211
3387 2619
3388 700
3388 1212
3388 2620
3389 701
3389 1213
3389 2621
3390 702
3390 1214
3390 2622
3391 703
3391 1215
3391 2623
3392 704
3392 1216
3392 2624
3393 705
3393 1217
3393 2625
3394 706
3394 1218
3394 2626
3395 707
3395 1219
3395 2627
3396 708
3396 1220
3396 2628
3397 709
3397 1221
3397 2629
3398 710
3398 1222
3398 2630
3399 711
3399 1223
3399 2631
3400 712
3400 1224
3400 2632
3401 713
3401 1225
3401 2633
3402 714
3402 1226
3402 2634
3403 715
3403 1227
3403 2635
3404 716
3404 1228
3404 2636
3405 717
3405 1229
3405 2637
3406 718
3406 1230
3406 2638
3407 719
3407 1231
3407 2639
3408 720
3408 1232
3408 2640
3409 721
3409 1233
3409 2641
3410 722
3410 1234
3410 2642
3411 723
3411 1235
3411 2643
3412 724
3412 1236
3412 2644
3413 725
3413 1237
3413 2645
3414 726
3414 1238
3414 2646
3415 727
3415 1239
3415 2647
3416 728
3416 1240
3416 2648
3417 729
3417 1241
3417 2649
3418 730
3418 1242
3418 2650
3419 731
3419 1243
3419 2651
3420 732
3420 1244
3420 2652
3421 733
3421 1245
3421 2653
3422 734
3422 1246
3422 2654
3423 735
3423 1247
3423 2655
3424 736
3424 1248
3424 2656
3425 737
3425 1249
3425 2657
3426 738
3426 1250
3426 2658
3427 739
3427 1251
3427 2659
3428 740
3428 1252
3428 2660
3429 741
3429 1253
3429 2661
3430 742
3430 1254
3430 2662
3431 743
3431 1255
3431 2663
3432 744
3432 1256
3432 2664
3433 745
3433 1257
3433 2665
3434 746
3434 1258
3434 2666
3435 747
3435 1259
3435 2667
3436 748
3436 1260
3436 2668
3437 749
3437 1261
3437 2669
3438 750
3438 1262
3438 2670
3439 751
3439 1263
3439 2671
3440 752
3440 1264
3440 2672
3441 753
3441 1265
3441 2673
3442 754
3442 1266
3442 2674
3443 755
3443 1267
3443 2675
3444 756
3444 1268
3444 2676
3445 757
3445 1269
3445 2677
3446 758
3446 1270
3446 2678
3447 759
3447 1271
3447 2679
3448 760
3448 1272
3448 2680
3449 761
3449 1273
3449 2681
3450 762
3450 1274
3450 2682
3451 763
3451 1275
3451 2683
3452 764
3452 1276
3452 2684
3453 765
3453 1277
3453 2685
3454 766
3454 1278
3454 2686
3455 767
3455 1279
3455 2687
3456 768
3456 1280
3456 1792
3457 769
3457 1281
3457 1793
3458 770
3458 1282
3458 1794
3459 771
3459 1283
3459 1795
3460 772
3460 1284
3460 1796
3461 773
3461 1285
3461 1797
3462 774
3462 1286
3462 1798
3463 775
3463 1287
3463 1799
3464 776
3464 1288
3464 1800
3465 777
3465 1289
3465 1801
3466 778
3466 1290
3466 1802
3467 779
3467 1291
3467 1803
3468 780
3468 1292
3468 1804
3469 781
3469 1293
3469 1805
3470 782
3470 1294
3470 1806
3471 783
3471 1295
3471 1807
3472 784
3472 1296
3472 1808
3473 785
3473 1297
3473 1809
3474 786
3474 1298
3474 1810
3475 787
3475 1299
3475 1811
3476 788
3476 1300
3476 1812
3477 789
3477 1301
3477 1813
3478 790
3478 1302
3478 1814
3479 791
3479 1303
3479 1815
3480 792
3480 1304
3480 1816
3481 793
3481 1305
3481 1817
3482 794
3482 1306
3482 1818
3483 795
3483 1307
3483 1819
3484 796
3484 1308
3484 1820
3485 797
3485 1309
3485 1821
3486 798
3486 1310
3486 1822
3487 799
3487 1311
3487 1823
3488 800
3488 1312
3488 1824
3489 801
3489 1313
3489 1825
3490 802
3490 1314
3490 1826
3491 803
3491 1315
3491 1827
3492 804
3492 1316
3492 1828
3493 805
3493 1317
3493 1829
3494 806
3494 1318
3494 1830
3495 807
3495 1319
3495 1831
3496 808
3496 1320
3496 1832
3497 809
3497 1321
3497 1833
3498 810
3498 1322
3498 1834
3499 811
3499 1323
3499 1835
3500 812
3500 1324
3500 1836
3501 813
3501 1325
3501 1837
3502 814
3502 1326
3502 1838
3503 815
3503 1327
3503 1839
3504 816
3504 1328
3504 1840
3505 817
3505 1329
3505 1841
3506 818
3506 1330
3506 1842
3507 819
3507 1331
3507 1843
3508 820
3508 1332
3508 1844
3509 821
3509 1333
3509 1845
3510 822
3510 1334
3510 1846
3511 823
3511 1335
3511 1847
3512 824
3512 1336
3512 1848
3513 825
3513 1337
3513 1849
3514 826
3514 1338
3514 1850
3515 827
3515 1339
3515 1851
3516 828
3516 1340
3516 1852
3517 829
3517 1341
3517 1853
3518 830
3518 1342
3518 1854
3519 831
3519 1343
3519 1855
3520 832
3520 1344
3520 1856
3521 833
3521 1345
3521 1857
3522 834
3522 1346
3522 1858
3523 835
3523 1347
3523 1859
3524 836
3524 1348
3524 1860
3525 837
3525 1349
3525 1861
3526 838
3526 1350
3526 1862
3527 839
3527 1351
3527 1863
3528 840
3528 1352
3528 1864
3529 841
3529 1353
3529 1865
3530 842
3530 1354
3530 1866
3531 843
3531 1355
3531 1867
3532 844
3532 1356
3532 1868
3533 845
3533 1357
3533 1869
3534 846
3534 1358
3534 1870
3535 847
3535 1359
3535 1871
3536 848
3536 1360
3536 1872
3537 849
3537 1361
3537 1873
3538 850
3538 1362
3538 1874
3539 851
3539 1363
3539 1875
3540 852
3540 1364
3540 1876
3541 853
3541 1365
3541 1877
3542 854
3542 1366
3542 1878
3543 855
3543 1367
3543 1879
3544 856
3544 1368
3544 1880
3545 857
3545 1369
3545 1881
3546 858
3546 1370
3546 1882
3547 859
3547 1371
3547 1883
3548 860
3548 1372
3548 1884
3549 861
3549 1373
3549 1885
3550 862
3550 1374
3550 1886
3551 863
3551 1375
3551 1887
3552 864
3552 1376
3552 1888
3553 865
3553 1377
3553 1889
3554 866
3554 1378
3554 1890
3555 867
3555 1379
3555 1891
3556 868
3556 1380
3556 1892
3557 869
3557 1381
3557 1893
3558 870
3558 1382
3558 1894
3559 871
3559 1383
3559 1895
3560 872
3560 1384
3560 1896
3561 873
3561 1385
3561 1897
3562 874
3562 1386
3562 1898
3563 875
3563 1387
3563 1899
3564 876
3564 1388
3564 1900
3565 877
3565 1389
3565 1901
3566 878
3566 1390
3566 1902
3567 879
3567 1391
3567 1903
3568 880
3568 1392
3568 1904
3569 881
3569 1393
3569 1905
3570 882
3570 1394
3570 1906
3571 883
3571 1395
3571 1907
3572 884
3572 1396
3572 1908
3573 885
3573 1397
3573 1909
3574 886
3574 1398
3574 1910
3575 887
3575 1399
3575 1911
3576 888
3576 1400
3576 1912
3577 889
3577 1401
3577 1913
3578 890
3578 1402
3578 1914
3579 891
3579 1403
3579 1915
3580 892
3580 1404
3580 1916
3581 893
3581 1405
3581 1917
3582 894
3582 1406
3582 1918
3583 895
3583 1407
3583 1919
3584 0
3584 1280
3584 2560
3585 1
3585 1281
3585 2561
3586 2
3586 1282
3586 2562
3587 3
3587 1283
3587 2563
3588 4
3588 1284
3588 2564
3589 5
3589 1285
3589 2565
3590 6
3590 1286
3590 2566
3591 7
3591 1287
3591 2567
3592 8
3592 1288
3592 2568
3593 9
3593 1289
3593 2569
3594 10
3594 1290
3594 2570
3595 11
3595 1291
3595 2571
3596 12
3596 1292
3596 2572
3597 13
3597 1293
3597 2573
3598 14
3598 1294
3598 2574
3599 15
3599 1295
3599 2575
3600 16
3600 1296
3600 2576
3601 17
3601 1297
3601 2577
3602 18
3602 1298
3602 2578
3603 19
3603 1299
3603 2579
3604 20
3604 1300
3604 2580
3605 21
3605 1301
3605 2581
3606 22
3606 1302
3606 2582
3607 23
3607 1303
3607 2583
3608 24
3608 1304
3608 2584
3609 25
3609 1305
3609 2585
3610 26
3610 1306
3610 2586
3611 27
3611 1307
3611 2587
3612 28
3612 1308
3612 2588
3613 29
3613 1309
3613 2589
3614 30
3614 1310
3614 2590
3615 31
3615 1311
3615 2591
3616 32
3616 1312
3616 2592
3617 33
3617 1313
3617 2593
3618 34
3618 1314
3618 2594
3619 35
3619 1315
3619 2595
3620 36
3620 1316
3620 2596
3621 37
3621 1317
3621 2597
3622 38
3622 1318
3622 2598
3623 39
3623 1319
3623 2599
3624 40
3624 1320
3624 2600
3625 41
3625 1321
3625 2601
3626 42
3626 1322
3626 2602
3627 43
3627 1323
3627 2603
3628 44
3628 1324
3628 2604
3629 45
3629 1325
3629 2605
3630 46
3630 1326
3630 2606
3631 47
3631 1327
3631 2607
3632 48
3632 1328
3632 2608
3633 49
3633 1329
3633 2609
3634 50
3634 1330
3634 2610
3635 51
3635 1331
3635 2611
3636 52
3636 1332
3636 2612
3637 53
3637 1333
3637 2613
3638 54
3638 1334
3638 2614
3639 55
3639 1335
3639 2615
3640 56
3640 1336
3640 2616
3641 57
3641 1337
3641 2617
3642 58
3642 1338
3642 2618
3643 59
3643 1339
3643 2619
3644 60
3644 1340
3644 2620
3645 61
3645 1341
3645 2621
3646 62
3646 1342
3646 2622
3647 63
3647 1343
3647 2623
3648 64
3648 1344
3648 2624
3649 65
3649 1345
3649 2625
3650 66
3650 1346
3650 2626
3651 67
3651 1347
3651 2627
3652 68
3652 1348
3652 2628
3653 69
3653 1349
3653 2629
3654 70
3654 1350
3654 2630
3655 71
3655 1351
3655 2631
3656 72
3656 1352
3656 2632
3657 73
3657 1353
3657 2633
3658 74
3658 1354
3658 2634
3659 75
3659 1355
3659 2635
3660 76
3660 1356
3660 2636
3661 77
3661 1357
3661 2637
3662 78
3662 1358
3662 2638
3663 79
3663 1359
3663 2639
3664 80
3664 1360
3664 2640
3665 81
3665 1361
3665 2641
3666 82
3666 1362
3666 2642
3667 83
3667 1363
3667 2643
3668 84
3668 1364
3668 2644
3669 85
3669 1365
3669 2645
3670 86
3670 1366
3670 2646
3671 87
3671 1367
3671 2647
3672 88
3672 1368
3672 2648
3673 89
3673 1369
3673 2649
3674 90
3674 1370
3674 2650
3675 91
3675 1371
3675 2651
3676 92
3676 1372
3676 2652
3677 93
3677 1373
3677 2653
3678 94
3678 1374
3678 2654
3679 95
3679 1375
3679 2655
3680 96
3680 1376
3680 2656
3681 97
3681 1377
3681 2657
3682 98
3682 1378
3682 2658
3683 99
3683 1379
3683 2659
3684 100
3684 1380
3684 2660
3685 101
3685 1381
3685 2661
3686 102
3686 1382
3686 2662
3687 103
3687 1383
3687 2663
3688 104
3688 1384
3688 2664
3689 105
3689 1385
3689 2665
3690 106
3690 1386
3690 2666
3691 107
3691 1387
3691 2667
3692 108
3692 1388
3692 2668
3693 109
3693 1389
3693 2669
3694 110
3694 1390
3694 2670
3695 111
3695 1391
3695 2671
3696 112
3696 1392
3696 2672
3697 113
3697 1393
3697 2673
3698 114
3698 1394
3698 2674
3699 115
3699 1395
3699 2675
3700 116
3700 1396
3700 2676
3701 117
3701 1397
3701 2677
3702 118
3702 1398
3702 2678
3703 119
3703 1399
3703 2679
3704 120
3704 1400
3704 2680
3705 121
3705 1401
3705 2681
3706 122
3706 1402
3706 2682
3707 123
3707 1403
3707 2683
3708 124
3708 1404
3708 2684
3709 125
3709 1405
3709 2685
3710 126
3710 1406
3710 2686
3711 127
3711 1407
3711 2687
3712 128
3712 1408
3712 1792
3713 129
3713 1409
3713 1793
3714 130
3714 1410
3714 1794
3715 131
3715 1411
3715 1795
3716 132
3716 1412
3716 1796
3717 133
3717 1413
3717 1797
3718 134
3718 1414
3718 1798
3719 135
3719 1415
3719 1799
3720 136
3720 1416
3720 1800
3721 137
3721 1417
3721 1801
3722 138
3722 1418
3722 1802
3723 139
3723 1419
3723 1803
3724 140
3724 1420
3724 1804
3725 141
3725 1421
3725 1805
3726 142
3726 1422
3726 1806
3727 143
3727 1423
3727 1807
3728 144
3728 1424
3728 1808
3729 145
3729 1425
3729 1809
3730 146
3730 1426
3730 1810
3731 147
3731 1427
3731 1811
3732 148
3732 1428
3732 1812
3733 149
3733 1429
3733 1813
3734 150
3734 1430
3734 1814
3735 151
3735 1431
3735 1815
3736 152
3736 1432
3736 1816
3737 153
3737 1433
3737 1817
3738 154
3738 1434
3738 1818
3739 155
3739 1435
3739 1819
3740 156
3740 1436
3740 1820
3741 157
3741 1437
3741 1821
3742 158
3742 1438
3742 1822
3743 159
3743 1439
3743 1823
3744 160
3744 1440
3744 1824
3745 161
3745 1441
3745 1825
3746 162
3746 1442
3746 1826
3747 163
3747 1443
3747 1827
3748 164
3748 1444
3748 1828
3749 165
3749 1445
3749 1829
3750 166
3750 1446
3750 1830
3751 167
3751 1447
3751 1831
3752 168
3752 1448
3752 1832
3753 169
3753 1449
3753 1833
3754 170
3754 1450
3754 1834
3755 171
3755 1451
3755 1835
3756 172
3756 1452
3756 1836
3757 173
3757 1453
3757 1837
3758 174
3758 1454
3758 1838
3759 175
3759 1455
3759 1839
3760 176
3760 1456
3760 1840
3761 177
3761 1457
3761 1841
3762 178
3762 1458
3762 1842
3763 179
3763 1459
3763 1843
3764 180
3764 1460
3764 1844
3765 181
3765 1461
3765 1845
3766 182
3766 1462
3766 1846
3767 183
3767 1463
3767 1847
3768 184
3768 1464
3768 1848
3769 185
3769 1465
3769 1849
3770 186
3770 1466
3770 1850
3771 187
3771 1467
3771 1851
3772 188
3772 1468
3772 1852
3773 189
3773 1469
3773 1853
3774 190
3774 1470
3774 1854
3775 191
3775 1471
3775 1855
3776 192
3776 1472
3776 1856
3777 193
3777 1473
3777 1857
3778 194
3778 1474
3778 1858
3779 195
3779 1475
3779 1859
3780 196
3780 1476
3780 1860
3781 197
3781 1477
3781 1861
3782 198
3782 1478
3782 1862
3783 199
3783 1479
3783 1863
3784 200
3784 1480
3784 1864
3785 201
3785 1481
3785 1865
3786 202
3786 1482
3786 1866
3787 203
3787 1483
3787 1867
3788 204
3788 1484
3788 1868
3789 205
3789 1485
3789 1869
3790 206
3790 1486
3790 1870
3791 207
3791 1487
3791 1871
3792 208
3792 1488
3792 1872
3793 209
3793 1489
3793 1873
3794 210
3794 1490
3794 1874
3795 211
3795 1491
3795 1875
3796 212
3796 1492
3796 1876
3797 213
3797 1493
3797 1877
3798 214
3798 1494
3798 1878
3799 215
3799 1495
3799 1879
3800 216
3800 1496
3800 1880
3801 217
3801 1497
3801 1881
3802 218
3802 1498
3802 1882
3803 219
3803 1499
3803 1883
3804 220
3804 1500
3804 1884
3805 221
3805 1501
3805 1885
3806 222
3806 1502
3806 1886
3807 223
3807 1503
3807 1887
3808 224
3808 1504
3808 1888
3809 225
3809 1505
3809 1889
3810 226
3810 1506
3810 1890
3811 227
3811 1507
3811 1891
3812 228
3812 1508
3812 1892
3813 229
3813 1509
3813 1893
3814 230
3814 1510
3814 1894
3815 231
3815 1511
3815 1895
3816 232
3816 1512
3816 1896
3817 233
3817 1513
3817 1897
3818 234
3818 1514
3818 1898
3819 235
3819 1515
3819 1899
3820 236
3820 1516
3820 1900
3821 237
3821 1517
3821 1901
3822 238
3822 1518
3822 1902
3823 239
3823 1519
3823 1903
3824 240
3824 1520
3824 1904
3825 241
3825 1521
3825 1905
3826 242
3826 1522
3826 1906
3827 243
3827 1523
3827 1907
3828 244
3828 1524
3828 1908
3829 245
3829 1525
3829 1909
3830 246
3830 1526
3830 1910
3831 247
3831 1527
3831 1911
3832 248
3832 1528
3832 1912
3833 249
3833 1529
3833 1913
3834 250
3834 1530
3834 1914
3835 251
3835 1531
3835 1915
3836 252
3836 1532
3836 1916
3837 253
3837 1533
3837 1917
3838 254
3838 1534
3838 1918
3839 255
3839 1535
3839 1919
3840 256
3840 1536
3840 1920
3841 257
3841 1537
3841 1921
3842 258
3842 1538
3842 1922
3843 259
3843 1539
3843 1923
3844 260
3844 1540
3844 1924
3845 261
3845 1541
3845 1925
3846 262
3846 1542
3846 1926
3847 263
3847 1543
3847 1927
3848 264
3848 1544
3848 1928
3849 265
3849 1545
3849 1929
3850 266
3850 1546
3850 1930
3851 267
3851 1547
3851 1931
3852 268
3852 1548
3852 1932
3853 269
3853 1549
3853 1933
3854 270
3854 1550
3854 1934
3855 271
3855 1551
3855 1935
3856 272
3856 1552
3856 1936
3857 273
3857 1553
3857 1937
3858 274
3858 1554
3858 1938
3859 275
3859 1555
3859 1939
3860 276
3860 1556
3860 1940
3861 277
3861 1557
3861 1941
3862 278
3862 1558
3862 1942
3863 279
3863 1559
3863 1943
3864 280
3864 1560
3864 1944
3865 281
3865 1561
3865 1945
3866 282
3866 1562
3866 1946
3867 283
3867 1563
3867 1947
3868 284
3868 1564
3868 1948
3869 285
3869 1565
3869 1949
3870 286
3870 1566
3870 1950
3871 287
3871 1567
3871 1951
3872 288
3872 1568
3872 1952
3873 289
3873 1569
3873 1953
3874 290
3874 1570
3874 1954
3875 291
3875 1571
3875 1955
3876 292
3876 1572
3876 1956
3877 293
3877 1573
3877 1957
3878 294
3878 1574
3878 1958
3879 295
3879 1575
3879 1959
3880 296
3880 1576
3880 1960
3881 297
3881 1577
3881 1961
3882 298
3882 1578
3882 1962
3883 299
3883 1579
3883 1963
3884 300
3884 1580
3884 1964
3885 301
3885 1581
3885 1965
3886 302
3886 1582
3886 1966
3887 303
3887 1583
3887 1967
3888 304
3888 1584
3888 1968
3889 305
3889 1585
3889 1969
3890 306
3890 1586
3890 1970
3891 307
3891 1587
3891 1971
3892 308
3892 1588
3892 1972
3893 309
3893 1589
3893 1973
3894 310
3894 1590
3894 1974
3895 311
3895 1591
3895 1975
3896 312
3896 1592
3896 1976
3897 313
3897 1593
3897 1977
3898 314
3898 1594
3898 1978
3899 315
3899 1595
3899 1979
3900 316
3900 1596
3900 1980
3901 317
3901 1597
3901 1981
3902 318
3902 1598
3902 1982
3903 319
3903 1599
3903 1983
3904 320
3904 1600
3904 1984
3905 321
3905 1601
3905 1985
3906 322
3906 1602
3906 1986
3907 323
3907 1603
3907 1987
3908 324
3908 1604
3908 1988
3909 325
3909 1605
3909 1989
3910 326
3910 1606
3910 1990
3911 327
3911 1607
3911 1991
3912 328
3912 1608
3912 1992
3913 329
3913 1609
3913 1993
3914 330
3914 1610
3914 1994
3915 331
3915 1611
3915 1995
3916 332
3916 1612
3916 1996
3917 333
3917 1613
3917 1997
3918 334
3918 1614
3918 1998
3919 335
3919 1615
3919 1999
3920 336
3920 1616
3920 2000
3921 337
3921 1617
3921 2001
3922 338
3922 1618
3922 2002
3923 339
3923 1619
3923 2003
3924 340
3924 1620
3924 2004
3925 341
3925 1621
3925 2005
3926 342
3926 1622
3926 2006
3927 343
3927 1623
3927 2007
3928 344
3928 1624
3928 2008
3929 345
3929 1625
3929 2009
3930 346
3930 1626
3930 2010
3931 347
3931 1627
3931 2011
3932 348
3932 1628
3932 2012
3933 349
3933 1629
3933 2013
3934 350
3934 1630
3934 2014
3935 351
3935 1631
3935 2015
3936 352
3936 1632
3936 2016
3937 353
3937 1633
3937 2017
3938 354
3938 1634
3938 2018
3939 355
3939 1635
3939 2019
3940 356
3940 1636
3940 2020
3941 357
3941 1637
3941 2021
3942 358
3942 1638
3942 2022
3943 359
3943 1639
3943 2023
3944 360
3944 1640
3944 2024
3945 361
3945 1641
3945 2025
3946 362
3946 1642
3946 2026
3947 363
3947 1643
3947 2027
3948 364
3948 1644
3948 2028
3949 365
3949 1645
3949 2029
3950 366
3950 1646
3950 2030
3951 367
3951 1647
3951 2031
3952 368
3952 1648
3952 2032
3953 369
3953 1649
3953 2033
3954 370
3954 1650
3954 2034
3955 371
3955 1651
3955 2035
3956 372
3956 1652
3956 2036
3957 373
3957 1653
3957 2037
3958 374
3958 1654
3958 2038
3959 375
3959 1655
3959 2039
3960 376
3960 1656
3960 2040
3961 377
3961 1657
3961 2041
3962 378
3962 1658
3962 2042
3963 379
3963 1659
3963 2043
3964 380
3964 1660
3964 2044
3965 381
3965 1661
3965 2045
3966 382
3966 1662
3966 2046
3967 383
3967 1663
3967 2047
3968 384
3968 1664
3968 2048
3969 385
3969 1665
3969 2049
3970 386
3970 1666
3970 2050
3971 387
3971 1667
3971 2051
3972 388
3972 1668
3972 2052
3973 389
3973 1669
3973 2053
3974 390
3974 1670
3974 2054
3975 391
3975 1671
3975 2055
3976 392
3976 1672
3976 2056
3977 393
3977 1673
3977 2057
3978 394
3978 1674
3978 2058
3979 395
3979 1675
3979 2059
3980 396
3980 1676
3980 2060
3981 397
3981 1677
3981 2061
3982 398
3982 1678
3982 2062
3983 399
3983 1679
3983 2063
3984 400
3984 1680
3984 2064
3985 401
3985 1681
3985 2065
3986 402
3986 1682
3986 2066
3987 403
3987 1683
3987 2067
3988 404
3988 1684
3988 2068
3989 405
3989 1685
3989 2069
3990 406
3990 1686
3990 2070
3991 407
3991 1687
3991 2071
3992 408
3992 1688
3992 2072
3993 409
3993 1689
3993 2073
3994 410
3994 1690
3994 2074
3995 411
3995 1691
3995 2075
3996 412
3996 1692
3996 2076
3997 413
3997 1693
3997 2077
3998 414
3998 1694
3998 2078
3999 415
3999 1695
3999 2079
4000 416
4000 1696
4000 2080
4001 417
4001 1697
4001 2081
4002 418
4002 1698
4002 2082
4003 419
4003 1699
4003 2083
4004 420
4004 1700
4004 2084
4005 421
4005 1701
4005 2085
4006 422
4006 1702
4006 2086
4007 423
4007 1703
4007 2087
4008 424
4008 1704
4008 2088
4009 425
4009 1705
4009 2089
4010 426
4010 1706
4010 2090
4011 427
4011 1707
4011 2091
4012 428
4012 1708
4012 2092
4013 429
4013 1709
4013 2093
4014 430
4014 1710
4014 2094
4015 431
4015 1711
4015 2095
4016 432
4016 1712
4016 2096
4017 433
4017 1713
4017 2097
4018 434
4018 1714
4018 2098
4019 435
4019 1715
4019 2099
4020 436
4020 1716
4020 2100
4021 437
4021 1717
4021 2101
4022 438
4022 1718
4022 2102
4023 439
4023 1719
4023 2103
4024 440
4024 1720
4024 2104
4025 441
4025 1721
4025 2105
4026 442
4026 1722
4026 2106
4027 443
4027 1723
4027 2107
4028 444
4028 1724
4028 2108
4029 445
4029 1725
4029 2109
4030 446
4030 1726
4030 2110
4031 447
4031 1727
4031 2111
4032 448
4032 1728
4032 2112
4033 449
4033 1729
4033 2113
4034 450
4034 1730
4034 2114
4035 451
4035 1731
4035 2115
4036 452
4036 1732
4036 2116
4037 453
4037 1733
4037 2117
4038 454
4038 1734
4038 2118
4039 455
4039 1735
4039 2119
4040 456
4040 1736
4040 2120
4041 457
4041 1737
4041 2121
4042 458
4042 1738
4042 2122
4043 459
4043 1739
4043 2123
4044 460
4044 1740
4044 2124
4045 461
4045 1741
4045 2125
4046 462
4046 1742
4046 2126
4047 463
4047 1743
4047 2127
4048 464
4048 1744
4048 2128
4049 465
4049 1745
4049 2129
4050 466
4050 1746
4050 2130
4051 467
4051 1747
4051 2131
4052 468
4052 1748
4052 2132
4053 469
4053 1749
4053 2133
4054 470
4054 1750
4054 2134
4055 471
4055 1751
4055 2135
4056 472
4056 1752
4056 2136
4057 473
4057 1753
4057 2137
4058 474
4058 1754
4058 2138
4059 475
4059 1755
4059 2139
4060 476
4060 1756
4060 2140
4061 477
4061 1757
4061 2141
4062 478
4062 1758
4062 2142
4063 479
4063 1759
4063 2143
4064 480
4064 1760
4064 2144
4065 481
4065 1761
4065 2145
4066 482
4066 1762
4066 2146
4067 483
4067 1763
4067 2147
4068 484
4068 1764
4068 2148
4069 485
4069 1765
4069 2149
4070 486
4070 1766
4070 2150
4071 487
4071 1767
4071 2151
4072 488
4072 1768
4072 2152
4073 489
4073 1769
4073 2153
4074 490
4074 1770
4074 2154
4075 491
4075 1771
4075 2155
4076 492
4076 1772
4076 2156
4077 493
4077 1773
4077 2157
4078 494
4078 1774
4078 2158
4079 495
4079 1775
4079 2159
4080 496
4080 1776
4080 2160
4081 497
4081 1777
4081 2161
4082 498
4082 1778
4082 2162
4083 499
4083 1779
4083 2163
4084 500
4084 1780
4084 2164
4085 501
4085 1781
4085 2165
4086 502
4086 1782
4086 2166
4087 503
4087 1783
4087 2167
4088 504
4088 1784
4088 2168
4089 505
4089 1785
4089 2169
4090 506
4090 1786
4090 2170
4091 507
4091 1787
4091 2171
4092 508
4092 1788
4092 2172
4093 509
4093 1789
4093 2173
4094 510
4094 1790
4094 2174
4095 511
4095 1791
4095 2175
4096 512
4096 896
4096 2176
4097 513
4097 897
4097 2177
4098 514
4098 898
4098 2178
4099 515
4099 899
4099 2179
4100 516
4100 900
4100 2180
4101 517
4101 901
4101 2181
4102 518
4102 902
4102 2182
4103 519
4103 903
4103 2183
4104 520
4104 904
4104 2184
4105 521
4105 905
4105 2185
4106 522
4106 906
4106 2186
4107 523
4107 907
4107 2187
4108 524
4108 908
4108 2188
4109 525
4109 909
4109 2189
4110 526
4110 910
4110 2190
4111 527
4111 911
4111 2191
4112 528
4112 912
4112 2192
4113 529
4113 913
4113 2193
4114 530
4114 914
4114 2194
4115 531
4115 915
4115 2195
4116 532
4116 916
4116 2196
4117 533
4117 917
4117 2197
4118 534
4118 918
4118 2198
4119 535
4119 919
4119 2199
4120 536
4120 920
4120 2200
4121 537
4121 921
4121 2201
4122 538
4122 922
4122 2202
4123 539
4123 923
4123 2203
4124 540
4124 924
4124 2204
4125 541
4125 925
4125 2205
4126 542
4126 926
4126 2206
4127 543
4127 927
4127 2207
4128 544
4128 928
4128 2208
4129 545
4129 929
4129 2209
4130 546
4130 930
4130 2210
4131 547
4131 931
4131 2211
4132 548
4132 932
4132 2212
4133 549
4133 933
4133 2213
4134 550
4134 934
4134 2214
4135 551
4135 935
4135 2215
4136 552
4136 936
4136 2216
4137 553
4137 937
4137 2217
4138 554
4138 938
4138 2218
4139 555
4139 939
4139 2219
4140 556
4140 940
4140 2220
4141 557
4141 941
4141 2221
4142 558
4142 942
4142 2222
4143 559
4143 943
4143 2223
4144 560
4144 944
4144 2224
4145 561
4145 945
4145 2225
4146 562
4146 946
4146 2226
4147 563
4147 947
4147 2227
4148 564
4148 948
4148 2228
4149 565
4149 949
4149 2229
4150 566
4150 950
4150 2230
4151 567
4151 951
4151 2231
4152 568
4152 952
4152 2232
4153 569
4153 953
4153 2233
4154 570
4154 954
4154 2234
4155 571
4155 955
4155 2235
4156 572
4156 956
4156 2236
4157 573
4157 957
4157 2237
4158 574
4158 958
4158 2238
4159 575
4159 959
4159 2239
4160 576
4160 960
4160 2240
4161 577
4161 961
4161 2241
4162 578
4162 962
4162 2242
4163 579
4163 963
4163 2243
4164 580
4164 964
4164 2244
4165 581
4165 965
4165 2245
4166 582
4166 966
4166 2246
4167 583
4167 967
4167 2247
4168 584
4168 968
4168 2248
4169 585
4169 969
4169 2249
4170 586
4170 970
4170 2250
4171 587
4171 971
4171 2251
4172 588
4172 972
4172 2252
4173 589
4173 973
4173 2253
4174 590
4174 974
4174 2254
4175 591
4175 975
4175 2255
4176 592
4176 976
4176 2256
4177 593
4177 977
4177 2257
4178 594
4178 978
4178 2258
4179 595
4179 979
4179 2259
4180 596
4180 980
4180 2260
4181 597
4181 981
4181 2261
4182 598
4182 982
4182 2262
4183 599
4183 983
4183 2263
4184 600
4184 984
4184 2264
4185 601
4185 985
4185 2265
4186 602
4186 986
4186 2266
4187 603
4187 987
4187 2267
4188 604
4188 988
4188 2268
4189 605
4189 989
4189 2269
4190 606
4190 990
4190 2270
4191 607
4191 991
4191 2271
4192 608
4192 992
4192 2272
4193 609
4193 993
4193 2273
4194 610
4194 994
4194 2274
4195 611
4195 995
4195 2275
4196 612
4196 996
4196 2276
4197 613
4197 997
4197 2277
4198 614
4198 998
4198 2278
4199 615
4199 999
4199 2279
4200 616
4200 1000
4200 2280
4201 617
4201 1001
4201 2281
4202 618
4202 1002
4202 2282
4203 619
4203 1003
4203 2283
4204 620
4204 1004
4204 2284
4205 621
4205 1005
4205 2285
4206 622
4206 1006
4206 2286
4207 623
4207 1007
4207 2287
4208 624
4208 1008
4208 2288
4209 625
4209 1009
4209 2289
4210 626
4210 1010
4210 2290
4211 627
4211 1011
4211 2291
4212 628
4212 1012
4212 2292
4213 629
4213 1013
4213 2293
4214 630
4214 1014
4214 2294
4215 631
4215 1015
4215 2295
4216 632
4216 1016
4216 2296
4217 633
4217 1017
4217 2297
4218 634
4218 1018
4218 2298
4219 635
4219 1019
4219 2299
4220 636
4220 1020
4220 2300
4221 637
4221 1021
4221 2301
4222 638
4222 1022
4222 2302
4223 639
4223 1023
4223 2303
4224 640
4224 1024
4224 2304
4225 641
4225 1025
4225 2305
4226 642
4226 1026
4226 2306
4227 643
4227 1027
4227 2307
4228 644
4228 1028
4228 2308
4229 645
4229 1029
4229 2309
4230 646
4230 1030
4230 2310
4231 647
4231 1031
4231 2311
4232 648
4232 1032
4232 2312
4233 649
4233 1033
4233 2313
4234 650
4234 1034
4234 2314
4235 651
4235 1035
4235 2315
4236 652
4236 1036
4236 2316
4237 653
4237 1037
4237 2317
4238 654
4238 1038
4238 2318
4239 655
4239 1039
4239 2319
4240 656
4240 1040
4240 2320
4241 657
4241 1041
4241 2321
4242 658
4242 1042
4242 2322
4243 659
4243 1043
4243 2323
4244 660
4244 1044
4244 2324
4245 661
4245 1045
4245 2325
4246 662
4246 1046
4246 2326
4247 663
4247 1047
4247 2327
4248 664
4248 1048
4248 2328
4249 665
4249 1049
4249 2329
4250 666
4250 1050
4250 2330
4251 667
4251 1051
4251 2331
4252 668
4252 1052
4252 2332
4253 669
4253 1053
4253 2333
4254 670
4254 1054
4254 2334
4255 671
4255 1055
4255 2335
4256 672
4256 1056
4256 2336
4257 673
4257 1057
4257 2337
4258 674
4258 1058
4258 2338
4259 675
4259 1059
4259 2339
4260 676
4260 1060
4260 2340
4261 677
4261 1061
4261 2341
4262 678
4262 1062
4262 2342
4263 679
4263 1063
4263 2343
4264 680
4264 1064
4264 2344
4265 681
4265 1065
4265 2345
4266 682
4266 1066
4266 2346
4267 683
4267 1067
4267 2347
4268 684
4268 1068
4268 2348
4269 685
4269 1069
4269 2349
4270 686
4270 1070
4270 2350
4271 687
4271 1071
4271 2351
4272 688
4272 1072
4272 2352
4273 689
4273 1073
4273 2353
4274 690
4274 1074
4274 2354
4275 691
4275 1075
4275 2355
4276 692
4276 1076
4276 2356
4277 693
4277 1077
4277 2357
4278 694
4278 1078
4278 2358
4279 695
4279 1079
4279 2359
4280 696
4280 1080
4280 2360
4281 697
4281 1081
4281 2361
4282 698
4282 1082
4282 2362
4283 699
4283 1083
4283 2363
4284 700
4284 1084
4284 2364
4285 701
4285 1085
4285 2365
4286 702
4286 1086
4286 2366
4287 703
4287 1087
4287 2367
4288 704
4288 1088
4288 2368
4289 705
4289 1089
4289 2369
4290 706
4290 1090
4290 2370
4291 707
4291 1091
4291 2371
4292 708
4292 1092
4292 2372
4293 709
4293 1093
4293 2373
4294 710
4294 1094
4294 2374
4295 711
4295 1095
4295 2375
4296 712
4296 1096
4296 2376
4297 713
4297 1097
4297 2377
4298 714
4298 1098
4298 2378
4299 715
4299 1099
4299 2379
4300 716
4300 1100
4300 2380
4301 717
4301 1101
4301 2381
4302 718
4302 1102
4302 2382
4303 719
4303 1103
4303 2383
4304 720
4304 1104
4304 2384
4305 721
4305 1105
4305 2385
4306 722
4306 1106
4306 2386
4307 723
4307 1107
4307 2387
4308 724
4308 1108
4308 2388
4309 725
4309 1109
4309 2389
4310 726
4310 1110
4310 2390
4311 727
4311 1111
4311 2391
4312 728
4312 1112
4312 2392
4313 729
4313 1113
4313 2393
4314 730
4314 1114
4314 2394
4315 731
4315 1115
4315 2395
4316 732
4316 1116
4316 2396
4317 733
4317 1117
4317 2397
4318 734
4318 1118
4318 2398
4319 735
4319 1119
4319 2399
4320 736
4320 1120
4320 2400
4321 737
4321 1121
4321 2401
4322 738
4322 1122
4322 2402
4323 739
4323 1123
4323 2403
4324 740
4324 1124
4324 2404
4325 741
4325 1125
4325 2405
4326 742
4326 1126
4326 2406
4327 743
4327 1127
4327 2407
4328 744
4328 1128
4328 2408
4329 745
4329 1129
4329 2409
4330 746
4330 1130
4330 2410
4331 747
4331 1131
4331 2411
4332 748
4332 1132
4332 2412
4333 749
4333 1133
4333 2413
4334 750
4334 1134
4334 2414
4335 751
4335 1135
4335 2415
4336 752
4336 1136
4336 2416
4337 753
4337 1137
4337 2417
4338 754
4338 1138
4338 2418
4339 755
4339 1139
4339 2419
4340 756
4340 1140
4340 2420
4341 757
4341 1141
4341 2421
4342 758
4342 1142
4342 2422
4343 759
4343 1143
4343 2423
4344 760
4344 1144
4344 2424
4345 761
4345 1145
4345 2425
4346 762
4346 1146
4346 2426
4347 763
4347 1147
4347 2427
4348 764
4348 1148
4348 2428
4349 765
4349 1149
4349 2429
4350 766
4350 1150
4350 2430
4351 767
4351 1151
4351 2431
4352 768
4352 1152
4352 2432
4353 769
4353 1153
4353 2433
4354 770
4354 1154
4354 2434
4355 771
4355 1155
4355 2435
4356 772
4356 1156
4356 2436
4357 773
4357 1157
4357 2437
4358 774
4358 1158
4358 2438
4359 775
4359 1159
4359 2439
4360 776
4360 1160
4360 2440
4361 777
4361 1161
4361 2441
4362 778
4362 1162
4362 2442
4363 779
4363 1163
4363 2443
4364 780
4364 1164
4364 2444
4365 781
4365 1165
4365 2445
4366 782
4366 1166
4366 2446
4367 783
4367 1167
4367 2447
4368 784
4368 1168
4368 2448
4369 785
4369 1169
4369 2449
4370 786
4370 1170
4370 2450
4371 787
4371 1171
4371 2451
4372 788
4372 1172
4372 2452
4373 789
4373 1173
4373 2453
4374 790
4374 1174
4374 2454
4375 791
4375 1175
4375 2455
4376 792
4376 1176
4376 2456
4377 793
4377 1177
4377 2457
4378 794
4378 1178
4378 2458
4379 795
4379 1179
4379 2459
4380 796
4380 1180
4380 2460
4381 797
4381 1181
4381 2461
4382 798
4382 1182
4382 2462
4383 799
4383 1183
4383 2463
4384 800
4384 1184
4384 2464
4385 801
4385 1185
4385 2465
4386 802
4386 1186
4386 2466
4387 803
4387 1187
4387 2467
4388 804
4388 1188
4388 2468
4389 805
4389 1189
4389 2469
4390 806
4390 1190
4390 2470
4391 807
4391 1191
4391 2471
4392 808
4392 1192
4392 2472
4393 809
4393 1193
4393 2473
4394 810
4394 1194
4394 2474
4395 811
4395 1195
4395 2475
4396 812
4396 1196
4396 2476
4397 813
4397 1197
4397 2477
4398 814
4398 1198
4398 2478
4399 815
4399 1199
4399 2479
4400 816
4400 1200
4400 2480
4401 817
4401 1201
4401 2481
4402 818
4402 1202
4402 2482
4403 819
4403 1203
4403 2483
4404 820
4404 1204
4404 2484
4405 821
4405 1205
4405 2485
4406 822
4406 1206
4406 2486
4407 823
4407 1207
4407 2487
4408 824
4408 1208
4408 2488
4409 825
4409 1209
4409 2489
4410 826
4410 1210
4410 2490
4411 827
4411 1211
4411 2491
4412 828
4412 1212
4412 2492
4413 829
4413 1213
4413 2493
4414 830
4414 1214
4414 2494
4415 831
4415 1215
4415 2495
4416 832
4416 1216
4416 2496
4417 833
4417 1217
4417 2497
4418 834
4418 1218
4418 2498
4419 835
4419 1219
4419 2499
4420 836
4420 1220
4420 2500
4421 837
4421 1221
4421 2501
4422 838
4422 1222
4422 2502
4423 839
4423 1223
4423 2503
4424 840
4424 1224
4424 2504
4425 841
4425 1225
4425 2505
4426 842
4426 1226
4426 2506
4427 843
4427 1227
4427 2507
4428 844
4428 1228
4428 2508
4429 845
4429 1229
4429 2509
4430 846
4430 1230
4430 2510
4431 847
4431 1231
4431 2511
4432 848
4432 1232
4432 2512
4433 849
4433 1233
4433 2513
4434 850
4434 1234
4434 2514
4435 851
4435 1235
4435 2515
4436 852
4436 1236
4436 2516
4437 853
4437 1237
4437 2517
4438 854
4438 1238
4438 2518
4439 855
4439 1239
4439 2519
4440 856
4440 1240
4440 2520
4441 857
4441 1241
4441 2521
4442 858
4442 1242
4442 2522
4443 859
4443 1243
4443 2523
4444 860
4444 1244
4444 2524
4445 861
4445 1245
4445 2525
4446 862
4446 1246
4446 2526
4447 863
4447 1247
4447 2527
4448 864
4448 1248
4448 2528
4449 865
4449 1249
4449 2529
4450 866
4450 1250
4450 2530
4451 867
4451 1251
4451 2531
4452 868
4452 1252
4452 2532
4453 869
4453 1253
4453 2533
4454 870
4454 1254
4454 2534
4455 871
4455 1255
4455 2535
4456 872
4456 1256
4456 2536
4457 873
4457 1257
4457 2537
4458 874
4458 1258
4458 2538
4459 875
4459 1259
4459 2539
4460 876
4460 1260
4460 2540
4461 877
4461 1261
4461 2541
4462 878
4462 1262
4462 2542
4463 879
4463 1263
4463 2543
4464 880
4464 1264
4464 2544
4465 881
4465 1265
4465 2545
4466 882
4466 1266
4466 2546
4467 883
4467 1267
4467 2547
4468 884
4468 1268
4468 2548
4469 885
4469 1269
4469 2549
4470 886
4470 1270
4470 2550
4471 887
4471 1271
4471 2551
4472 888
4472 1272
4472 2552
4473 889
4473 1273
4473 2553
4474 890
4474 1274
4474 2554
4475 891
4475 1275
4475 2555
4476 892
4476 1276
4476 2556
4477 893
4477 1277
4477 2557
4478 894
4478 1278
4478 2558
4479 895
4479 1279
4479 2559
4480 0
4480 1152
4480 2304
4481 1
4481 1153
4481 2305
4482 2
4482 1154
4482 2306
4483 3
4483 1155
4483 2307
4484 4
4484 1156
4484 2308
4485 5
4485 1157
4485 2309
4486 6
4486 1158
4486 2310
4487 7
4487 1159
4487 2311
4488 8
4488 1160
4488 2312
4489 9
4489 1161
4489 2313
4490 10
4490 1162
4490 2314
4491 11
4491 1163
4491 2315
4492 12
4492 1164
4492 2316
4493 13
4493 1165
4493 2317
4494 14
4494 1166
4494 2318
4495 15
4495 1167
4495 2319
4496 16
4496 1168
4496 2320
4497 17
4497 1169
4497 2321
4498 18
4498 1170
4498 2322
4499 19
4499 1171
4499 2323
4500 20
4500 1172
4500 2324
4501 21
4501 1173
4501 2325
4502 22
4502 1174
4502 2326
4503 23
4503 1175
4503 2327
4504 24
4504 1176
4504 2328
4505 25
4505 1177
4505 2329
4506 26
4506 1178
4506 2330
4507 27
4507 1179
4507 2331
4508 28
4508 1180
4508 2332
4509 29
4509 1181
4509 2333
4510 30
4510 1182
4510 2334
4511 31
4511 1183
4511 2335
4512 32
4512 1184
4512 2336
4513 33
4513 1185
4513 2337
4514 34
4514 1186
4514 2338
4515 35
4515 1187
4515 2339
4516 36
4516 1188
4516 2340
4517 37
4517 1189
4517 2341
4518 38
4518 1190
4518 2342
4519 39
4519 1191
4519 2343
4520 40
4520 1192
4520 2344
4521 41
4521 1193
4521 2345
4522 42
4522 1194
4522 2346
4523 43
4523 1195
4523 2347
4524 44
4524 1196
4524 2348
4525 45
4525 1197
4525 2349
4526 46
4526 1198
4526 2350
4527 47
4527 1199
4527 2351
4528 48
4528 1200
4528 2352
4529 49
4529 1201
4529 2353
4530 50
4530 1202
4530 2354
4531 51
4531 1203
4531 2355
4532 52
4532 1204
4532 2356
4533 53
4533 1205
4533 2357
4534 54
4534 1206
4534 2358
4535 55
4535 1207
4535 2359
4536 56
4536 1208
4536 2360
4537 57
4537 1209
4537 2361
4538 58
4538 1210
4538 2362
4539 59
4539 1211
4539 2363
4540 60
4540 1212
4540 2364
4541 61
4541 1213
4541 2365
4542 62
4542 1214
4542 2366
4543 63
4543 1215
4543 2367
4544 64
4544 1216
4544 2368
4545 65
4545 1217
4545 2369
4546 66
4546 1218
4546 2370
4547 67
4547 1219
4547 2371
4548 68
4548 1220
4548 2372
4549 69
4549 1221
4549 2373
4550 70
4550 1222
4550 2374
4551 71
4551 1223
4551 2375
4552 72
4552 1224
4552 2376
4553 73
4553 1225
4553 2377
4554 74
4554 1226
4554 2378
4555 75
4555 1227
4555 2379
4556 76
4556 1228
4556 2380
4557 77
4557 1229
4557 2381
4558 78
4558 1230
4558 2382
4559 79
4559 1231
4559 2383
4560 80
4560 1232
4560 2384
4561 81
4561 1233
4561 2385
4562 82
4562 1234
4562 2386
4563 83
4563 1235
4563 2387
4564 84
4564 1236
4564 2388
4565 85
4565 1237
4565 2389
4566 86
4566 1238
4566 2390
4567 87
4567 1239
4567 2391
4568 88
4568 1240
4568 2392
4569 89
4569 1241
4569 2393
4570 90
4570 1242
4570 2394
4571 91
4571 1243
4571 2395
4572 92
4572 1244
4572 2396
4573 93
4573 1245
4573 2397
4574 94
4574 1246
4574 2398
4575 95
4575 1247
4575 2399
4576 96
4576 1248
4576 2400
4577 97
4577 1249
4577 2401
4578 98
4578 1250
4578 2402
4579 99
4579 1251
4579 2403
4580 100
4580 1252
4580 2404
4581 101
4581 1253
4581 2405
4582 102
4582 1254
4582 2406
4583 103
4583 1255
4583 2407
4584 104
4584 1256
4584 2408
4585 105
4585 1257
4585 2409
4586 106
4586 1258
4586 2410
4587 107
4587 1259
4587 2411
4588 108
4588 1260
4588 2412
4589 109
4589 1261
4589 2413
4590 110
4590 1262
4590 2414
4591 111
4591 1263
4591 2415
4592 112
4592 1264
4592 2416
4593 113
4593 1265
4593 2417
4594 114
4594 1266
4594 2418
4595 115
4595 1267
4595 2419
4596 116
4596 1268
4596 2420
4597 117
4597 1269
4597 2421
4598 118
4598 1270
4598 2422
4599 119
4599 1271
4599 2423
4600 120
4600 1272
4600 2424
4601 121
4601 1273
4601 2425
4602 122
4602 1274
4602 2426
4603 123
4603 1275
4603 2427
4604 124
4604 1276
4604 2428
4605 125
4605 1277
4605 2429
4606 126
4606 1278
4606 2430
4607 127
4607 1279
4607 2431
4608 128
4608 1280
4608 2432
4609 129
4609 1281
4609 2433
4610 130
4610 1282
4610 2434
4611 131
4611 1283
4611 2435
4612 132
4612 1284
4612 2436
4613 133
4613 1285
4613 2437
4614 134
4614 1286
4614 2438
4615 135
4615 1287
4615 2439
4616 136
4616 1288
4616 2440
4617 137
4617 1289
4617 2441
4618 138
4618 1290
4618 2442
4619 139
4619 1291
4619 2443
4620 140
4620 1292
4620 2444
4621 141
4621 1293
4621 2445
4622 142
4622 1294
4622 2446
4623 143
4623 1295
4623 2447
4624 144
4624 1296
4624 2448
4625 145
4625 1297
4625 2449
4626 146
4626 1298
4626 2450
4627 147
4627 1299
4627 2451
4628 148
4628 1300
4628 2452
4629 149
4629 1301
4629 2453
4630 150
4630 1302
4630 2454
4631 151
4631 1303
4631 2455
4632 152
4632 1304
4632 2456
4633 153
4633 1305
4633 2457
4634 154
4634 1306
4634 2458
4635 155
4635 1307
4635 2459
4636 156
4636 1308
4636 2460
4637 157
4637 1309
4637 2461
4638 158
4638 1310
4638 2462
4639 159
4639 1311
4639 2463
4640 160
4640 1312
4640 2464
4641 161
4641 1313
4641 2465
4642 162
4642 1314
4642 2466
4643 163
4643 1315
4643 2467
4644 164
4644 1316
4644 2468
4645 165
4645 1317
4645 2469
4646 166
4646 1318
4646 2470
4647 167
4647 1319
4647 2471
4648 168
4648 1320
4648 2472
4649 169
4649 1321
4649 2473
4650 170
4650 1322
4650 2474
4651 171
4651 1323
4651 2475
4652 172
4652 1324
4652 2476
4653 173
4653 1325
4653 2477
4654 174
4654 1326
4654 2478
4655 175
4655 1327
4655 2479
4656 176
4656 1328
4656 2480
4657 177
4657 1329
4657 2481
4658 178
4658 1330
4658 2482
4659 179
4659 1331
4659 2483
4660 180
4660 1332
4660 2484
4661 181
4661 1333
4661 2485
4662 182
4662 1334
4662 2486
4663 183
4663 1335
4663 2487
4664 184
4664 1336
4664 2488
4665 185
4665 1337
4665 2489
4666 186
4666 1338
4666 2490
4667 187
4667 1339
4667 2491
4668 188
4668 1340
4668 2492
4669 189
4669 1341
4669 2493
4670 190
4670 1342
4670 2494
4671 191
4671 1343
4671 2495
4672 192
4672 1344
4672 2496
4673 193
4673 1345
4673 2497
4674 194
4674 1346
4674 2498
4675 195
4675 1347
4675 2499
4676 196
4676 1348
4676 2500
4677 197
4677 1349
4677 2501
4678 198
4678 1350
4678 2502
4679 199
4679 1351
4679 2503
4680 200
4680 1352
4680 2504
4681 201
4681 1353
4681 2505
4682 202
4682 1354
4682 2506
4683 203
4683 1355
4683 2507
4684 204
4684 1356
4684 2508
4685 205
4685 1357
4685 2509
4686 206
4686 1358
4686 2510
4687 207
4687 1359
4687 2511
4688 208
4688 1360
4688 2512
4689 209
4689 1361
4689 2513
4690 210
4690 1362
4690 2514
4691 211
4691 1363
4691 2515
4692 212
4692 1364
4692 2516
4693 213
4693 1365
4693 2517
4694 214
4694 1366
4694 2518
4695 215
4695 1367
4695 2519
4696 216
4696 1368
4696 2520
4697 217
4697 1369
4697 2521
4698 218
4698 1370
4698 2522
4699 219
4699 1371
4699 2523
4700 220
4700 1372
4700 2524
4701 221
4701 1373
4701 2525
4702 222
4702 1374
4702 2526
4703 223
4703 1375
4703 2527
4704 224
4704 1376
4704 2528
4705 225
4705 1377
4705 2529
4706 226
4706 1378
4706 2530
4707 227
4707 1379
4707 2531
4708 228
4708 1380
4708 2532
4709 229
4709 1381
4709 2533
4710 230
4710 1382
4710 2534
4711 231
4711 1383
4711 2535
4712 232
4712 1384
4712 2536
4713 233
4713 1385
4713 2537
4714 234
4714 1386
4714 2538
4715 235
4715 1387
4715 2539
4716 236
4716 1388
4716 2540
4717 237
4717 1389
4717 2541
4718 238
4718 1390
4718 2542
4719 239
4719 1391
4719 2543
4720 240
4720 1392
4720 2544
4721 241
4721 1393
4721 2545
4722 242
4722 1394
4722 2546
4723 243
4723 1395
4723 2547
4724 244
4724 1396
4724 2548
4725 245
4725 1397
4725 2549
4726 246
4726 1398
4726 2550
4727 247
4727 1399
4727 2551
4728 248
4728 1400
4728 2552
4729 249
4729 1401
4729 2553
4730 250
4730 1402
4730 2554
4731 251
4731 1403
4731 2555
4732 252
4732 1404
4732 2556
4733 253
4733 1405
4733 2557
4734 254
4734 1406
4734 2558
4735 255
4735 1407
4735 2559
4736 256
4736 1408
4736 2560
4737 257
4737 1409
4737 2561
4738 258
4738 1410
4738 2562
4739 259
4739 1411
4739 2563
4740 260
4740 1412
4740 2564
4741 261
4741 1413
4741 2565
4742 262
4742 1414
4742 2566
4743 263
4743 1415
4743 2567
4744 264
4744 1416
4744 2568
4745 265
4745 1417
4745 2569
4746 266
4746 1418
4746 2570
4747 267
4747 1419
4747 2571
4748 268
4748 1420
4748 2572
4749 269
4749 1421
4749 2573
4750 270
4750 1422
4750 2574
4751 271
4751 1423
4751 2575
4752 272
4752 1424
4752 2576
4753 273
4753 1425
4753 2577
4754 274
4754 1426
4754 2578
4755 275
4755 1427
4755 2579
4756 276
4756 1428
4756 2580
4757 277
4757 1429
4757 2581
4758 278
4758 1430
4758 2582
4759 279
4759 1431
4759 2583
4760 280
4760 1432
4760 2584
4761 281
4761 1433
4761 2585
4762 282
4762 1434
4762 2586
4763 283
4763 1435
4763 2587
4764 284
4764 1436
4764 2588
4765 285
4765 1437
4765 2589
4766 286
4766 1438
4766 2590
4767 287
4767 1439
4767 2591
4768 288
4768 1440
4768 2592
4769 289
4769 1441
4769 2593
4770 290
4770 1442
4770 2594
4771 291
4771 1443
4771 2595
4772 292
4772 1444
4772 2596
4773 293
4773 1445
4773 2597
4774 294
4774 1446
4774 2598
4775 295
4775 1447
4775 2599
4776 296
4776 1448
4776 2600
4777 297
4777 1449
4777 2601
4778 298
4778 1450
4778 2602
4779 299
4779 1451
4779 2603
4780 300
4780 1452
4780 2604
4781 301
4781 1453
4781 2605
4782 302
4782 1454
4782 2606
4783 303
4783 1455
4783 2607
4784 304
4784 1456
4784 2608
4785 305
4785 1457
4785 2609
4786 306
4786 1458
4786 2610
4787 307
4787 1459
4787 2611
4788 308
4788 1460
4788 2612
4789 309
4789 1461
4789 2613
4790 310
4790 1462
4790 2614
4791 311
4791 1463
4791 2615
4792 312
4792 1464
4792 2616
4793 313
4793 1465
4793 2617
4794 314
4794 1466
4794 2618
4795 315
4795 1467
4795 2619
4796 316
4796 1468
4796 2620
4797 317
4797 1469
4797 2621
4798 318
4798 1470
4798 2622
4799 319
4799 1471
4799 2623
4800 320
4800 1472
4800 2624
4801 321
4801 1473
4801 2625
4802 322
4802 1474
4802 2626
4803 323
4803 1475
4803 2627
4804 324
4804 1476
4804 2628
4805 325
4805 1477
4805 2629
4806 326
4806 1478
4806 2630
4807 327
4807 1479
4807 2631
4808 328
4808 1480
4808 2632
4809 329
4809 1481
4809 2633
4810 330
4810 1482
4810 2634
4811 331
4811 1483
4811 2635
4812 332
4812 1484
4812 2636
4813 333
4813 1485
4813 2637
4814 334
4814 1486
4814 2638
4815 335
4815 1487
4815 2639
4816 336
4816 1488
4816 2640
4817 337
4817 1489
4817 2641
4818 338
4818 1490
4818 2642
4819 339
4819 1491
4819 2643
4820 340
4820 1492
4820 2644
4821 341
4821 1493
4821 2645
4822 342
4822 1494
4822 2646
4823 343
4823 1495
4823 2647
4824 344
4824 1496
4824 2648
4825 345
4825 1497
4825 2649
4826 346
4826 1498
4826 2650
4827 347
4827 1499
4827 2651
4828 348
4828 1500
4828 2652
4829 349
4829 1501
4829 2653
4830 350
4830 1502
4830 2654
4831 351
4831 1503
4831 2655
4832 352
4832 1504
4832 2656
4833 353
4833 1505
4833 2657
4834 354
4834 1506
4834 2658
4835 355
4835 1507
4835 2659
4836 356
4836 1508
4836 2660
4837 357
4837 1509
4837 2661
4838 358
4838 1510
4838 2662
4839 359
4839 1511
4839 2663
4840 360
4840 1512
4840 2664
4841 361
4841 1513
4841 2665
4842 362
4842 1514
4842 2666
4843 363
4843 1515
4843 2667
4844 364
4844 1516
4844 2668
4845 365
4845 1517
4845 2669
4846 366
4846 1518
4846 2670
4847 367
4847 1519
4847 2671
4848 368
4848 1520
4848 2672
4849 369
4849 1521
4849 2673
4850 370
4850 1522
4850 2674
4851 371
4851 1523
4851 2675
4852 372
4852 1524
4852 2676
4853 373
4853 1525
4853 2677
4854 374
4854 1526
4854 2678
4855 375
4855 1527
4855 2679
4856 376
4856 1528
4856 2680
4857 377
4857 1529
4857 2681
4858 378
4858 1530
4858 2682
4859 379
4859 1531
4859 2683
4860 380
4860 1532
4860 2684
4861 381
4861 1533
4861 2685
4862 382
4862 1534
4862 2686
4863 383
4863 1535
4863 2687
4864 384
4864 1536
4864 1792
4865 385
4865 1537
4865 1793
4866 386
4866 1538
4866 1794
4867 387
4867 1539
4867 1795
4868 388
4868 1540
4868 1796
4869 389
4869 1541
4869 1797
4870 390
4870 1542
4870 1798
4871 391
4871 1543
4871 1799
4872 392
4872 1544
4872 1800
4873 393
4873 1545
4873 1801
4874 394
4874 1546
4874 1802
4875 395
4875 1547
4875 1803
4876 396
4876 1548
4876 1804
4877 397
4877 1549
4877 1805
4878 398
4878 1550
4878 1806
4879 399
4879 1551
4879 1807
4880 400
4880 1552
4880 1808
4881 401
4881 1553
4881 1809
4882 402
4882 1554
4882 1810
4883 403
4883 1555
4883 1811
4884 404
4884 1556
4884 1812
4885 405
4885 1557
4885 1813
4886 406
4886 1558
4886 1814
4887 407
4887 1559
4887 1815
4888 408
4888 1560
4888 1816
4889 409
4889 1561
4889 1817
4890 410
4890 1562
4890 1818
4891 411
4891 1563
4891 1819
4892 412
4892 1564
4892 1820
4893 413
4893 1565
4893 1821
4894 414
4894 1566
4894 1822
4895 415
4895 1567
4895 1823
4896 416
4896 1568
4896 1824
4897 417
4897 1569
4897 1825
4898 418
4898 1570
4898 1826
4899 419
4899 1571
4899 1827
4900 420
4900 1572
4900 1828
4901 421
4901 1573
4901 1829
4902 422
4902 1574
4902 1830
4903 423
4903 1575
4903 1831
4904 424
4904 1576
4904 1832
4905 425
4905 1577
4905 1833
4906 426
4906 1578
4906 1834
4907 427
4907 1579
4907 1835
4908 428
4908 1580
4908 1836
4909 429
4909 1581
4909 1837
4910 430
4910 1582
4910 1838
4911 431
4911 1583
4911 1839
4912 432
4912 1584
4912 1840
4913 433
4913 1585
4913 1841
4914 434
4914 1586
4914 1842
4915 435
4915 1587
4915 1843
4916 436
4916 1588
4916 1844
4917 437
4917 1589
4917 1845
4918 438
4918 1590
4918 1846
4919 439
4919 1591
4919 1847
4920 440
4920 1592
4920 1848
4921 441
4921 1593
4921 1849
4922 442
4922 1594
4922 1850
4923 443
4923 1595
4923 1851
4924 444
4924 1596
4924 1852
4925 445
4925 1597
4925 1853
4926 446
4926 1598
4926 1854
4927 447
4927 1599
4927 1855
4928 448
4928 1600
4928 1856
4929 449
4929 1601
4929 1857
4930 450
4930 1602
4930 1858
4931 451
4931 1603
4931 1859
4932 452
4932 1604
4932 1860
4933 453
4933 1605
4933 1861
4934 454
4934 1606
4934 1862
4935 455
4935 1607
4935 1863
4936 456
4936 1608
4936 1864
4937 457
4937 1609
4937 1865
4938 458
4938 1610
4938 1866
4939 459
4939 1611
4939 1867
4940 460
4940 1612
4940 1868
4941 461
4941 1613
4941 1869
4942 462
4942 1614
4942 1870
4943 463
4943 1615
4943 1871
4944 464
4944 1616
4944 1872
4945 465
4945 1617
4945 1873
4946 466
4946 1618
4946 1874
4947 467
4947 1619
4947 1875
4948 468
4948 1620
4948 1876
4949 469
4949 1621
4949 1877
4950 470
4950 1622
4950 1878
4951 471
4951 1623
4951 1879
4952 472
4952 1624
4952 1880
4953 473
4953 1625
4953 1881
4954 474
4954 1626
4954 1882
4955 475
4955 1627
4955 1883
4956 476
4956 1628
4956 1884
4957 477
4957 1629
4957 1885
4958 478
4958 1630
4958 1886
4959 479
4959 1631
4959 1887
4960 480
4960 1632
4960 1888
4961 481
4961 1633
4961 1889
4962 482
4962 1634
4962 1890
4963 483
4963 1635
4963 1891
4964 484
4964 1636
4964 1892
4965 485
4965 1637
4965 1893
4966 486
4966 1638
4966 1894
4967 487
4967 1639
4967 1895
4968 488
4968 1640
4968 1896
4969 489
4969 1641
4969 1897
4970 490
4970 1642
4970 1898
4971 491
4971 1643
4971 1899
4972 492
4972 1644
4972 1900
4973 493
4973 1645
4973 1901
4974 494
4974 1646
4974 1902
4975 495
4975 1647
4975 1903
4976 496
4976 1648
4976 1904
4977 497
4977 1649
4977 1905
4978 498
4978 1650
4978 1906
4979 499
4979 1651
4979 1907
4980 500
4980 1652
4980 1908
4981 501
4981 1653
4981 1909
4982 502
4982 1654
4982 1910
4983 503
4983 1655
4983 1911
4984 504
4984 1656
4984 1912
4985 505
4985 1657
4985 1913
4986 506
4986 1658
4986 1914
4987 507
4987 1659
4987 1915
4988 508
4988 1660
4988 1916
4989 509
4989 1661
4989 1917
4990 510
4990 1662
4990 1918
4991 511
4991 1663
4991 1919
4992 512
4992 1664
4992 1920
4993 513
4993 1665
4993 1921
4994 514
4994 1666
4994 1922
4995 515
4995 1667
4995 1923
4996 516
4996 1668
4996 1924
4997 517
4997 1669
4997 1925
4998 518
4998 1670
4998 1926
4999 519
4999 1671
4999 1927
5000 520
5000 1672
5000 1928
5001 521
5001 1673
5001 1929
5002 522
5002 1674
5002 1930
5003 523
5003 1675
5003 1931
5004 524
5004 1676
5004 1932
5005 525
5005 1677
5005 1933
5006 526
5006 1678
5006 1934
5007 527
5007 1679
5007 1935
5008 528
5008 1680
5008 1936
5009 529
5009 1681
5009 1937
5010 530
5010 1682
5010 1938
5011 531
5011 1683
5011 1939
5012 532
5012 1684
5012 1940
5013 533
5013 1685
5013 1941
5014 534
5014 1686
5014 1942
5015 535
5015 1687
5015 1943
5016 536
5016 1688
5016 1944
5017 537
5017 1689
5017 1945
5018 538
5018 1690
5018 1946
5019 539
5019 1691
5019 1947
5020 540
5020 1692
5020 1948
5021 541
5021 1693
5021 1949
5022 542
5022 1694
5022 1950
5023 543
5023 1695
5023 1951
5024 544
5024 1696
5024 1952
5025 545
5025 1697
5025 1953
5026 546
5026 1698
5026 1954
5027 547
5027 1699
5027 1955
5028 548
5028 1700
5028 1956
5029 549
5029 1701
5029 1957
5030 550
5030 1702
5030 1958
5031 551
5031 1703
5031 1959
5032 552
5032 1704
5032 1960
5033 553
5033 1705
5033 1961
5034 554
5034 1706
5034 1962
5035 555
5035 1707
5035 1963
5036 556
5036 1708
5036 1964
5037 557
5037 1709
5037 1965
5038 558
5038 1710
5038 1966
5039 559
5039 1711
5039 1967
5040 560
5040 1712
5040 1968
5041 561
5041 1713
5041 1969
5042 562
5042 1714
5042 1970
5043 563
5043 1715
5043 1971
5044 564
5044 1716
5044 1972
5045 565
5045 1717
5045 1973
5046 566
5046 1718
5046 1974
5047 567
5047 1719
5047 1975
5048 568
5048 1720
5048 1976
5049 569
5049 1721
5049 1977
5050 570
5050 1722
5050 1978
5051 571
5051 1723
5051 1979
5052 572
5052 1724
5052 1980
5053 573
5053 1725
5053 1981
5054 574
5054 1726
5054 1982
5055 575
5055 1727
5055 1983
5056 576
5056 1728
5056 1984
5057 577
5057 1729
5057 1985
5058 578
5058 1730
5058 1986
5059 579
5059 1731
5059 1987
5060 580
5060 1732
5060 1988
5061 581
5061 1733
5061 1989
5062 582
5062 1734
5062 1990
5063 583
5063 1735
5063 1991
5064 584
5064 1736
5064 1992
5065 585
5065 1737
5065 1993
5066 586
5066 1738
5066 1994
5067 587
5067 1739
5067 1995
5068 588
5068 1740
5068 1996
5069 589
5069 1741
5069 1997
5070 590
5070 1742
5070 1998
5071 591
5071 1743
5071 1999
5072 592
5072 1744
5072 2000
5073 593
5073 1745
5073 2001
5074 594
5074 1746
5074 2002
5075 595
5075 1747
5075 2003
5076 596
5076 1748
5076 2004
5077 597
5077 1749
5077 2005
5078 598
5078 1750
5078 2006
5079 599
5079 1751
5079 2007
5080 600
5080 1752
5080 2008
5081 601
5081 1753
5081 2009
5082 602
5082 1754
5082 2010
5083 603
5083 1755
5083 2011
5084 604
5084 1756
5084 2012
5085 605
5085 1757
5085 2013
5086 606
5086 1758
5086 2014
5087 607
5087 1759
5087 2015
5088 608
5088 1760
5088 2016
5089 609
5089 1761
5089 2017
5090 610
5090 1762
5090 2018
5091 611
5091 1763
5091 2019
5092 612
5092 1764
5092 2020
5093 613
5093 1765
5093 2021
5094 614
5094 1766
5094 2022
5095 615
5095 1767
5095 2023
5096 616
5096 1768
5096 2024
5097 617
5097 1769
5097 2025
5098 618
5098 1770
5098 2026
5099 619
5099 1771
5099 2027
5100 620
5100 1772
5100 2028
5101 621
5101 1773
5101 2029
5102 622
5102 1774
5102 2030
5103 623
5103 1775
5103 2031
5104 624
5104 1776
5104 2032
5105 625
5105 1777
5105 2033
5106 626
5106 1778
5106 2034
5107 627
5107 1779
5107 2035
5108 628
5108 1780
5108 2036
5109 629
5109 1781
5109 2037
5110 630
5110 1782
5110 2038
5111 631
5111 1783
5111 2039
5112 632
5112 1784
5112 2040
5113 633
5113 1785
5113 2041
5114 634
5114 1786
5114 2042
5115 635
5115 1787
5115 2043
5116 636
5116 1788
5116 2044
5117 637
5117 1789
5117 2045
5118 638
5118 1790
5118 2046
5119 639
5119 1791
5119 2047
5120 640
5120 896
5120 2048
5121 641
5121 897
5121 2049
5122 642
5122 898
5122 2050
5123 643
5123 899
5123 2051
5124 644
5124 900
5124 2052
5125 645
5125 901
5125 2053
5126 646
5126 902
5126 2054
5127 647
5127 903
5127 2055
5128 648
5128 904
5128 2056
5129 649
5129 905
5129 2057
5130 650
5130 906
5130 2058
5131 651
5131 907
5131 2059
5132 652
5132 908
5132 2060
5133 653
5133 909
5133 2061
5134 654
5134 910
5134 2062
5135 655
5135 911
5135 2063
5136 656
5136 912
5136 2064
5137 657
5137 913
5137 2065
5138 658
5138 914
5138 2066
5139 659
5139 915
5139 2067
5140 660
5140 916
5140 2068
5141 661
5141 917
5141 2069
5142 662
5142 918
5142 2070
5143 663
5143 919
5143 2071
5144 664
5144 920
5144 2072
5145 665
5145 921
5145 2073
5146 666
5146 922
5146 2074
5147 667
5147 923
5147 2075
5148 668
5148 924
5148 2076
5149 669
5149 925
5149 2077
5150 670
5150 926
5150 2078
5151 671
5151 927
5151 2079
5152 672
5152 928
5152 2080
5153 673
5153 929
5153 2081
5154 674
5154 930
5154 2082
5155 675
5155 931
5155 2083
5156 676
5156 932
5156 2084
5157 677
5157 933
5157 2085
5158 678
5158 934
5158 2086
5159 679
5159 935
5159 2087
5160 680
5160 936
5160 2088
5161 681
5161 937
5161 2089
5162 682
5162 938
5162 2090
5163 683
5163 939
5163 2091
5164 684
5164 940
5164 2092
5165 685
5165 941
5165 2093
5166 686
5166 942
5166 2094
5167 687
5167 943
5167 2095
5168 688
5168 944
5168 2096
5169 689
5169 945
5169 2097
5170 690
5170 946
5170 2098
5171 691
5171 947
5171 2099
5172 692
5172 948
5172 2100
5173 693
5173 949
5173 2101
5174 694
5174 950
5174 2102
5175 695
5175 951
5175 2103
5176 696
5176 952
5176 2104
5177 697
5177 953
5177 2105
5178 698
5178 954
5178 2106
5179 699
5179 955
5179 2107
5180 700
5180 956
5180 2108
5181 701
5181 957
5181 2109
5182 702
5182 958
5182 2110
5183 703
5183 959
5183 2111
5184 704
5184 960
5184 2112
5185 705
5185 961
5185 2113
5186 706
5186 962
5186 2114
5187 707
5187 963
5187 2115
5188 708
5188 964
5188 2116
5189 709
5189 965
5189 2117
5190 710
5190 966
5190 2118
5191 711
5191 967
5191 2119
5192 712
5192 968
5192 2120
5193 713
5193 969
5193 2121
5194 714
5194 970
5194 2122
5195 715
5195 971
5195 2123
5196 716
5196 972
5196 2124
5197 717
5197 973
5197 2125
5198 718
5198 974
5198 2126
5199 719
5199 975
5199 2127
5200 720
5200 976
5200 2128
5201 721
5201 977
5201 2129
5202 722
5202 978
5202 2130
5203 723
5203 979
5203 2131
5204 724
5204 980
5204 2132
5205 725
5205 981
5205 2133
5206 726
5206 982
5206 2134
5207 727
5207 983
5207 2135
5208 728
5208 984
5208 2136
5209 729
5209 985
5209 2137
5210 730
5210 986
5210 2138
5211 731
5211 987
5211 2139
5212 732
5212 988
5212 2140
5213 733
5213 989
5213 2141
5214 734
5214 990
5214 2142
5215 735
5215 991
5215 2143
5216 736
5216 992
5216 2144
5217 737
5217 993
5217 2145
5218 738
5218 994
5218 2146
5219 739
5219 995
5219 2147
5220 740
5220 996
5220 2148
5221 741
5221 997
5221 2149
5222 742
5222 998
5222 2150
5223 743
5223 999
5223 2151
5224 744
5224 1000
5224 2152
5225 745
5225 1001
5225 2153
5226 746
5226 1002
5226 2154
5227 747
5227 1003
5227 2155
5228 748
5228 1004
5228 2156
5229 749
5229 1005
5229 2157
5230 750
5230 1006
5230 2158
5231 751
5231 1007
5231 2159
5232 752
5232 1008
5232 2160
5233 753
5233 1009
5233 2161
5234 754
5234 1010
5234 2162
5235 755
5235 1011
5235 2163
5236 756
5236 1012
5236 2164
5237 757
5237 1013
5237 2165
5238 758
5238 1014
5238 2166
5239 759
5239 1015
5239 2167
5240 760
5240 1016
5240 2168
5241 761
5241 1017
5241 2169
5242 762
5242 1018
5242 2170
5243 763
5243 1019
5243 2171
5244 764
5244 1020
5244 2172
5245 765
5245 1021
5245 2173
5246 766
5246 1022
5246 2174
5247 767
5247 1023
5247 2175
5248 768
5248 1024
5248 2176
5249 769
5249 1025
5249 2177
5250 770
5250 1026
5250 2178
5251 771
5251 1027
5251 2179
5252 772
5252 1028
5252 2180
5253 773
5253 1029
5253 2181
5254 774
5254 1030
5254 2182
5255 775
5255 1031
5255 2183
5256 776
5256 1032
5256 2184
5257 777
5257 1033
5257 2185
5258 778
5258 1034
5258 2186
5259 779
5259 1035
5259 2187
5260 780
5260 1036
5260 2188
5261 781
5261 1037
5261 2189
5262 782
5262 1038
5262 2190
5263 783
5263 1039
5263 2191
5264 784
5264 1040
5264 2192
5265 785
5265 1041
5265 2193
5266 786
5266 1042
5266 2194
5267 787
5267 1043
5267 2195
5268 788
5268 1044
5268 2196
5269 789
5269 1045
5269 2197
5270 790
5270 1046
5270 2198
5271 791
5271 1047
5271 2199
5272 792
5272 1048
5272 2200
5273 793
5273 1049
5273 2201
5274 794
5274 1050
5274 2202
5275 795
5275 1051
5275 2203
5276 796
5276 1052
5276 2204
5277 797
5277 1053
5277 2205
5278 798
5278 1054
5278 2206
5279 799
5279 1055
5279 2207
5280 800
5280 1056
5280 2208
5281 801
5281 1057
5281 2209
5282 802
5282 1058
5282 2210
5283 803
5283 1059
5283 2211
5284 804
5284 1060
5284 2212
5285 805
5285 1061
5285 2213
5286 806
5286 1062
5286 2214
5287 807
5287 1063
5287 2215
5288 808
5288 1064
5288 2216
5289 809
5289 1065
5289 2217
5290 810
5290 1066
5290 2218
5291 811
5291 1067
5291 2219
5292 812
5292 1068
5292 2220
5293 813
5293 1069
5293 2221
5294 814
5294 1070
5294 2222
5295 815
5295 1071
5295 2223
5296 816
5296 1072
5296 2224
5297 817
5297 1073
5297 2225
5298 818
5298 1074
5298 2226
5299 819
5299 1075
5299 2227
5300 820
5300 1076
5300 2228
5301 821
5301 1077
5301 2229
5302 822
5302 1078
5302 2230
5303 823
5303 1079
5303 2231
5304 824
5304 1080
5304 2232
5305 825
5305 1081
5305 2233
5306 826
5306 1082
5306 2234
5307 827
5307 1083
5307 2235
5308 828
5308 1084
5308 2236
5309 829
5309 1085
5309 2237
5310 830
5310 1086
5310 2238
5311 831
5311 1087
5311 2239
5312 832
5312 1088
5312 2240
5313 833
5313 1089
5313 2241
5314 834
5314 1090
5314 2242
5315 835
5315 1091
5315 2243
5316 836
5316 1092
5316 2244
5317 837
5317 1093
5317 2245
5318 838
5318 1094
5318 2246
5319 839
5319 1095
5319 2247
5320 840
5320 1096
5320 2248
5321 841
5321 1097
5321 2249
5322 842
5322 1098
5322 2250
5323 843
5323 1099
5323 2251
5324 844
5324 1100
5324 2252
5325 845
5325 1101
5325 2253
5326 846
5326 1102
5326 2254
5327 847
5327 1103
5327 2255
5328 848
5328 1104
5328 2256
5329 849
5329 1105
5329 2257
5330 850
5330 1106
5330 2258
5331 851
5331 1107
5331 2259
5332 852
5332 1108
5332 2260
5333 853
5333 1109
5333 2261
5334 854
5334 1110
5334 2262
5335 855
5335 1111
5335 2263
5336 856
5336 1112
5336 2264
5337 857
5337 1113
5337 2265
5338 858
5338 1114
5338 2266
5339 859
5339 1115
5339 2267
5340 860
5340 1116
5340 2268
5341 861
5341 1117
5341 2269
5342 862
5342 1118
5342 2270
5343 863
5343 1119
5343 2271
5344 864
5344 1120
5344 2272
5345 865
5345 1121
5345 2273
5346 866
5346 1122
5346 2274
5347 867
5347 1123
5347 2275
5348 868
5348 1124
5348 2276
5349 869
5349 1125
5349 2277
5350 870
5350 1126
5350 2278
5351 871
5351 1127
5351 2279
5352 872
5352 1128
5352 2280
5353 873
5353 1129
5353 2281
5354 874
5354 1130
5354 2282
5355 875
5355 1131
5355 2283
5356 876
5356 1132
5356 2284
5357 877
5357 1133
5357 2285
5358 878
5358 1134
5358 2286
5359 879
5359 1135
5359 2287
5360 880
5360 1136
5360 2288
5361 881
5361 1137
5361 2289
5362 882
5362 1138
5362 2290
5363 883
5363 1139
5363 2291
5364 884
5364 1140
5364 2292
5365 885
5365 1141
5365 2293
5366 886
5366 1142
5366 2294
5367 887
5367 1143
5367 2295
5368 888
5368 1144
5368 2296
5369 889
5369 1145
5369 2297
5370 890
5370 1146
5370 2298
5371 891
5371 1147
5371 2299
5372 892
5372 1148
5372 2300
5373 893
5373 1149
5373 2301
5374 894
5374 1150
5374 2302
5375 895
5375 1151
5375 2303
