5376 2688 16128
0 53
0 937
0 1831
1 117
1 1012
1 1860
2 0
2 938
2 1875
3 70
3 1014
3 1918
4 56
4 933
4 1804
5 107
5 1006
5 1853
6 90
6 951
6 1815
7 57
7 1002
7 1813
8 77
8 946
8 1864
9 63
9 915
9 1893
10 119
10 925
10 1894
11 40
11 949
11 1878
12 20
12 960
12 1879
13 76
13 961
13 1848
14 18
14 924
14 1810
15 113
15 994
15 1849
16 68
16 931
16 1872
17 83
17 947
17 1845
18 7
18 965
18 1900
19 14
19 896
19 1843
20 116
20 980
20 1856
21 49
21 908
21 1897
22 120
22 1010
22 1840
23 124
23 932
23 1802
24 54
24 940
24 1855
25 39
25 984
25 1862
26 21
26 983
26 1896
27 43
27 997
27 1874
28 94
28 899
28 1850
29 85
29 989
29 1851
30 11
30 936
30 1869
31 121
31 982
31 1829
32 13
32 963
32 1866
33 37
33 919
33 1881
34 44
34 1009
34 1877
35 69
35 1005
35 1857
36 19
36 911
36 1841
37 30
37 941
37 1887
38 127
38 918
38 1876
39 112
39 1021
39 1913
40 93
40 930
40 1828
41 73
41 962
41 1793
42 66
42 1020
42 1799
43 15
43 928
43 1912
44 4
44 995
44 1842
45 126
45 904
45 1915
46 52
46 978
46 1904
47 78
47 917
47 1795
48 109
48 910
48 1884
49 106
49 985
49 1883
50 12
50 986
50 1906
51 82
51 948
51 1844
52 88
52 967
52 1895
53 123
53 1017
53 1792
54 60
54 979
54 1817
55 91
55 907
55 1796
56 99
56 974
56 1824
57 75
57 993
57 1816
58 71
58 909
58 1863
59 26
59 966
59 1899
60 111
60 1011
60 1832
61 115
61 916
61 1808
62 86
62 901
62 1889
63 108
63 954
63 1868
64 17
64 990
64 1854
65 34
65 912
65 1794
66 8
66 1016
66 1834
67 114
67 959
67 1801
68 3
68 964
68 1803
69 28
69 972
69 1911
70 1
70 968
70 1847
71 50
71 1022
71 1905
72 6
72 926
72 1882
73 48
73 914
73 1820
74 95
74 1015
74 1901
75 102
75 969
75 1910
76 65
76 987
76 1827
77 29
77 906
77 1798
78 103
78 970
78 1811
79 100
79 976
79 1823
80 87
80 991
80 1833
81 33
81 958
81 1892
82 101
82 927
82 1809
83 59
83 902
83 1859
84 16
84 996
84 1819
85 23
85 956
85 1835
86 105
86 903
86 1797
87 45
87 999
87 1886
88 46
88 921
88 1865
89 89
89 1003
89 1907
90 58
90 900
90 1916
91 104
91 1018
91 1917
92 2
92 929
92 1830
93 74
93 944
93 1852
94 10
94 1023
94 1807
95 61
95 1008
95 1871
96 81
96 952
96 1800
97 36
97 981
97 1805
98 25
98 953
98 1891
99 64
99 1001
99 1880
100 5
100 957
100 1826
101 84
101 971
101 1838
102 122
102 973
102 1902
103 79
103 955
103 1806
104 24
104 935
104 1903
105 22
105 913
105 1873
106 118
106 898
106 1818
107 72
107 920
107 1898
108 9
108 945
108 1867
109 47
109 897
109 1909
110 38
110 988
110 1822
111 125
111 939
111 1870
112 32
112 905
112 1839
113 98
113 923
113 1885
114 80
114 977
114 1908
115 97
115 942
115 1814
116 42
116 975
116 1888
117 55
117 992
117 1914
118 27
118 934
118 1861
119 62
119 950
119 1846
120 110
120 922
120 1812
121 31
121 1013
121 1821
122 41
122 1007
122 1836
123 92
123 1019
123 1825
124 96
124 998
124 1837
125 67
125 1000
125 1919
126 35
126 1004
126 1858
127 51
127 943
127 1890
128 184
128 1116
128 2004
129 219
129 1136
129 2027
130 169
130 1034
130 2036
131 216
131 1117
131 1960
132 129
132 1041
132 1982
133 221
133 1068
133 2014
134 196
134 1025
134 1967
135 154
135 1114
135 1939
136 130
136 1059
136 1937
137 207
137 1064
137 1942
138 171
138 1047
138 1926
139 135
139 1127
139 2005
140 178
140 1149
140 1949
141 157
141 1028
141 1932
142 201
142 1055
142 1920
143 197
143 1076
143 1933
144 138
144 1107
144 2016
145 182
145 1099
145 1944
146 250
146 1080
146 2029
147 161
147 1130
147 1935
148 237
148 1113
148 2020
149 134
149 1058
149 1923
150 170
150 1147
150 2025
151 131
151 1048
151 2024
152 213
152 1026
152 1957
153 142
153 1088
153 1962
154 150
154 1141
154 2028
155 176
155 1042
155 2035
156 243
156 1102
156 2003
157 241
157 1065
157 1958
158 174
158 1052
158 1992
159 239
159 1061
159 1968
160 185
160 1148
160 2017
161 209
161 1077
161 1974
162 218
162 1128
162 1970
163 180
163 1030
163 2019
164 226
164 1049
164 2006
165 199
165 1056
165 2042
166 233
166 1070
166 2009
167 215
167 1094
167 1996
168 153
168 1074
168 1997
169 158
169 1053
169 2021
170 225
170 1137
170 2047
171 155
171 1051
171 2045
172 242
172 1032
172 2023
173 210
173 1125
173 1985
174 186
174 1082
174 1964
175 149
175 1112
175 2022
176 141
176 1095
176 1980
177 172
177 1110
177 1983
178 146
178 1120
178 1936
179 252
179 1119
179 1921
180 238
180 1101
180 2040
181 133
181 1093
181 1973
182 189
182 1108
182 2008
183 228
183 1103
183 1927
184 217
184 1066
184 1952
185 198
185 1121
185 1979
186 168
186 1139
186 1953
187 140
187 1035
187 2041
188 254
188 1078
188 1945
189 144
189 1054
189 1965
190 190
190 1039
190 1977
191 159
191 1131
191 1991
192 187
192 1031
192 1961
193 188
193 1037
193 1951
194 173
194 1132
194 1994
195 167
195 1142
195 2012
196 183
196 1079
196 2010
197 160
197 1029
197 1986
198 148
198 1081
198 2039
199 204
199 1134
199 1995
200 191
200 1038
200 1976
201 248
201 1063
201 1969
202 181
202 1109
202 1998
203 220
203 1075
203 2043
204 247
204 1151
204 2032
205 192
205 1111
205 1971
206 200
206 1115
206 1930
207 214
207 1133
207 1956
208 179
208 1129
208 1947
209 222
209 1150
209 1924
210 234
210 1045
210 2046
211 211
211 1092
211 1938
212 152
212 1062
212 1929
213 253
213 1024
213 2026
214 128
214 1091
214 2037
215 249
215 1122
215 2031
216 143
216 1072
216 1925
217 227
217 1027
217 1928
218 151
218 1040
218 1989
219 202
219 1073
219 1922
220 212
220 1138
220 2002
221 145
221 1096
221 1948
222 205
222 1098
222 2033
223 232
223 1144
223 2038
224 137
224 1140
224 1993
225 244
225 1087
225 1946
226 139
226 1057
226 1981
227 175
227 1123
227 1988
228 246
228 1071
228 1959
229 193
229 1036
229 2011
230 235
230 1033
230 1934
231 203
231 1118
231 2034
232 230
232 1043
232 1966
233 240
233 1046
233 2001
234 255
234 1146
234 1940
235 236
235 1135
235 1972
236 136
236 1084
236 2015
237 229
237 1086
237 1954
238 165
238 1100
238 1931
239 147
239 1124
239 1984
240 166
240 1085
240 1950
241 231
241 1097
241 1975
242 194
242 1126
242 1999
243 156
243 1089
243 1941
244 224
244 1069
244 2044
245 251
245 1050
245 2007
246 195
246 1060
246 1943
247 177
247 1106
247 2013
248 164
248 1090
248 1963
249 206
249 1104
249 1990
250 245
250 1105
250 2018
251 132
251 1067
251 1955
252 163
252 1145
252 1978
253 162
253 1044
253 2030
254 223
254 1143
254 1987
255 208
255 1083
255 2000
256 359
256 1250
256 2133
257 272
257 1223
257 2063
258 315
258 1262
258 2101
259 271
259 1247
259 2049
260 266
260 1249
260 2059
261 299
261 1237
261 2105
262 295
262 1220
262 2056
263 360
263 1212
263 2085
264 378
264 1270
264 2140
265 297
265 1182
265 2048
266 316
266 1213
266 2154
267 332
267 1201
267 2083
268 291
268 1268
268 2053
269 283
269 1193
269 2079
270 345
270 1244
270 2099
271 278
271 1203
271 2072
272 336
272 1224
272 2131
273 325
273 1191
273 2159
274 373
274 1188
274 2117
275 265
275 1189
275 2070
276 323
276 1256
276 2134
277 293
277 1162
277 2075
278 331
278 1218
278 2091
279 353
279 1251
279 2116
280 381
280 1152
280 2130
281 279
281 1235
281 2077
282 346
282 1178
282 2086
283 382
283 1278
283 2090
284 319
284 1197
284 2066
285 277
285 1260
285 2161
286 342
286 1168
286 2123
287 357
287 1183
287 2175
288 372
288 1172
288 2163
289 334
289 1255
289 2167
290 290
290 1153
290 2073
291 349
291 1180
291 2062
292 273
292 1230
292 2136
293 338
293 1221
293 2122
294 303
294 1273
294 2162
295 348
295 1169
295 2115
296 284
296 1176
296 2055
297 310
297 1170
297 2109
298 306
298 1216
298 2120
299 344
299 1236
299 2172
300 320
300 1209
300 2084
301 313
301 1159
301 2096
302 285
302 1199
302 2081
303 341
303 1232
303 2166
304 289
304 1233
304 2068
305 307
305 1206
305 2054
306 282
306 1173
306 2080
307 351
307 1192
307 2141
308 261
308 1202
308 2088
309 270
309 1225
309 2128
310 258
310 1265
310 2107
311 362
311 1279
311 2160
312 366
312 1194
312 2093
313 340
313 1217
313 2169
314 324
314 1207
314 2114
315 309
315 1222
315 2157
316 364
316 1214
316 2168
317 321
317 1258
317 2174
318 355
318 1156
318 2067
319 302
319 1238
319 2050
320 330
320 1274
320 2156
321 304
321 1254
321 2118
322 259
322 1266
322 2142
323 367
323 1259
323 2155
324 370
324 1164
324 2113
325 311
325 1226
325 2076
326 257
326 1161
326 2071
327 267
327 1275
327 2089
328 376
328 1276
328 2158
329 262
329 1158
329 2126
330 264
330 1163
330 2111
331 300
331 1186
331 2146
332 339
332 1261
332 2124
333 327
333 1198
333 2087
334 328
334 1167
334 2148
335 377
335 1267
335 2112
336 274
336 1184
336 2078
337 287
337 1257
337 2095
338 292
338 1277
338 2149
339 354
339 1228
339 2165
340 337
340 1241
340 2119
341 329
341 1196
341 2104
342 301
342 1210
342 2137
343 374
343 1211
343 2094
344 263
344 1215
344 2057
345 305
345 1245
345 2060
346 281
346 1154
346 2151
347 352
347 1195
347 2098
348 312
348 1155
348 2147
349 276
349 1219
349 2152
350 375
350 1190
350 2164
351 347
351 1187
351 2074
352 286
352 1200
352 2052
353 296
353 1242
353 2153
354 365
354 1160
354 2061
355 356
355 1229
355 2102
356 288
356 1165
356 2138
357 317
357 1231
357 2103
358 308
358 1240
358 2097
359 260
359 1272
359 2143
360 371
360 1185
360 2170
361 368
361 1179
361 2064
362 361
362 1234
362 2173
363 379
363 1177
363 2121
364 350
364 1269
364 2171
365 318
365 1208
365 2125
366 298
366 1227
366 2106
367 335
367 1205
367 2139
368 314
368 1246
368 2110
369 333
369 1204
369 2051
370 358
370 1243
370 2058
371 326
371 1264
371 2150
372 369
372 1253
372 2069
373 268
373 1271
373 2144
374 383
374 1171
374 2092
375 256
375 1239
375 2108
376 363
376 1174
376 2127
377 380
377 1181
377 2129
378 275
378 1157
378 2145
379 322
379 1166
379 2132
380 294
380 1175
380 2065
381 269
381 1263
381 2100
382 343
382 1248
382 2135
383 280
383 1252
383 2082
384 425
384 1374
384 2267
385 391
385 1368
385 2206
386 418
386 1371
386 2189
387 486
387 1332
387 2225
388 409
388 1354
388 2274
389 388
389 1330
389 2278
390 428
390 1306
390 2273
391 504
391 1286
391 2296
392 463
392 1405
392 2185
393 442
393 1334
393 2244
394 444
394 1361
394 2250
395 480
395 1400
395 2242
396 494
396 1402
396 2277
397 459
397 1395
397 2240
398 414
398 1370
398 2195
399 445
399 1362
399 2280
400 436
400 1385
400 2216
401 469
401 1388
401 2200
402 424
402 1281
402 2287
403 439
403 1344
403 2253
404 477
404 1337
404 2199
405 434
405 1335
405 2265
406 481
406 1347
406 2222
407 447
407 1404
407 2201
408 441
408 1381
408 2289
409 484
409 1390
409 2208
410 483
410 1285
410 2295
411 487
411 1310
411 2284
412 496
412 1389
412 2180
413 413
413 1393
413 2281
414 465
414 1352
414 2228
415 422
415 1360
415 2268
416 429
416 1350
416 2302
417 511
417 1315
417 2258
418 402
418 1290
418 2223
419 420
419 1403
419 2232
420 423
420 1287
420 2266
421 430
421 1313
421 2251
422 407
422 1338
422 2191
423 506
423 1383
423 2298
424 431
424 1364
424 2229
425 389
425 1326
425 2231
426 499
426 1358
426 2259
427 508
427 1302
427 2292
428 467
428 1348
428 2221
429 470
429 1406
429 2271
430 433
430 1301
430 2257
431 464
431 1356
431 2204
432 460
432 1399
432 2276
433 457
433 1339
433 2194
434 453
434 1300
434 2207
435 449
435 1396
435 2263
436 435
436 1372
436 2237
437 384
437 1336
437 2252
438 415
438 1324
438 2226
439 432
439 1357
439 2202
440 502
440 1378
440 2288
441 473
441 1311
441 2188
442 472
442 1288
442 2293
443 478
443 1317
443 2224
444 392
444 1314
444 2205
445 492
445 1398
445 2190
446 501
446 1382
446 2299
447 510
447 1369
447 2214
448 507
448 1363
448 2241
449 475
449 1304
449 2236
450 393
450 1320
450 2272
451 437
451 1325
451 2215
452 493
452 1407
452 2219
453 411
453 1307
453 2285
454 476
454 1349
454 2269
455 395
455 1318
455 2211
456 446
456 1284
456 2270
457 451
457 1327
457 2249
458 399
458 1345
458 2177
459 503
459 1291
459 2290
460 394
460 1391
460 2176
461 401
461 1295
461 2279
462 417
462 1384
462 2178
463 421
463 1377
463 2218
464 479
464 1353
464 2264
465 458
465 1340
465 2183
466 456
466 1299
466 2301
467 426
467 1309
467 2260
468 440
468 1294
468 2239
469 405
469 1346
469 2254
470 419
470 1351
470 2179
471 408
471 1303
471 2209
472 482
472 1283
472 2303
473 497
473 1322
473 2275
474 416
474 1355
474 2262
475 400
475 1375
475 2245
476 474
476 1329
476 2248
477 509
477 1308
477 2196
478 443
478 1298
478 2217
479 495
479 1401
479 2282
480 505
480 1280
480 2283
481 468
481 1394
481 2184
482 500
482 1367
482 2255
483 461
483 1380
483 2243
484 387
484 1333
484 2238
485 404
485 1292
485 2186
486 448
486 1289
486 2212
487 488
487 1373
487 2247
488 390
488 1282
488 2246
489 386
489 1319
489 2192
490 498
490 1343
490 2300
491 438
491 1342
491 2234
492 398
492 1365
492 2197
493 427
493 1316
493 2203
494 455
494 1341
494 2181
495 406
495 1296
495 2193
496 403
496 1359
496 2198
497 450
497 1387
497 2286
498 462
498 1376
498 2210
499 489
499 1312
499 2220
500 452
500 1331
500 2187
501 485
501 1323
501 2297
502 490
502 1321
502 2261
503 412
503 1386
503 2256
504 385
504 1297
504 2182
505 471
505 1379
505 2213
506 466
506 1392
506 2233
507 410
507 1397
507 2291
508 491
508 1293
508 2294
509 397
509 1328
509 2230
510 454
510 1305
510 2227
511 396
511 1366
511 2235
512 565
512 1451
512 2369
513 575
513 1439
513 2414
514 611
514 1493
514 2379
515 577
515 1496
515 2329
516 582
516 1430
516 2406
517 530
517 1480
517 2319
518 617
518 1520
518 2410
519 552
519 1530
519 2331
520 600
520 1476
520 2392
521 512
521 1423
521 2375
522 573
522 1528
522 2337
523 596
523 1523
523 2427
524 633
524 1471
524 2429
525 525
525 1482
525 2389
526 559
526 1416
526 2386
527 591
527 1422
527 2387
528 536
528 1470
528 2315
529 593
529 1433
529 2419
530 563
530 1413
530 2324
531 516
531 1475
531 2417
532 569
532 1529
532 2411
533 624
533 1535
533 2310
534 514
534 1498
534 2430
535 547
535 1514
535 2368
536 578
536 1464
536 2347
537 627
537 1508
537 2394
538 602
538 1445
538 2422
539 603
539 1444
539 2367
540 597
540 1481
540 2332
541 543
541 1456
541 2358
542 631
542 1441
542 2357
543 579
543 1465
543 2309
544 553
544 1486
544 2431
545 535
545 1487
545 2334
546 632
546 1419
546 2321
547 588
547 1516
547 2344
548 571
548 1417
548 2385
549 557
549 1442
549 2396
550 606
550 1424
550 2407
551 598
551 1467
551 2404
552 549
552 1489
552 2359
553 562
553 1426
553 2313
554 630
554 1452
554 2423
555 568
555 1443
555 2340
556 625
556 1436
556 2350
557 539
557 1460
557 2420
558 523
558 1450
558 2418
559 622
559 1457
559 2421
560 610
560 1511
560 2343
561 527
561 1510
561 2304
562 544
562 1458
562 2352
563 532
563 1524
563 2346
564 601
564 1447
564 2395
565 548
565 1533
565 2326
566 520
566 1412
566 2353
567 533
567 1513
567 2333
568 518
568 1507
568 2371
569 639
569 1431
569 2400
570 528
570 1414
570 2361
571 614
571 1469
571 2355
572 587
572 1519
572 2364
573 550
573 1517
573 2325
574 531
574 1463
574 2384
575 522
575 1521
575 2327
576 558
576 1483
576 2312
577 583
577 1531
577 2356
578 540
578 1484
578 2413
579 621
579 1461
579 2401
580 570
580 1512
580 2382
581 556
581 1434
581 2383
582 554
582 1491
582 2348
583 586
583 1488
583 2426
584 585
584 1478
584 2393
585 566
585 1425
585 2305
586 546
586 1522
586 2425
587 529
587 1453
587 2403
588 634
588 1411
588 2323
589 584
589 1503
589 2317
590 620
590 1499
590 2378
591 524
591 1410
591 2412
592 636
592 1459
592 2328
593 542
593 1448
593 2316
594 599
594 1432
594 2351
595 574
595 1490
595 2318
596 526
596 1502
596 2365
597 560
597 1446
597 2374
598 592
598 1466
598 2381
599 537
599 1518
599 2397
600 541
600 1515
600 2362
601 572
601 1415
601 2341
602 551
602 1526
602 2373
603 576
603 1440
603 2415
604 623
604 1527
604 2360
605 564
605 1534
605 2306
606 595
606 1468
606 2307
607 604
607 1428
607 2409
608 538
608 1408
608 2349
609 607
609 1501
609 2363
610 618
610 1506
610 2405
611 517
611 1532
611 2342
612 594
612 1477
612 2380
613 513
613 1455
613 2366
614 615
614 1509
614 2322
615 638
615 1438
615 2311
616 519
616 1497
616 2424
617 534
617 1494
617 2416
618 628
618 1449
618 2335
619 581
619 1472
619 2308
620 590
620 1479
620 2408
621 589
621 1474
621 2336
622 616
622 1525
622 2391
623 515
623 1429
623 2399
624 521
624 1409
624 2338
625 567
625 1485
625 2390
626 637
626 1420
626 2388
627 609
627 1421
627 2314
628 635
628 1504
628 2339
629 629
629 1454
629 2398
630 612
630 1500
630 2320
631 561
631 1435
631 2330
632 613
632 1462
632 2402
633 619
633 1505
633 2376
634 555
634 1418
634 2345
635 626
635 1473
635 2377
636 545
636 1495
636 2370
637 580
637 1492
637 2354
638 605
638 1437
638 2372
639 608
639 1427
639 2428
640 653
640 1543
640 2495
641 642
641 1655
641 2470
642 734
642 1617
642 2455
643 741
643 1646
643 2434
644 711
644 1611
644 2479
645 693
645 1563
645 2532
646 765
646 1562
646 2444
647 726
647 1604
647 2544
648 723
648 1615
648 2449
649 739
649 1588
649 2451
650 660
650 1634
650 2505
651 686
651 1645
651 2496
652 708
652 1643
652 2550
653 707
653 1545
653 2508
654 703
654 1568
654 2482
655 742
655 1601
655 2492
656 677
656 1559
656 2509
657 716
657 1603
657 2438
658 644
658 1540
658 2515
659 662
659 1648
659 2436
660 661
660 1560
660 2460
661 698
661 1657
661 2493
662 672
662 1573
662 2487
663 667
663 1605
663 2554
664 762
664 1614
664 2475
665 690
665 1639
665 2531
666 722
666 1553
666 2501
667 710
667 1549
667 2458
668 701
668 1572
668 2543
669 678
669 1649
669 2435
670 761
670 1583
670 2468
671 657
671 1641
671 2559
672 700
672 1566
672 2545
673 760
673 1647
673 2440
674 764
674 1578
674 2441
675 704
675 1580
675 2538
676 735
676 1633
676 2445
677 749
677 1642
677 2518
678 738
678 1653
678 2484
679 669
679 1652
679 2510
680 656
680 1589
680 2558
681 692
681 1640
681 2556
682 756
682 1662
682 2516
683 651
683 1625
683 2439
684 715
684 1574
684 2506
685 697
685 1619
685 2528
686 705
686 1565
686 2450
687 737
687 1637
687 2491
688 676
688 1660
688 2485
689 717
689 1576
689 2457
690 729
690 1618
690 2498
691 767
691 1608
691 2489
692 727
692 1599
692 2521
693 732
693 1624
693 2497
694 683
694 1621
694 2452
695 680
695 1538
695 2514
696 753
696 1638
696 2446
697 695
697 1656
697 2522
698 640
698 1579
698 2494
699 721
699 1593
699 2548
700 681
700 1585
700 2542
701 747
701 1632
701 2546
702 766
702 1623
702 2472
703 689
703 1552
703 2524
704 724
704 1606
704 2433
705 714
705 1595
705 2534
706 646
706 1636
706 2551
707 763
707 1555
707 2464
708 650
708 1613
708 2474
709 757
709 1546
709 2471
710 755
710 1586
710 2513
711 736
711 1537
711 2463
712 671
712 1575
712 2476
713 659
713 1554
713 2459
714 728
714 1548
714 2454
715 679
715 1569
715 2511
716 719
716 1577
716 2453
717 665
717 1659
717 2500
718 712
718 1627
718 2507
719 718
719 1661
719 2503
720 641
720 1594
720 2466
721 658
721 1607
721 2539
722 648
722 1561
722 2519
723 731
723 1556
723 2448
724 696
724 1557
724 2469
725 694
725 1658
725 2443
726 685
726 1600
726 2502
727 655
727 1630
727 2478
728 709
728 1590
728 2553
729 751
729 1544
729 2481
730 754
730 1663
730 2520
731 674
731 1596
731 2486
732 664
732 1628
732 2447
733 740
733 1550
733 2549
734 668
734 1635
734 2461
735 759
735 1598
735 2437
736 673
736 1610
736 2541
737 645
737 1654
737 2483
738 652
738 1651
738 2555
739 730
739 1567
739 2467
740 647
740 1609
740 2432
741 745
741 1542
741 2480
742 758
742 1591
742 2525
743 649
743 1581
743 2523
744 748
744 1536
744 2557
745 687
745 1622
745 2526
746 684
746 1539
746 2456
747 744
747 1564
747 2537
748 682
748 1582
748 2477
749 643
749 1541
749 2442
750 725
750 1626
750 2462
751 688
751 1592
751 2552
752 733
752 1587
752 2547
753 691
753 1629
753 2529
754 670
754 1584
754 2499
755 752
755 1620
755 2530
756 750
756 1644
756 2488
757 654
757 1597
757 2527
758 720
758 1650
758 2540
759 675
759 1570
759 2490
760 746
760 1612
760 2517
761 706
761 1547
761 2504
762 699
762 1551
762 2536
763 702
763 1571
763 2512
764 663
764 1631
764 2535
765 666
765 1616
765 2465
766 743
766 1558
766 2473
767 713
767 1602
767 2533
768 822
768 1763
768 2607
769 860
769 1673
769 2663
770 808
770 1676
770 2670
771 804
771 1740
771 2625
772 837
772 1771
772 2685
773 810
773 1664
773 2596
774 850
774 1784
774 2634
775 813
775 1696
775 2635
776 892
776 1695
776 2604
777 818
777 1742
777 2661
778 805
778 1739
778 2618
779 800
779 1732
779 2642
780 794
780 1741
780 2567
781 782
781 1734
781 2639
782 861
782 1727
782 2592
783 776
783 1762
783 2565
784 883
784 1738
784 2653
785 801
785 1720
785 2588
786 768
786 1680
786 2589
787 771
787 1701
787 2605
788 859
788 1733
788 2652
789 774
789 1761
789 2606
790 863
790 1684
790 2640
791 864
791 1773
791 2657
792 785
792 1768
792 2608
793 779
793 1672
793 2598
794 840
794 1729
794 2610
795 867
795 1767
795 2651
796 792
796 1691
796 2621
797 823
797 1755
797 2613
798 886
798 1753
798 2614
799 884
799 1710
799 2615
800 875
800 1677
800 2648
801 830
801 1751
801 2631
802 870
802 1743
802 2627
803 877
803 1766
803 2593
804 844
804 1717
804 2616
805 827
805 1726
805 2577
806 894
806 1683
806 2682
807 784
807 1772
807 2601
808 882
808 1669
808 2674
809 848
809 1709
809 2562
810 862
810 1697
810 2629
811 816
811 1779
811 2587
812 873
812 1789
812 2569
813 895
813 1685
813 2564
814 839
814 1707
814 2560
815 773
815 1692
815 2667
816 825
816 1749
816 2662
817 795
817 1735
817 2620
818 866
818 1723
818 2643
819 845
819 1786
819 2628
820 838
820 1769
820 2599
821 849
821 1754
821 2676
822 834
822 1713
822 2603
823 799
823 1700
823 2582
824 868
824 1687
824 2591
825 769
825 1682
825 2687
826 821
826 1783
826 2573
827 885
827 1764
827 2572
828 788
828 1688
828 2654
829 780
829 1716
829 2646
830 843
830 1752
830 2683
831 836
831 1728
831 2672
832 829
832 1665
832 2622
833 807
833 1778
833 2645
834 842
834 1757
834 2586
835 793
835 1702
835 2597
836 851
836 1705
836 2660
837 841
837 1690
837 2681
838 777
838 1715
838 2563
839 874
839 1746
839 2669
840 781
840 1759
840 2673
841 876
841 1693
841 2619
842 858
842 1724
842 2624
843 775
843 1745
843 2585
844 797
844 1671
844 2671
845 826
845 1777
845 2665
846 855
846 1756
846 2571
847 820
847 1668
847 2579
848 887
848 1704
848 2600
849 871
849 1694
849 2658
850 803
850 1722
850 2647
851 869
851 1666
851 2655
852 832
852 1711
852 2578
853 815
853 1774
853 2650
854 835
854 1775
854 2675
855 812
855 1712
855 2686
856 879
856 1780
856 2684
857 772
857 1718
857 2626
858 814
858 1765
858 2612
859 824
859 1719
859 2679
860 811
860 1781
860 2595
861 796
861 1790
861 2566
862 831
862 1747
862 2638
863 872
863 1667
863 2678
864 806
864 1675
864 2561
865 786
865 1686
865 2630
866 790
866 1730
866 2574
867 889
867 1681
867 2580
868 856
868 1708
868 2570
869 857
869 1679
869 2575
870 783
870 1788
870 2609
871 881
871 1703
871 2677
872 891
872 1770
872 2611
873 893
873 1725
873 2666
874 852
874 1706
874 2623
875 770
875 1748
875 2632
876 828
876 1674
876 2594
877 798
877 1714
877 2659
878 880
878 1737
878 2590
879 819
879 1731
879 2637
880 853
880 1670
880 2649
881 787
881 1699
881 2656
882 854
882 1785
882 2641
883 778
883 1787
883 2568
884 802
884 1776
884 2576
885 878
885 1744
885 2680
886 890
886 1698
886 2636
887 809
887 1791
887 2602
888 791
888 1760
888 2583
889 865
889 1758
889 2644
890 847
890 1678
890 2617
891 888
891 1689
891 2668
892 817
892 1721
892 2664
893 789
893 1750
893 2584
894 833
894 1782
894 2581
895 846
895 1736
895 2633
896 48
896 1783
896 2512
897 125
897 1709
897 2553
898 10
898 1673
898 2535
899 8
899 1735
899 2462
900 95
900 1702
900 2511
901 30
901 1686
901 2494
902 93
902 1688
902 2533
903 92
903 1781
903 2461
904 52
904 1669
904 2557
905 109
905 1717
905 2514
906 77
906 1740
906 2458
907 96
907 1789
907 2455
908 118
908 1747
908 2544
909 122
909 1756
909 2508
910 114
910 1729
910 2472
911 66
911 1668
911 2507
912 54
912 1720
912 2439
913 111
913 1738
913 2483
914 40
914 1760
914 2505
915 32
915 1699
915 2555
916 1
916 1769
916 2550
917 124
917 1743
917 2481
918 14
918 1767
918 2469
919 39
919 1712
919 2517
920 31
920 1684
920 2446
921 73
921 1694
921 2549
922 50
922 1681
922 2437
923 121
923 1692
923 2515
924 21
924 1722
924 2457
925 33
925 1748
925 2482
926 47
926 1697
926 2538
927 86
927 1675
927 2523
928 42
928 1715
928 2495
929 5
929 1734
929 2451
930 110
930 1671
930 2456
931 19
931 1667
931 2499
932 44
932 1691
932 2434
933 18
933 1685
933 2526
934 35
934 1730
934 2436
935 89
935 1737
935 2528
936 25
936 1777
936 2470
937 116
937 1700
937 2432
938 12
938 1682
938 2542
939 126
939 1788
939 2504
940 57
940 1754
940 2548
941 91
941 1779
941 2500
942 90
942 1723
942 2536
943 108
943 1724
943 2449
944 123
944 1736
944 2529
945 106
945 1750
945 2547
946 119
946 1687
946 2516
947 11
947 1679
947 2497
948 71
948 1764
948 2463
949 103
949 1749
949 2452
950 78
950 1674
950 2506
951 79
951 1732
951 2534
952 84
952 1677
952 2510
953 100
953 1744
953 2489
954 74
954 1765
954 2442
955 36
955 1768
955 2466
956 113
956 1683
956 2454
957 76
957 1680
957 2491
958 6
958 1787
958 2527
959 72
959 1778
959 2525
960 69
960 1790
960 2479
961 83
961 1761
961 2467
962 27
962 1746
962 2531
963 45
963 1766
963 2496
964 22
964 1757
964 2524
965 115
965 1703
965 2441
966 15
966 1752
966 2521
967 41
967 1705
967 2447
968 20
968 1665
968 2530
969 26
969 1704
969 2540
970 65
970 1706
970 2518
971 85
971 1726
971 2558
972 37
972 1664
972 2509
973 49
973 1710
973 2450
974 3
974 1731
974 2465
975 102
975 1733
975 2498
976 63
976 1728
976 2545
977 107
977 1707
977 2522
978 43
978 1776
978 2444
979 99
979 1701
979 2502
980 56
980 1780
980 2485
981 59
981 1782
981 2559
982 104
982 1719
982 2490
983 55
983 1755
983 2493
984 62
984 1784
984 2543
985 29
985 1690
985 2460
986 0
986 1670
986 2473
987 7
987 1773
987 2520
988 17
988 1718
988 2453
989 105
989 1727
989 2551
990 51
990 1742
990 2448
991 46
991 1770
991 2480
992 2
992 1713
992 2501
993 53
993 1775
993 2503
994 87
994 1672
994 2435
995 120
995 1751
995 2440
996 34
996 1666
996 2554
997 68
997 1785
997 2445
998 94
998 1716
998 2433
999 67
999 1753
999 2532
1000 117
1000 1758
1000 2484
1001 58
1001 1725
1001 2541
1002 13
1002 1711
1002 2552
1003 28
1003 1745
1003 2539
1004 127
1004 1739
1004 2459
1005 101
1005 1786
1005 2537
1006 4
1006 1759
1006 2476
1007 75
1007 1695
1007 2546
1008 61
1008 1721
1008 2464
1009 81
1009 1763
1009 2486
1010 64
1010 1714
1010 2556
1011 24
1011 1741
1011 2438
1012 97
1012 1708
1012 2492
1013 70
1013 1693
1013 2513
1014 98
1014 1696
1014 2488
1015 38
1015 1772
1015 2475
1016 9
1016 1791
1016 2471
1017 80
1017 1771
1017 2468
1018 23
1018 1676
1018 2478
1019 88
1019 1698
1019 2443
1020 16
1020 1689
1020 2477
1021 82
1021 1762
1021 2474
1022 60
1022 1774
1022 2487
1023 112
1023 1678
1023 2519
1024 183
1024 930
1024 2645
1025 242
1025 949
1025 2649
1026 223
1026 1008
1026 2597
1027 198
1027 900
1027 2634
1028 234
1028 982
1028 2655
1029 204
1029 928
1029 2579
1030 233
1030 973
1030 2627
1031 141
1031 981
1031 2618
1032 163
1032 984
1032 2626
1033 209
1033 933
1033 2681
1034 148
1034 940
1034 2670
1035 235
1035 946
1035 2631
1036 210
1036 932
1036 2615
1037 217
1037 916
1037 2678
1038 174
1038 956
1038 2673
1039 248
1039 921
1039 2646
1040 175
1040 907
1040 2600
1041 191
1041 983
1041 2656
1042 142
1042 936
1042 2607
1043 150
1043 992
1043 2644
1044 140
1044 943
1044 2610
1045 167
1045 931
1045 2663
1046 145
1046 902
1046 2578
1047 211
1047 905
1047 2659
1048 129
1048 934
1048 2596
1049 133
1049 896
1049 2561
1050 157
1050 917
1050 2621
1051 228
1051 904
1051 2571
1052 241
1052 909
1052 2604
1053 213
1053 1005
1053 2588
1054 203
1054 980
1054 2665
1055 225
1055 944
1055 2568
1056 184
1056 906
1056 2581
1057 177
1057 1015
1057 2570
1058 171
1058 941
1058 2609
1059 240
1059 979
1059 2614
1060 244
1060 959
1060 2602
1061 188
1061 969
1061 2652
1062 206
1062 910
1062 2650
1063 136
1063 908
1063 2616
1064 254
1064 986
1064 2664
1065 227
1065 955
1065 2643
1066 202
1066 958
1066 2682
1067 143
1067 1013
1067 2589
1068 192
1068 957
1068 2611
1069 132
1069 990
1069 2677
1070 153
1070 939
1070 2684
1071 193
1071 1020
1071 2613
1072 162
1072 998
1072 2661
1073 255
1073 966
1073 2640
1074 164
1074 929
1074 2567
1075 253
1075 938
1075 2636
1076 186
1076 1002
1076 2601
1077 152
1077 968
1077 2660
1078 155
1078 1000
1078 2676
1079 185
1079 942
1079 2582
1080 216
1080 962
1080 2590
1081 221
1081 1011
1081 2657
1082 187
1082 925
1082 2586
1083 182
1083 978
1083 2675
1084 138
1084 945
1084 2685
1085 137
1085 1022
1085 2575
1086 161
1086 964
1086 2576
1087 151
1087 1014
1087 2672
1088 195
1088 995
1088 2583
1089 237
1089 899
1089 2674
1090 232
1090 913
1090 2591
1091 181
1091 1007
1091 2638
1092 251
1092 914
1092 2654
1093 144
1093 911
1093 2633
1094 246
1094 985
1094 2687
1095 215
1095 976
1095 2635
1096 196
1096 919
1096 2680
1097 199
1097 1019
1097 2560
1098 212
1098 950
1098 2598
1099 160
1099 1003
1099 2562
1100 219
1100 1023
1100 2662
1101 194
1101 926
1101 2603
1102 147
1102 974
1102 2563
1103 214
1103 1004
1103 2573
1104 190
1104 1010
1104 2605
1105 239
1105 922
1105 2580
1106 247
1106 912
1106 2632
1107 168
1107 918
1107 2667
1108 189
1108 1017
1108 2671
1109 169
1109 1009
1109 2608
1110 230
1110 954
1110 2574
1111 236
1111 897
1111 2651
1112 170
1112 924
1112 2595
1113 250
1113 898
1113 2617
1114 220
1114 1006
1114 2564
1115 146
1115 1021
1115 2628
1116 200
1116 948
1116 2669
1117 179
1117 1001
1117 2584
1118 226
1118 923
1118 2683
1119 176
1119 996
1119 2639
1120 134
1120 971
1120 2625
1121 158
1121 975
1121 2592
1122 159
1122 988
1122 2569
1123 128
1123 963
1123 2630
1124 180
1124 947
1124 2658
1125 231
1125 1018
1125 2668
1126 252
1126 994
1126 2599
1127 131
1127 952
1127 2624
1128 154
1128 1016
1128 2587
1129 218
1129 927
1129 2686
1130 172
1130 953
1130 2647
1131 205
1131 1012
1131 2593
1132 165
1132 903
1132 2623
1133 197
1133 935
1133 2679
1134 135
1134 951
1134 2637
1135 173
1135 915
1135 2612
1136 245
1136 989
1136 2666
1137 166
1137 991
1137 2606
1138 178
1138 960
1138 2653
1139 208
1139 967
1139 2641
1140 249
1140 970
1140 2629
1141 139
1141 987
1141 2577
1142 149
1142 965
1142 2620
1143 243
1143 937
1143 2648
1144 201
1144 997
1144 2619
1145 207
1145 999
1145 2566
1146 238
1146 901
1146 2622
1147 222
1147 972
1147 2585
1148 229
1148 920
1148 2594
1149 224
1149 961
1149 2572
1150 130
1150 993
1150 2642
1151 156
1151 977
1151 2565
1152 286
1152 1024
1152 1874
1153 348
1153 1061
1153 1868
1154 343
1154 1091
1154 1872
1155 297
1155 1035
1155 1856
1156 262
1156 1141
1156 1816
1157 345
1157 1133
1157 1842
1158 263
1158 1042
1158 1912
1159 316
1159 1086
1159 1893
1160 373
1160 1104
1160 1867
1161 329
1161 1107
1161 1810
1162 355
1162 1067
1162 1830
1163 327
1163 1077
1163 1895
1164 320
1164 1105
1164 1878
1165 351
1165 1028
1165 1825
1166 288
1166 1092
1166 1870
1167 311
1167 1043
1167 1891
1168 352
1168 1080
1168 1887
1169 365
1169 1100
1169 1861
1170 271
1170 1108
1170 1906
1171 258
1171 1065
1171 1886
1172 299
1172 1045
1172 1839
1173 306
1173 1143
1173 1824
1174 339
1174 1117
1174 1880
1175 285
1175 1031
1175 1798
1176 368
1176 1134
1176 1854
1177 265
1177 1103
1177 1897
1178 305
1178 1058
1178 1879
1179 308
1179 1052
1179 1808
1180 350
1180 1122
1180 1864
1181 283
1181 1121
1181 1917
1182 381
1182 1039
1182 1889
1183 356
1183 1115
1183 1866
1184 267
1184 1025
1184 1860
1185 341
1185 1051
1185 1890
1186 346
1186 1040
1186 1919
1187 338
1187 1050
1187 1908
1188 259
1188 1136
1188 1844
1189 337
1189 1057
1189 1865
1190 376
1190 1055
1190 1910
1191 328
1191 1053
1191 1807
1192 379
1192 1047
1192 1797
1193 276
1193 1150
1193 1859
1194 284
1194 1064
1194 1794
1195 280
1195 1099
1195 1840
1196 333
1196 1119
1196 1847
1197 330
1197 1071
1197 1913
1198 295
1198 1048
1198 1911
1199 354
1199 1098
1199 1800
1200 310
1200 1140
1200 1902
1201 290
1201 1096
1201 1802
1202 268
1202 1128
1202 1826
1203 264
1203 1123
1203 1819
1204 372
1204 1070
1204 1821
1205 281
1205 1120
1205 1885
1206 371
1206 1138
1206 1831
1207 334
1207 1127
1207 1848
1208 260
1208 1137
1208 1862
1209 325
1209 1106
1209 1822
1210 380
1210 1026
1210 1857
1211 359
1211 1142
1211 1863
1212 289
1212 1116
1212 1809
1213 364
1213 1074
1213 1875
1214 307
1214 1054
1214 1817
1215 313
1215 1110
1215 1900
1216 269
1216 1062
1216 1852
1217 303
1217 1093
1217 1823
1218 275
1218 1124
1218 1871
1219 375
1219 1089
1219 1843
1220 370
1220 1030
1220 1795
1221 340
1221 1068
1221 1805
1222 294
1222 1095
1222 1813
1223 335
1223 1147
1223 1898
1224 344
1224 1029
1224 1894
1225 277
1225 1146
1225 1836
1226 291
1226 1075
1226 1850
1227 322
1227 1118
1227 1796
1228 360
1228 1149
1228 1837
1229 319
1229 1027
1229 1838
1230 367
1230 1101
1230 1873
1231 270
1231 1037
1231 1815
1232 312
1232 1049
1232 1877
1233 342
1233 1083
1233 1851
1234 361
1234 1038
1234 1828
1235 296
1235 1129
1235 1876
1236 302
1236 1090
1236 1812
1237 369
1237 1059
1237 1909
1238 278
1238 1102
1238 1829
1239 366
1239 1032
1239 1884
1240 300
1240 1097
1240 1892
1241 323
1241 1132
1241 1883
1242 357
1242 1125
1242 1834
1243 347
1243 1113
1243 1858
1244 274
1244 1076
1244 1845
1245 332
1245 1044
1245 1814
1246 353
1246 1036
1246 1820
1247 261
1247 1112
1247 1869
1248 349
1248 1084
1248 1896
1249 321
1249 1033
1249 1888
1250 324
1250 1139
1250 1853
1251 266
1251 1072
1251 1905
1252 331
1252 1056
1252 1841
1253 326
1253 1144
1253 1806
1254 279
1254 1151
1254 1899
1255 336
1255 1087
1255 1803
1256 309
1256 1148
1256 1804
1257 358
1257 1114
1257 1818
1258 362
1258 1046
1258 1855
1259 383
1259 1088
1259 1849
1260 301
1260 1041
1260 1832
1261 382
1261 1079
1261 1882
1262 298
1262 1126
1262 1903
1263 304
1263 1131
1263 1915
1264 282
1264 1082
1264 1793
1265 318
1265 1130
1265 1811
1266 317
1266 1081
1266 1904
1267 377
1267 1145
1267 1881
1268 272
1268 1135
1268 1792
1269 257
1269 1066
1269 1918
1270 292
1270 1111
1270 1827
1271 363
1271 1034
1271 1846
1272 293
1272 1085
1272 1916
1273 315
1273 1094
1273 1833
1274 374
1274 1063
1274 1907
1275 287
1275 1078
1275 1914
1276 378
1276 1109
1276 1835
1277 273
1277 1073
1277 1801
1278 314
1278 1060
1278 1901
1279 256
1279 1069
1279 1799
1280 444
1280 1243
1280 1971
1281 396
1281 1220
1281 1952
1282 393
1282 1183
1282 2022
1283 453
1283 1160
1283 2042
1284 410
1284 1217
1284 1955
1285 416
1285 1163
1285 1979
1286 412
1286 1224
1286 2004
1287 492
1287 1248
1287 1966
1288 499
1288 1157
1288 1933
1289 437
1289 1257
1289 2000
1290 389
1290 1260
1290 2010
1291 451
1291 1186
1291 2027
1292 495
1292 1265
1292 1996
1293 468
1293 1211
1293 2025
1294 500
1294 1178
1294 1947
1295 394
1295 1253
1295 1924
1296 465
1296 1205
1296 2007
1297 478
1297 1204
1297 1920
1298 413
1298 1235
1298 2031
1299 420
1299 1225
1299 2016
1300 456
1300 1159
1300 1928
1301 429
1301 1255
1301 2047
1302 421
1302 1187
1302 1989
1303 391
1303 1247
1303 2005
1304 458
1304 1207
1304 1934
1305 418
1305 1208
1305 2032
1306 486
1306 1245
1306 1991
1307 470
1307 1177
1307 1941
1308 414
1308 1179
1308 1963
1309 463
1309 1172
1309 1930
1310 449
1310 1275
1310 1999
1311 428
1311 1261
1311 1946
1312 493
1312 1216
1312 2011
1313 403
1313 1240
1313 2040
1314 476
1314 1210
1314 2045
1315 510
1315 1271
1315 1997
1316 454
1316 1256
1316 1937
1317 417
1317 1241
1317 1922
1318 480
1318 1258
1318 2041
1319 408
1319 1250
1319 2019
1320 409
1320 1228
1320 1939
1321 507
1321 1262
1321 1925
1322 466
1322 1170
1322 1986
1323 504
1323 1226
1323 1960
1324 400
1324 1264
1324 1993
1325 443
1325 1154
1325 2044
1326 445
1326 1236
1326 2034
1327 498
1327 1242
1327 2001
1328 399
1328 1273
1328 1935
1329 509
1329 1180
1329 1995
1330 482
1330 1219
1330 1988
1331 501
1331 1155
1331 1974
1332 467
1332 1254
1332 1959
1333 462
1333 1213
1333 1953
1334 424
1334 1192
1334 1981
1335 434
1335 1238
1335 2037
1336 407
1336 1202
1336 2033
1337 397
1337 1194
1337 2038
1338 432
1338 1246
1338 2020
1339 384
1339 1190
1339 1982
1340 441
1340 1188
1340 2046
1341 442
1341 1158
1341 1951
1342 455
1342 1230
1342 1936
1343 423
1343 1195
1343 1972
1344 386
1344 1218
1344 1968
1345 494
1345 1272
1345 1956
1346 496
1346 1201
1346 2043
1347 497
1347 1152
1347 1942
1348 406
1348 1244
1348 1984
1349 452
1349 1169
1349 1921
1350 387
1350 1171
1350 1931
1351 431
1351 1229
1351 1944
1352 450
1352 1174
1352 2015
1353 422
1353 1259
1353 2035
1354 435
1354 1199
1354 1940
1355 433
1355 1276
1355 2013
1356 388
1356 1206
1356 1998
1357 398
1357 1221
1357 2036
1358 405
1358 1203
1358 1927
1359 506
1359 1212
1359 1923
1360 473
1360 1263
1360 1926
1361 430
1361 1153
1361 2018
1362 503
1362 1231
1362 2039
1363 425
1363 1189
1363 1961
1364 401
1364 1237
1364 2024
1365 488
1365 1274
1365 1978
1366 395
1366 1270
1366 2023
1367 440
1367 1162
1367 1957
1368 404
1368 1234
1368 1965
1369 438
1369 1166
1369 1994
1370 446
1370 1222
1370 2029
1371 469
1371 1277
1371 1948
1372 502
1372 1184
1372 1985
1373 460
1373 1168
1373 2006
1374 390
1374 1232
1374 1990
1375 447
1375 1239
1375 1983
1376 461
1376 1223
1376 1973
1377 484
1377 1198
1377 1958
1378 457
1378 1252
1378 1987
1379 385
1379 1185
1379 2017
1380 402
1380 1251
1380 2030
1381 427
1381 1209
1381 1932
1382 505
1382 1156
1382 1964
1383 415
1383 1233
1383 1949
1384 392
1384 1182
1384 2002
1385 511
1385 1267
1385 1929
1386 471
1386 1249
1386 2021
1387 474
1387 1161
1387 2008
1388 489
1388 1268
1388 1977
1389 491
1389 1200
1389 1975
1390 472
1390 1279
1390 2026
1391 487
1391 1197
1391 2003
1392 508
1392 1227
1392 1950
1393 481
1393 1173
1393 1962
1394 426
1394 1278
1394 1992
1395 464
1395 1164
1395 1967
1396 419
1396 1193
1396 1976
1397 439
1397 1269
1397 2028
1398 477
1398 1181
1398 2009
1399 490
1399 1175
1399 2014
1400 485
1400 1196
1400 1980
1401 436
1401 1191
1401 1954
1402 479
1402 1167
1402 2012
1403 483
1403 1215
1403 1945
1404 448
1404 1214
1404 1970
1405 459
1405 1176
1405 1938
1406 411
1406 1266
1406 1969
1407 475
1407 1165
1407 1943
1408 523
1408 1380
1408 2072
1409 538
1409 1287
1409 2175
1410 544
1410 1336
1410 2166
1411 630
1411 1327
1411 2156
1412 599
1412 1323
1412 2157
1413 604
1413 1391
1413 2098
1414 627
1414 1381
1414 2120
1415 549
1415 1317
1415 2159
1416 573
1416 1386
1416 2119
1417 592
1417 1403
1417 2100
1418 554
1418 1297
1418 2162
1419 579
1419 1402
1419 2103
1420 540
1420 1296
1420 2059
1421 577
1421 1306
1421 2066
1422 601
1422 1285
1422 2094
1423 615
1423 1383
1423 2095
1424 562
1424 1299
1424 2160
1425 514
1425 1312
1425 2161
1426 518
1426 1315
1426 2137
1427 561
1427 1404
1427 2061
1428 521
1428 1376
1428 2087
1429 556
1429 1359
1429 2101
1430 527
1430 1284
1430 2077
1431 560
1431 1349
1431 2143
1432 546
1432 1331
1432 2090
1433 638
1433 1393
1433 2153
1434 570
1434 1318
1434 2073
1435 515
1435 1365
1435 2141
1436 619
1436 1367
1436 2091
1437 590
1437 1330
1437 2158
1438 629
1438 1351
1438 2154
1439 535
1439 1387
1439 2165
1440 534
1440 1374
1440 2140
1441 609
1441 1326
1441 2079
1442 559
1442 1356
1442 2126
1443 536
1443 1395
1443 2150
1444 512
1444 1360
1444 2069
1445 635
1445 1314
1445 2057
1446 548
1446 1372
1446 2093
1447 541
1447 1382
1447 2078
1448 593
1448 1338
1448 2105
1449 513
1449 1337
1449 2155
1450 519
1450 1289
1450 2074
1451 597
1451 1354
1451 2068
1452 532
1452 1291
1452 2112
1453 531
1453 1366
1453 2053
1454 563
1454 1295
1454 2128
1455 575
1455 1362
1455 2051
1456 551
1456 1309
1456 2102
1457 633
1457 1400
1457 2129
1458 588
1458 1355
1458 2171
1459 586
1459 1389
1459 2063
1460 596
1460 1361
1460 2109
1461 623
1461 1304
1461 2058
1462 611
1462 1320
1462 2139
1463 616
1463 1378
1463 2064
1464 602
1464 1399
1464 2133
1465 569
1465 1328
1465 2114
1466 617
1466 1344
1466 2054
1467 529
1467 1345
1467 2134
1468 572
1468 1283
1468 2075
1469 603
1469 1332
1469 2086
1470 639
1470 1350
1470 2173
1471 557
1471 1369
1471 2147
1472 580
1472 1348
1472 2146
1473 547
1473 1353
1473 2135
1474 526
1474 1341
1474 2065
1475 614
1475 1280
1475 2097
1476 524
1476 1364
1476 2049
1477 539
1477 1286
1477 2048
1478 528
1478 1343
1478 2169
1479 598
1479 1388
1479 2168
1480 583
1480 1307
1480 2106
1481 634
1481 1340
1481 2092
1482 589
1482 1302
1482 2099
1483 600
1483 1384
1483 2118
1484 517
1484 1368
1484 2116
1485 571
1485 1401
1485 2151
1486 607
1486 1396
1486 2107
1487 591
1487 1342
1487 2115
1488 612
1488 1385
1488 2145
1489 566
1489 1292
1489 2085
1490 564
1490 1310
1490 2148
1491 576
1491 1321
1491 2062
1492 610
1492 1301
1492 2096
1493 584
1493 1363
1493 2164
1494 595
1494 1324
1494 2076
1495 520
1495 1298
1495 2056
1496 631
1496 1322
1496 2050
1497 552
1497 1282
1497 2163
1498 625
1498 1339
1498 2167
1499 636
1499 1398
1499 2084
1500 618
1500 1346
1500 2080
1501 550
1501 1407
1501 2052
1502 587
1502 1405
1502 2122
1503 582
1503 1325
1503 2110
1504 530
1504 1390
1504 2111
1505 516
1505 1373
1505 2117
1506 537
1506 1290
1506 2060
1507 565
1507 1397
1507 2088
1508 567
1508 1375
1508 2144
1509 626
1509 1392
1509 2083
1510 543
1510 1319
1510 2081
1511 568
1511 1281
1511 2113
1512 606
1512 1300
1512 2170
1513 624
1513 1333
1513 2071
1514 628
1514 1406
1514 2138
1515 581
1515 1308
1515 2089
1516 533
1516 1305
1516 2149
1517 632
1517 1394
1517 2142
1518 545
1518 1288
1518 2123
1519 574
1519 1294
1519 2124
1520 542
1520 1347
1520 2127
1521 605
1521 1358
1521 2132
1522 637
1522 1303
1522 2055
1523 620
1523 1357
1523 2130
1524 525
1524 1293
1524 2131
1525 613
1525 1311
1525 2125
1526 594
1526 1379
1526 2070
1527 608
1527 1335
1527 2174
1528 585
1528 1313
1528 2121
1529 622
1529 1352
1529 2152
1530 555
1530 1329
1530 2136
1531 621
1531 1334
1531 2172
1532 522
1532 1370
1532 2108
1533 558
1533 1377
1533 2082
1534 553
1534 1371
1534 2067
1535 578
1535 1316
1535 2104
1536 734
1536 1413
1536 2218
1537 741
1537 1466
1537 2245
1538 660
1538 1476
1538 2265
1539 723
1539 1494
1539 2188
1540 690
1540 1427
1540 2236
1541 730
1541 1531
1541 2246
1542 655
1542 1445
1542 2183
1543 699
1543 1449
1543 2247
1544 666
1544 1454
1544 2250
1545 748
1545 1511
1545 2178
1546 753
1546 1424
1546 2226
1547 705
1547 1496
1547 2232
1548 736
1548 1532
1548 2198
1549 726
1549 1419
1549 2270
1550 720
1550 1530
1550 2205
1551 693
1551 1463
1551 2278
1552 707
1552 1425
1552 2201
1553 759
1553 1485
1553 2269
1554 762
1554 1535
1554 2179
1555 694
1555 1415
1555 2244
1556 641
1556 1416
1556 2283
1557 684
1557 1528
1557 2210
1558 732
1558 1480
1558 2192
1559 688
1559 1491
1559 2197
1560 652
1560 1456
1560 2224
1561 677
1561 1410
1561 2187
1562 661
1562 1524
1562 2211
1563 691
1563 1437
1563 2294
1564 764
1564 1512
1564 2281
1565 757
1565 1452
1565 2195
1566 703
1566 1421
1566 2280
1567 692
1567 1489
1567 2291
1568 650
1568 1457
1568 2222
1569 676
1569 1448
1569 2288
1570 668
1570 1414
1570 2199
1571 642
1571 1453
1571 2239
1572 700
1572 1526
1572 2189
1573 698
1573 1473
1573 2303
1574 702
1574 1503
1574 2184
1575 654
1575 1409
1575 2248
1576 729
1576 1492
1576 2241
1577 758
1577 1429
1577 2191
1578 746
1578 1431
1578 2206
1579 669
1579 1514
1579 2259
1580 742
1580 1521
1580 2266
1581 648
1581 1500
1581 2212
1582 649
1582 1459
1582 2284
1583 695
1583 1519
1583 2276
1584 663
1584 1484
1584 2233
1585 743
1585 1412
1585 2203
1586 653
1586 1435
1586 2213
1587 643
1587 1432
1587 2186
1588 745
1588 1509
1588 2180
1589 704
1589 1465
1589 2220
1590 682
1590 1518
1590 2207
1591 712
1591 1443
1591 2277
1592 750
1592 1411
1592 2289
1593 752
1593 1516
1593 2256
1594 717
1594 1450
1594 2209
1595 667
1595 1488
1595 2300
1596 674
1596 1475
1596 2279
1597 697
1597 1423
1597 2214
1598 765
1598 1495
1598 2194
1599 719
1599 1434
1599 2216
1600 737
1600 1430
1600 2176
1601 672
1601 1458
1601 2299
1602 739
1602 1506
1602 2249
1603 687
1603 1455
1603 2260
1604 644
1604 1504
1604 2193
1605 659
1605 1493
1605 2217
1606 701
1606 1486
1606 2302
1607 680
1607 1446
1607 2290
1608 740
1608 1499
1608 2229
1609 685
1609 1529
1609 2293
1610 731
1610 1422
1610 2235
1611 721
1611 1507
1611 2237
1612 715
1612 1428
1612 2190
1613 651
1613 1467
1613 2230
1614 710
1614 1483
1614 2251
1615 733
1615 1502
1615 2240
1616 728
1616 1482
1616 2238
1617 681
1617 1469
1617 2215
1618 696
1618 1438
1618 2301
1619 727
1619 1447
1619 2243
1620 673
1620 1442
1620 2208
1621 683
1621 1478
1621 2267
1622 756
1622 1436
1622 2295
1623 711
1623 1462
1623 2263
1624 656
1624 1481
1624 2254
1625 767
1625 1515
1625 2273
1626 763
1626 1464
1626 2202
1627 735
1627 1441
1627 2231
1628 718
1628 1470
1628 2296
1629 708
1629 1498
1629 2177
1630 722
1630 1474
1630 2181
1631 725
1631 1472
1631 2298
1632 709
1632 1420
1632 2297
1633 714
1633 1501
1633 2234
1634 706
1634 1439
1634 2261
1635 662
1635 1440
1635 2253
1636 686
1636 1451
1636 2200
1637 646
1637 1471
1637 2272
1638 657
1638 1517
1638 2257
1639 689
1639 1533
1639 2292
1640 751
1640 1418
1640 2196
1641 640
1641 1433
1641 2221
1642 755
1642 1479
1642 2252
1643 738
1643 1525
1643 2268
1644 760
1644 1508
1644 2225
1645 678
1645 1527
1645 2287
1646 766
1646 1426
1646 2182
1647 665
1647 1534
1647 2271
1648 749
1648 1461
1648 2282
1649 645
1649 1522
1649 2274
1650 761
1650 1408
1650 2185
1651 647
1651 1444
1651 2275
1652 670
1652 1487
1652 2285
1653 664
1653 1510
1653 2204
1654 675
1654 1460
1654 2286
1655 658
1655 1505
1655 2228
1656 713
1656 1477
1656 2262
1657 671
1657 1417
1657 2223
1658 724
1658 1523
1658 2255
1659 716
1659 1497
1659 2219
1660 747
1660 1490
1660 2264
1661 679
1661 1468
1661 2227
1662 744
1662 1513
1662 2242
1663 754
1663 1520
1663 2258
1664 778
1664 1641
1664 2410
1665 770
1665 1615
1665 2391
1666 845
1666 1537
1666 2367
1667 862
1667 1579
1667 2337
1668 824
1668 1624
1668 2341
1669 866
1669 1580
1669 2349
1670 795
1670 1583
1670 2352
1671 853
1671 1644
1671 2334
1672 891
1672 1575
1672 2325
1673 850
1673 1563
1673 2389
1674 858
1674 1627
1674 2319
1675 807
1675 1609
1675 2414
1676 893
1676 1539
1676 2386
1677 864
1677 1622
1677 2315
1678 847
1678 1581
1678 2377
1679 831
1679 1614
1679 2366
1680 792
1680 1565
1680 2323
1681 841
1681 1605
1681 2405
1682 848
1682 1611
1682 2331
1683 894
1683 1623
1683 2338
1684 888
1684 1590
1684 2378
1685 834
1685 1573
1685 2316
1686 797
1686 1616
1686 2356
1687 811
1687 1599
1687 2317
1688 789
1688 1603
1688 2354
1689 775
1689 1637
1689 2343
1690 892
1690 1576
1690 2381
1691 781
1691 1621
1691 2371
1692 787
1692 1655
1692 2399
1693 819
1693 1658
1693 2429
1694 772
1694 1645
1694 2340
1695 869
1695 1546
1695 2311
1696 827
1696 1629
1696 2398
1697 822
1697 1649
1697 2425
1698 804
1698 1554
1698 2394
1699 774
1699 1600
1699 2426
1700 783
1700 1643
1700 2361
1701 821
1701 1648
1701 2376
1702 887
1702 1647
1702 2400
1703 875
1703 1557
1703 2339
1704 881
1704 1613
1704 2417
1705 786
1705 1660
1705 2419
1706 773
1706 1632
1706 2351
1707 884
1707 1536
1707 2406
1708 829
1708 1589
1708 2373
1709 839
1709 1578
1709 2360
1710 857
1710 1642
1710 2322
1711 895
1711 1559
1711 2305
1712 816
1712 1628
1712 2369
1713 859
1713 1560
1713 2418
1714 877
1714 1564
1714 2306
1715 838
1715 1574
1715 2335
1716 828
1716 1656
1716 2320
1717 876
1717 1631
1717 2348
1718 846
1718 1633
1718 2423
1719 785
1719 1625
1719 2363
1720 812
1720 1607
1720 2368
1721 802
1721 1572
1721 2396
1722 849
1722 1552
1722 2347
1723 889
1723 1549
1723 2422
1724 860
1724 1542
1724 2372
1725 810
1725 1566
1725 2370
1726 863
1726 1636
1726 2393
1727 815
1727 1587
1727 2310
1728 823
1728 1553
1728 2428
1729 870
1729 1593
1729 2346
1730 788
1730 1630
1730 2326
1731 801
1731 1651
1731 2404
1732 844
1732 1595
1732 2307
1733 878
1733 1591
1733 2388
1734 852
1734 1592
1734 2374
1735 880
1735 1562
1735 2392
1736 843
1736 1657
1736 2324
1737 840
1737 1619
1737 2416
1738 776
1738 1652
1738 2312
1739 861
1739 1584
1739 2397
1740 799
1740 1635
1740 2353
1741 865
1741 1659
1741 2364
1742 771
1742 1548
1742 2313
1743 873
1743 1582
1743 2359
1744 874
1744 1556
1744 2327
1745 779
1745 1646
1745 2383
1746 808
1746 1543
1746 2308
1747 777
1747 1586
1747 2357
1748 867
1748 1597
1748 2421
1749 879
1749 1604
1749 2355
1750 793
1750 1610
1750 2412
1751 782
1751 1585
1751 2401
1752 825
1752 1567
1752 2345
1753 790
1753 1570
1753 2408
1754 794
1754 1601
1754 2318
1755 885
1755 1640
1755 2332
1756 837
1756 1550
1756 2304
1757 871
1757 1551
1757 2430
1758 854
1758 1555
1758 2330
1759 826
1759 1653
1759 2390
1760 851
1760 1620
1760 2329
1761 809
1761 1568
1761 2350
1762 886
1762 1617
1762 2411
1763 805
1763 1571
1763 2362
1764 796
1764 1663
1764 2342
1765 798
1765 1596
1765 2336
1766 800
1766 1626
1766 2415
1767 882
1767 1638
1767 2431
1768 830
1768 1606
1768 2427
1769 817
1769 1558
1769 2309
1770 814
1770 1634
1770 2420
1771 856
1771 1661
1771 2379
1772 833
1772 1538
1772 2407
1773 868
1773 1654
1773 2328
1774 820
1774 1540
1774 2375
1775 842
1775 1650
1775 2321
1776 780
1776 1547
1776 2358
1777 883
1777 1639
1777 2365
1778 818
1778 1588
1778 2402
1779 784
1779 1569
1779 2344
1780 835
1780 1545
1780 2314
1781 813
1781 1598
1781 2403
1782 872
1782 1662
1782 2395
1783 855
1783 1561
1783 2385
1784 890
1784 1602
1784 2380
1785 836
1785 1577
1785 2382
1786 769
1786 1608
1786 2384
1787 832
1787 1618
1787 2424
1788 791
1788 1594
1788 2413
1789 803
1789 1541
1789 2333
1790 806
1790 1612
1790 2387
1791 768
1791 1544
1791 2409
1792 29
1792 1606
1792 2262
1793 1
1793 1633
1793 2232
1794 67
1794 1628
1794 2297
1795 62
1795 1652
1795 2252
1796 85
1796 1597
1796 2259
1797 61
1797 1635
1797 2179
1798 74
1798 1639
1798 2280
1799 37
1799 1560
1799 2221
1800 28
1800 1555
1800 2303
1801 31
1801 1593
1801 2241
1802 20
1802 1657
1802 2299
1803 16
1803 1648
1803 2233
1804 86
1804 1616
1804 2224
1805 15
1805 1629
1805 2182
1806 116
1806 1588
1806 2286
1807 70
1807 1630
1807 2227
1808 11
1808 1556
1808 2240
1809 23
1809 1603
1809 2186
1810 58
1810 1537
1810 2276
1811 98
1811 1663
1811 2285
1812 111
1812 1563
1812 2261
1813 43
1813 1642
1813 2198
1814 30
1814 1634
1814 2231
1815 0
1815 1662
1815 2216
1816 68
1816 1570
1816 2268
1817 54
1817 1609
1817 2201
1818 105
1818 1547
1818 2187
1819 55
1819 1540
1819 2246
1820 26
1820 1564
1820 2206
1821 127
1821 1622
1821 2197
1822 88
1822 1599
1822 2200
1823 53
1823 1567
1823 2180
1824 87
1824 1618
1824 2184
1825 33
1825 1654
1825 2196
1826 21
1826 1580
1826 2250
1827 71
1827 1653
1827 2183
1828 51
1828 1566
1828 2223
1829 122
1829 1604
1829 2281
1830 79
1830 1640
1830 2202
1831 102
1831 1646
1831 2264
1832 34
1832 1586
1832 2260
1833 112
1833 1658
1833 2263
1834 115
1834 1641
1834 2190
1835 76
1835 1649
1835 2194
1836 72
1836 1655
1836 2214
1837 39
1837 1548
1837 2230
1838 80
1838 1615
1838 2245
1839 50
1839 1579
1839 2248
1840 4
1840 1596
1840 2244
1841 114
1841 1644
1841 2247
1842 106
1842 1636
1842 2275
1843 48
1843 1558
1843 2251
1844 94
1844 1585
1844 2295
1845 63
1845 1590
1845 2289
1846 121
1846 1620
1846 2301
1847 59
1847 1626
1847 2298
1848 12
1848 1573
1848 2282
1849 5
1849 1543
1849 2266
1850 104
1850 1591
1850 2209
1851 73
1851 1613
1851 2257
1852 6
1852 1569
1852 2300
1853 64
1853 1574
1853 2272
1854 96
1854 1598
1854 2269
1855 82
1855 1561
1855 2181
1856 44
1856 1583
1856 2292
1857 47
1857 1541
1857 2296
1858 117
1858 1557
1858 2293
1859 49
1859 1624
1859 2235
1860 78
1860 1539
1860 2229
1861 22
1861 1552
1861 2277
1862 124
1862 1659
1862 2270
1863 97
1863 1605
1863 2188
1864 113
1864 1594
1864 2199
1865 2
1865 1645
1865 2284
1866 65
1866 1559
1866 2211
1867 77
1867 1549
1867 2195
1868 36
1868 1538
1868 2278
1869 52
1869 1578
1869 2225
1870 100
1870 1602
1870 2290
1871 46
1871 1562
1871 2274
1872 13
1872 1554
1872 2177
1873 109
1873 1631
1873 2267
1874 84
1874 1611
1874 2294
1875 90
1875 1550
1875 2237
1876 75
1876 1650
1876 2236
1877 32
1877 1589
1877 2205
1878 40
1878 1565
1878 2258
1879 99
1879 1619
1879 2273
1880 35
1880 1610
1880 2249
1881 110
1881 1637
1881 2238
1882 3
1882 1568
1882 2178
1883 19
1883 1625
1883 2271
1884 95
1884 1638
1884 2217
1885 42
1885 1536
1885 2220
1886 123
1886 1617
1886 2255
1887 83
1887 1582
1887 2191
1888 69
1888 1601
1888 2208
1889 103
1889 1572
1889 2242
1890 89
1890 1621
1890 2189
1891 17
1891 1627
1891 2207
1892 108
1892 1587
1892 2204
1893 92
1893 1581
1893 2243
1894 18
1894 1553
1894 2228
1895 14
1895 1607
1895 2287
1896 27
1896 1608
1896 2219
1897 56
1897 1656
1897 2222
1898 57
1898 1612
1898 2234
1899 38
1899 1647
1899 2185
1900 24
1900 1651
1900 2288
1901 93
1901 1660
1901 2291
1902 125
1902 1643
1902 2215
1903 41
1903 1546
1903 2226
1904 101
1904 1544
1904 2213
1905 7
1905 1595
1905 2218
1906 66
1906 1592
1906 2253
1907 60
1907 1661
1907 2254
1908 25
1908 1576
1908 2256
1909 119
1909 1575
1909 2210
1910 45
1910 1614
1910 2176
1911 10
1911 1600
1911 2283
1912 126
1912 1623
1912 2193
1913 118
1913 1542
1913 2265
1914 9
1914 1584
1914 2302
1915 8
1915 1632
1915 2212
1916 81
1916 1545
1916 2192
1917 120
1917 1577
1917 2279
1918 107
1918 1571
1918 2203
1919 91
1919 1551
1919 2239
1920 239
1920 1731
1920 2337
1921 169
1921 1790
1921 2305
1922 227
1922 1721
1922 2347
1923 137
1923 1712
1923 2424
1924 155
1924 1733
1924 2332
1925 168
1925 1688
1925 2368
1926 135
1926 1719
1926 2356
1927 187
1927 1776
1927 2310
1928 147
1928 1749
1928 2383
1929 223
1929 1753
1929 2389
1930 144
1930 1789
1930 2354
1931 129
1931 1674
1931 2375
1932 237
1932 1698
1932 2409
1933 217
1933 1668
1933 2407
1934 212
1934 1770
1934 2311
1935 250
1935 1713
1935 2413
1936 150
1936 1680
1936 2314
1937 234
1937 1678
1937 2357
1938 186
1938 1681
1938 2388
1939 136
1939 1676
1939 2427
1940 149
1940 1745
1940 2412
1941 215
1941 1664
1941 2420
1942 240
1942 1735
1942 2329
1943 161
1943 1679
1943 2318
1944 159
1944 1751
1944 2365
1945 218
1945 1791
1945 2351
1946 246
1946 1699
1946 2382
1947 253
1947 1758
1947 2304
1948 128
1948 1665
1948 2373
1949 229
1949 1717
1949 2364
1950 142
1950 1782
1950 2396
1951 183
1951 1787
1951 2392
1952 131
1952 1763
1952 2421
1953 182
1953 1669
1953 2333
1954 171
1954 1673
1954 2372
1955 231
1955 1691
1955 2403
1956 252
1956 1682
1956 2399
1957 174
1957 1754
1957 2324
1958 145
1958 1743
1958 2355
1959 195
1959 1671
1959 2398
1960 156
1960 1684
1960 2363
1961 180
1961 1675
1961 2360
1962 222
1962 1720
1962 2377
1963 166
1963 1768
1963 2425
1964 192
1964 1700
1964 2346
1965 233
1965 1672
1965 2386
1966 254
1966 1714
1966 2410
1967 245
1967 1788
1967 2359
1968 141
1968 1772
1968 2361
1969 236
1969 1729
1969 2393
1970 193
1970 1703
1970 2362
1971 216
1971 1780
1971 2370
1972 198
1972 1744
1972 2323
1973 190
1973 1783
1973 2419
1974 225
1974 1710
1974 2405
1975 235
1975 1707
1975 2417
1976 178
1976 1726
1976 2327
1977 200
1977 1755
1977 2384
1978 201
1978 1705
1978 2390
1979 146
1979 1756
1979 2371
1980 214
1980 1760
1980 2387
1981 228
1981 1701
1981 2402
1982 202
1982 1775
1982 2378
1983 148
1983 1727
1983 2350
1984 153
1984 1670
1984 2418
1985 167
1985 1697
1985 2317
1986 177
1986 1666
1986 2320
1987 205
1987 1767
1987 2309
1988 157
1988 1757
1988 2330
1989 243
1989 1747
1989 2397
1990 199
1990 1778
1990 2369
1991 251
1991 1734
1991 2367
1992 206
1992 1704
1992 2385
1993 133
1993 1723
1993 2343
1994 209
1994 1689
1994 2331
1995 247
1995 1702
1995 2430
1996 203
1996 1765
1996 2321
1997 130
1997 1687
1997 2394
1998 241
1998 1752
1998 2340
1999 189
1999 1694
1999 2308
2000 173
2000 1736
2000 2411
2001 140
2001 1716
2001 2414
2002 230
2002 1746
2002 2344
2003 188
2003 1781
2003 2406
2004 248
2004 1739
2004 2395
2005 191
2005 1683
2005 2358
2006 224
2006 1777
2006 2316
2007 194
2007 1722
2007 2328
2008 164
2008 1738
2008 2325
2009 210
2009 1740
2009 2380
2010 162
2010 1759
2010 2426
2011 176
2011 1750
2011 2422
2012 172
2012 1693
2012 2338
2013 154
2013 1718
2013 2349
2014 139
2014 1695
2014 2366
2015 242
2015 1732
2015 2335
2016 143
2016 1784
2016 2345
2017 220
2017 1771
2017 2313
2018 211
2018 1677
2018 2408
2019 221
2019 1690
2019 2348
2020 158
2020 1742
2020 2341
2021 134
2021 1692
2021 2322
2022 196
2022 1785
2022 2431
2023 244
2023 1786
2023 2353
2024 249
2024 1730
2024 2401
2025 204
2025 1773
2025 2415
2026 165
2026 1685
2026 2416
2027 255
2027 1737
2027 2391
2028 160
2028 1774
2028 2315
2029 207
2029 1766
2029 2428
2030 185
2030 1711
2030 2319
2031 238
2031 1706
2031 2374
2032 138
2032 1667
2032 2379
2033 175
2033 1741
2033 2400
2034 226
2034 1761
2034 2381
2035 197
2035 1728
2035 2336
2036 181
2036 1696
2036 2307
2037 152
2037 1709
2037 2312
2038 163
2038 1724
2038 2339
2039 213
2039 1748
2039 2342
2040 151
2040 1779
2040 2326
2041 208
2041 1725
2041 2334
2042 170
2042 1764
2042 2404
2043 132
2043 1708
2043 2423
2044 179
2044 1762
2044 2352
2045 219
2045 1715
2045 2306
2046 232
2046 1769
2046 2376
2047 184
2047 1686
2047 2429
2048 365
2048 910
2048 2489
2049 304
2049 1007
2049 2514
2050 362
2050 961
2050 2536
2051 273
2051 964
2051 2459
2052 272
2052 988
2052 2453
2053 364
2053 913
2053 2499
2054 349
2054 1012
2054 2486
2055 265
2055 955
2055 2553
2056 348
2056 930
2056 2473
2057 303
2057 1021
2057 2544
2058 281
2058 908
2058 2527
2059 340
2059 915
2059 2485
2060 314
2060 975
2060 2504
2061 287
2061 949
2061 2515
2062 355
2062 982
2062 2537
2063 262
2063 1016
2063 2505
2064 307
2064 1015
2064 2448
2065 270
2065 952
2065 2477
2066 352
2066 963
2066 2501
2067 292
2067 933
2067 2452
2068 347
2068 973
2068 2542
2069 282
2069 996
2069 2520
2070 259
2070 925
2070 2439
2071 373
2071 926
2071 2464
2072 290
2072 932
2072 2442
2073 268
2073 948
2073 2526
2074 370
2074 928
2074 2454
2075 257
2075 942
2075 2445
2076 306
2076 976
2076 2476
2077 324
2077 943
2077 2478
2078 302
2078 977
2078 2534
2079 371
2079 1023
2079 2457
2080 315
2080 912
2080 2559
2081 334
2081 939
2081 2502
2082 299
2082 931
2082 2498
2083 367
2083 956
2083 2451
2084 326
2084 950
2084 2437
2085 354
2085 953
2085 2497
2086 263
2086 989
2086 2463
2087 300
2087 994
2087 2456
2088 285
2088 914
2088 2552
2089 331
2089 968
2089 2433
2090 283
2090 1010
2090 2510
2091 309
2091 972
2091 2482
2092 356
2092 936
2092 2481
2093 341
2093 991
2093 2513
2094 359
2094 917
2094 2551
2095 333
2095 919
2095 2509
2096 298
2096 978
2096 2532
2097 289
2097 1008
2097 2479
2098 260
2098 971
2098 2460
2099 345
2099 983
2099 2517
2100 329
2100 944
2100 2550
2101 344
2101 921
2101 2521
2102 308
2102 969
2102 2493
2103 379
2103 1017
2103 2554
2104 274
2104 980
2104 2556
2105 284
2105 967
2105 2539
2106 372
2106 984
2106 2529
2107 269
2107 941
2107 2458
2108 316
2108 929
2108 2519
2109 295
2109 957
2109 2446
2110 321
2110 993
2110 2516
2111 280
2111 1001
2111 2496
2112 267
2112 995
2112 2492
2113 358
2113 938
2113 2490
2114 327
2114 962
2114 2533
2115 301
2115 970
2115 2487
2116 275
2116 997
2116 2436
2117 378
2117 900
2117 2472
2118 278
2118 946
2118 2435
2119 294
2119 907
2119 2518
2120 317
2120 1006
2120 2511
2121 380
2121 922
2121 2512
2122 277
2122 904
2122 2500
2123 342
2123 920
2123 2494
2124 276
2124 958
2124 2530
2125 261
2125 1005
2125 2467
2126 335
2126 1011
2126 2548
2127 338
2127 1018
2127 2432
2128 266
2128 911
2128 2522
2129 271
2129 985
2129 2543
2130 264
2130 960
2130 2461
2131 325
2131 1022
2131 2470
2132 296
2132 934
2132 2443
2133 376
2133 1004
2133 2503
2134 320
2134 1019
2134 2450
2135 360
2135 951
2135 2525
2136 312
2136 945
2136 2546
2137 377
2137 909
2137 2540
2138 291
2138 940
2138 2558
2139 381
2139 954
2139 2528
2140 350
2140 999
2140 2444
2141 363
2141 899
2141 2449
2142 319
2142 987
2142 2535
2143 382
2143 935
2143 2524
2144 293
2144 1002
2144 2506
2145 339
2145 1013
2145 2462
2146 279
2146 959
2146 2555
2147 375
2147 992
2147 2531
2148 310
2148 974
2148 2483
2149 346
2149 898
2149 2475
2150 336
2150 918
2150 2469
2151 369
2151 966
2151 2434
2152 318
2152 905
2152 2455
2153 368
2153 1000
2153 2523
2154 323
2154 1014
2154 2538
2155 288
2155 1020
2155 2545
2156 311
2156 947
2156 2474
2157 343
2157 924
2157 2507
2158 330
2158 990
2158 2480
2159 337
2159 981
2159 2488
2160 332
2160 937
2160 2549
2161 361
2161 897
2161 2438
2162 351
2162 902
2162 2468
2163 383
2163 903
2163 2484
2164 366
2164 998
2164 2440
2165 256
2165 986
2165 2447
2166 322
2166 965
2166 2547
2167 374
2167 906
2167 2541
2168 297
2168 901
2168 2465
2169 313
2169 927
2169 2557
2170 328
2170 896
2170 2471
2171 305
2171 979
2171 2491
2172 286
2172 1003
2172 2441
2173 353
2173 923
2173 2466
2174 258
2174 1009
2174 2508
2175 357
2175 916
2175 2495
2176 478
2176 1100
2176 2624
2177 398
2177 1151
2177 2596
2178 388
2178 1049
2178 2664
2179 495
2179 1105
2179 2641
2180 445
2180 1063
2180 2569
2181 384
2181 1101
2181 2633
2182 402
2182 1107
2182 2662
2183 435
2183 1103
2183 2587
2184 409
2184 1079
2184 2582
2185 463
2185 1065
2185 2666
2186 480
2186 1106
2186 2570
2187 509
2187 1031
2187 2625
2188 471
2188 1092
2188 2661
2189 397
2189 1029
2189 2649
2190 476
2190 1149
2190 2614
2191 431
2191 1143
2191 2593
2192 462
2192 1086
2192 2588
2193 499
2193 1039
2193 2610
2194 390
2194 1078
2194 2659
2195 479
2195 1087
2195 2687
2196 391
2196 1080
2196 2572
2197 446
2197 1028
2197 2605
2198 421
2198 1099
2198 2565
2199 484
2199 1124
2199 2566
2200 493
2200 1083
2200 2657
2201 481
2201 1136
2201 2592
2202 489
2202 1072
2202 2581
2203 434
2203 1052
2203 2598
2204 419
2204 1060
2204 2670
2205 501
2205 1061
2205 2613
2206 443
2206 1040
2206 2579
2207 392
2207 1088
2207 2675
2208 487
2208 1050
2208 2686
2209 439
2209 1125
2209 2586
2210 506
2210 1118
2210 2609
2211 492
2211 1043
2211 2567
2212 436
2212 1066
2212 2676
2213 412
2213 1114
2213 2563
2214 488
2214 1046
2214 2652
2215 441
2215 1044
2215 2621
2216 405
2216 1056
2216 2576
2217 416
2217 1054
2217 2654
2218 503
2218 1134
2218 2672
2219 474
2219 1067
2219 2651
2220 483
2220 1110
2220 2626
2221 413
2221 1069
2221 2608
2222 387
2222 1139
2222 2663
2223 415
2223 1035
2223 2643
2224 422
2224 1084
2224 2602
2225 393
2225 1076
2225 2629
2226 466
2226 1094
2226 2680
2227 395
2227 1091
2227 2611
2228 429
2228 1045
2228 2603
2229 511
2229 1075
2229 2684
2230 464
2230 1133
2230 2623
2231 504
2231 1097
2231 2577
2232 404
2232 1053
2232 2668
2233 428
2233 1115
2233 2650
2234 448
2234 1111
2234 2606
2235 447
2235 1121
2235 2660
2236 455
2236 1148
2236 2658
2237 385
2237 1036
2237 2640
2238 496
2238 1064
2238 2665
2239 450
2239 1147
2239 2681
2240 442
2240 1030
2240 2597
2241 420
2241 1077
2241 2685
2242 403
2242 1034
2242 2636
2243 432
2243 1129
2243 2620
2244 414
2244 1104
2244 2580
2245 430
2245 1058
2245 2677
2246 411
2246 1128
2246 2618
2247 467
2247 1089
2247 2584
2248 460
2248 1074
2248 2573
2249 486
2249 1033
2249 2604
2250 423
2250 1038
2250 2585
2251 498
2251 1123
2251 2631
2252 440
2252 1146
2252 2591
2253 465
2253 1068
2253 2571
2254 408
2254 1041
2254 2638
2255 502
2255 1127
2255 2568
2256 458
2256 1042
2256 2615
2257 497
2257 1081
2257 2655
2258 396
2258 1037
2258 2628
2259 459
2259 1135
2259 2653
2260 490
2260 1098
2260 2619
2261 406
2261 1073
2261 2627
2262 491
2262 1131
2262 2561
2263 454
2263 1144
2263 2600
2264 452
2264 1082
2264 2642
2265 485
2265 1093
2265 2607
2266 401
2266 1055
2266 2679
2267 451
2267 1120
2267 2667
2268 438
2268 1026
2268 2612
2269 424
2269 1116
2269 2632
2270 394
2270 1048
2270 2646
2271 444
2271 1047
2271 2562
2272 500
2272 1051
2272 2656
2273 475
2273 1122
2273 2578
2274 437
2274 1113
2274 2575
2275 482
2275 1070
2275 2630
2276 468
2276 1024
2276 2635
2277 399
2277 1141
2277 2616
2278 472
2278 1062
2278 2574
2279 410
2279 1095
2279 2682
2280 449
2280 1112
2280 2639
2281 510
2281 1109
2281 2594
2282 425
2282 1071
2282 2589
2283 427
2283 1059
2283 2673
2284 457
2284 1126
2284 2648
2285 389
2285 1138
2285 2683
2286 400
2286 1108
2286 2644
2287 473
2287 1096
2287 2595
2288 505
2288 1142
2288 2617
2289 386
2289 1057
2289 2622
2290 470
2290 1102
2290 2583
2291 407
2291 1032
2291 2645
2292 461
2292 1027
2292 2669
2293 426
2293 1090
2293 2637
2294 417
2294 1130
2294 2599
2295 433
2295 1025
2295 2634
2296 494
2296 1119
2296 2671
2297 418
2297 1132
2297 2674
2298 508
2298 1085
2298 2678
2299 456
2299 1137
2299 2564
2300 469
2300 1140
2300 2590
2301 477
2301 1150
2301 2601
2302 507
2302 1117
2302 2560
2303 453
2303 1145
2303 2647
2304 557
2304 1261
2304 1897
2305 563
2305 1266
2305 1895
2306 598
2306 1168
2306 1912
2307 607
2307 1241
2307 1888
2308 527
2308 1220
2308 1817
2309 573
2309 1174
2309 1835
2310 540
2310 1172
2310 1892
2311 635
2311 1202
2311 1878
2312 523
2312 1184
2312 1813
2313 583
2313 1200
2313 1820
2314 611
2314 1256
2314 1844
2315 542
2315 1181
2315 1797
2316 582
2316 1152
2316 1884
2317 554
2317 1248
2317 1866
2318 515
2318 1155
2318 1854
2319 529
2319 1198
2319 1906
2320 536
2320 1204
2320 1843
2321 622
2321 1215
2321 1840
2322 636
2322 1194
2322 1851
2323 564
2323 1188
2323 1882
2324 610
2324 1231
2324 1914
2325 566
2325 1213
2325 1808
2326 575
2326 1190
2326 1810
2327 601
2327 1196
2327 1903
2328 562
2328 1274
2328 1826
2329 577
2329 1279
2329 1869
2330 630
2330 1176
2330 1815
2331 567
2331 1211
2331 1802
2332 626
2332 1219
2332 1907
2333 633
2333 1259
2333 1858
2334 561
2334 1242
2334 1830
2335 634
2335 1159
2335 1846
2336 613
2336 1234
2336 1886
2337 534
2337 1175
2337 1853
2338 544
2338 1163
2338 1855
2339 530
2339 1208
2339 1862
2340 572
2340 1271
2340 1910
2341 528
2341 1251
2341 1795
2342 533
2342 1275
2342 1796
2343 637
2343 1224
2343 1893
2344 594
2344 1205
2344 1829
2345 513
2345 1247
2345 1896
2346 555
2346 1230
2346 1806
2347 602
2347 1156
2347 1792
2348 623
2348 1177
2348 1834
2349 595
2349 1192
2349 1794
2350 547
2350 1264
2350 1890
2351 558
2351 1158
2351 1827
2352 618
2352 1269
2352 1842
2353 559
2353 1253
2353 1859
2354 591
2354 1187
2354 1836
2355 581
2355 1273
2355 1793
2356 603
2356 1252
2356 1839
2357 531
2357 1197
2357 1833
2358 539
2358 1169
2358 1841
2359 621
2359 1221
2359 1825
2360 535
2360 1160
2360 1872
2361 574
2361 1278
2361 1898
2362 545
2362 1210
2362 1917
2363 537
2363 1199
2363 1915
2364 619
2364 1218
2364 1904
2365 588
2365 1161
2365 1809
2366 568
2366 1267
2366 1909
2367 550
2367 1262
2367 1845
2368 580
2368 1244
2368 1801
2369 608
2369 1233
2369 1861
2370 553
2370 1249
2370 1807
2371 606
2371 1237
2371 1831
2372 522
2372 1260
2372 1832
2373 593
2373 1157
2373 1798
2374 520
2374 1153
2374 1879
2375 543
2375 1245
2375 1905
2376 569
2376 1166
2376 1828
2377 627
2377 1238
2377 1874
2378 614
2378 1246
2378 1818
2379 565
2379 1276
2379 1875
2380 589
2380 1173
2380 1864
2381 526
2381 1223
2381 1880
2382 629
2382 1232
2382 1838
2383 551
2383 1277
2383 1857
2384 624
2384 1183
2384 1822
2385 639
2385 1182
2385 1900
2386 576
2386 1171
2386 1824
2387 519
2387 1206
2387 1889
2388 592
2388 1239
2388 1891
2389 631
2389 1154
2389 1823
2390 524
2390 1270
2390 1867
2391 604
2391 1170
2391 1902
2392 590
2392 1195
2392 1871
2393 552
2393 1225
2393 1876
2394 615
2394 1217
2394 1805
2395 625
2395 1228
2395 1868
2396 586
2396 1164
2396 1881
2397 516
2397 1265
2397 1812
2398 517
2398 1167
2398 1811
2399 532
2399 1203
2399 1860
2400 620
2400 1263
2400 1885
2401 600
2401 1243
2401 1819
2402 570
2402 1209
2402 1804
2403 548
2403 1162
2403 1899
2404 525
2404 1186
2404 1901
2405 512
2405 1229
2405 1863
2406 587
2406 1193
2406 1856
2407 596
2407 1214
2407 1814
2408 549
2408 1236
2408 1919
2409 556
2409 1189
2409 1870
2410 571
2410 1258
2410 1850
2411 616
2411 1227
2411 1849
2412 521
2412 1191
2412 1821
2413 597
2413 1226
2413 1865
2414 584
2414 1257
2414 1800
2415 632
2415 1216
2415 1848
2416 628
2416 1235
2416 1908
2417 546
2417 1250
2417 1816
2418 541
2418 1185
2418 1852
2419 617
2419 1255
2419 1883
2420 638
2420 1268
2420 1911
2421 518
2421 1178
2421 1877
2422 578
2422 1179
2422 1799
2423 599
2423 1180
2423 1913
2424 514
2424 1272
2424 1873
2425 609
2425 1222
2425 1803
2426 579
2426 1254
2426 1847
2427 605
2427 1240
2427 1837
2428 538
2428 1165
2428 1894
2429 585
2429 1212
2429 1916
2430 560
2430 1201
2430 1887
2431 612
2431 1207
2431 1918
2432 742
2432 1280
2432 2037
2433 669
2433 1301
2433 2000
2434 766
2434 1385
2434 1967
2435 711
2435 1407
2435 2039
2436 658
2436 1307
2436 1987
2437 683
2437 1334
2437 1983
2438 743
2438 1384
2438 2023
2439 661
2439 1357
2439 2029
2440 702
2440 1395
2440 1997
2441 767
2441 1394
2441 1994
2442 757
2442 1383
2442 2028
2443 691
2443 1288
2443 2042
2444 650
2444 1281
2444 1923
2445 690
2445 1321
2445 1977
2446 720
2446 1309
2446 1926
2447 698
2447 1355
2447 1925
2448 693
2448 1349
2448 1946
2449 736
2449 1366
2449 1962
2450 751
2450 1337
2450 1922
2451 721
2451 1345
2451 2031
2452 667
2452 1326
2452 1931
2453 756
2453 1339
2453 1941
2454 686
2454 1298
2454 2005
2455 684
2455 1306
2455 1965
2456 672
2456 1344
2456 2002
2457 737
2457 1328
2457 2026
2458 694
2458 1318
2458 1935
2459 726
2459 1379
2459 1954
2460 730
2460 1399
2460 2030
2461 671
2461 1300
2461 1989
2462 761
2462 1296
2462 1964
2463 750
2463 1325
2463 2001
2464 646
2464 1375
2464 1936
2465 688
2465 1330
2465 1944
2466 651
2466 1308
2466 1986
2467 723
2467 1380
2467 1948
2468 685
2468 1392
2468 1995
2469 710
2469 1372
2469 1974
2470 659
2470 1335
2470 1949
2471 687
2471 1290
2471 2006
2472 663
2472 1397
2472 2020
2473 673
2473 1362
2473 1955
2474 735
2474 1311
2474 1953
2475 746
2475 1404
2475 1937
2476 697
2476 1332
2476 2034
2477 649
2477 1319
2477 2044
2478 749
2478 1343
2478 1932
2479 763
2479 1373
2479 1998
2480 716
2480 1376
2480 1956
2481 740
2481 1282
2481 1991
2482 760
2482 1320
2482 2047
2483 653
2483 1401
2483 1960
2484 739
2484 1374
2484 1968
2485 645
2485 1359
2485 1933
2486 734
2486 1387
2486 1952
2487 713
2487 1310
2487 2018
2488 652
2488 1365
2488 2019
2489 727
2489 1351
2489 2045
2490 731
2490 1304
2490 1979
2491 762
2491 1286
2491 1992
2492 741
2492 1398
2492 1920
2493 715
2493 1302
2493 1963
2494 643
2494 1327
2494 2025
2495 692
2495 1294
2495 1957
2496 755
2496 1371
2496 1966
2497 704
2497 1292
2497 1928
2498 696
2498 1358
2498 2022
2499 705
2499 1402
2499 2016
2500 660
2500 1368
2500 1947
2501 707
2501 1342
2501 2032
2502 748
2502 1347
2502 1999
2503 676
2503 1322
2503 1929
2504 674
2504 1361
2504 1981
2505 644
2505 1354
2505 1980
2506 718
2506 1377
2506 1924
2507 728
2507 1389
2507 1996
2508 764
2508 1305
2508 1939
2509 680
2509 1360
2509 1951
2510 665
2510 1348
2510 2014
2511 682
2511 1338
2511 2021
2512 640
2512 1291
2512 1973
2513 729
2513 1329
2513 1943
2514 733
2514 1297
2514 2008
2515 666
2515 1284
2515 1975
2516 754
2516 1388
2516 2004
2517 765
2517 1390
2517 1969
2518 656
2518 1396
2518 1982
2519 700
2519 1331
2519 1934
2520 714
2520 1317
2520 1984
2521 678
2521 1303
2521 2041
2522 701
2522 1381
2522 2027
2523 708
2523 1314
2523 1971
2524 642
2524 1313
2524 2046
2525 679
2525 1378
2525 1972
2526 758
2526 1364
2526 2012
2527 648
2527 1333
2527 1990
2528 752
2528 1363
2528 2013
2529 689
2529 1369
2529 2010
2530 677
2530 1312
2530 2017
2531 706
2531 1352
2531 2003
2532 662
2532 1287
2532 1958
2533 722
2533 1285
2533 1942
2534 654
2534 1293
2534 1921
2535 703
2535 1336
2535 2007
2536 717
2536 1316
2536 2033
2537 641
2537 1340
2537 1938
2538 725
2538 1391
2538 1940
2539 732
2539 1356
2539 1950
2540 744
2540 1406
2540 2015
2541 670
2541 1400
2541 2036
2542 668
2542 1315
2542 2038
2543 738
2543 1386
2543 1927
2544 657
2544 1350
2544 1959
2545 695
2545 1367
2545 1976
2546 745
2546 1324
2546 2040
2547 759
2547 1403
2547 2043
2548 647
2548 1346
2548 1978
2549 709
2549 1283
2549 1961
2550 655
2550 1299
2550 1930
2551 747
2551 1405
2551 2024
2552 699
2552 1370
2552 2011
2553 724
2553 1382
2553 1985
2554 753
2554 1341
2554 2009
2555 681
2555 1289
2555 1993
2556 712
2556 1353
2556 1988
2557 664
2557 1323
2557 2035
2558 719
2558 1393
2558 1945
2559 675
2559 1295
2559 1970
2560 795
2560 1441
2560 2106
2561 875
2561 1524
2561 2124
2562 805
2562 1440
2562 2086
2563 841
2563 1528
2563 2057
2564 847
2564 1518
2564 2059
2565 771
2565 1495
2565 2145
2566 824
2566 1523
2566 2150
2567 782
2567 1439
2567 2119
2568 869
2568 1491
2568 2108
2569 881
2569 1471
2569 2123
2570 822
2570 1428
2570 2061
2571 776
2571 1460
2571 2075
2572 788
2572 1442
2572 2091
2573 781
2573 1420
2573 2092
2574 784
2574 1466
2574 2077
2575 858
2575 1425
2575 2160
2576 846
2576 1413
2576 2154
2577 820
2577 1484
2577 2080
2578 787
2578 1416
2578 2071
2579 856
2579 1510
2579 2065
2580 866
2580 1412
2580 2142
2581 813
2581 1424
2581 2128
2582 862
2582 1443
2582 2076
2583 811
2583 1501
2583 2048
2584 836
2584 1482
2584 2118
2585 842
2585 1533
2585 2168
2586 893
2586 1493
2586 2163
2587 886
2587 1468
2587 2167
2588 890
2588 1449
2588 2152
2589 817
2589 1464
2589 2094
2590 892
2590 1410
2590 2096
2591 877
2591 1474
2591 2125
2592 809
2592 1513
2592 2111
2593 895
2593 1520
2593 2149
2594 823
2594 1485
2594 2112
2595 880
2595 1525
2595 2148
2596 783
2596 1456
2596 2062
2597 844
2597 1470
2597 2107
2598 791
2598 1494
2598 2129
2599 814
2599 1473
2599 2089
2600 799
2600 1445
2600 2120
2601 807
2601 1503
2601 2132
2602 802
2602 1417
2602 2156
2603 870
2603 1478
2603 2175
2604 863
2604 1517
2604 2116
2605 874
2605 1505
2605 2115
2606 834
2606 1509
2606 2127
2607 806
2607 1511
2607 2095
2608 894
2608 1469
2608 2159
2609 815
2609 1457
2609 2110
2610 773
2610 1526
2610 2055
2611 825
2611 1489
2611 2105
2612 775
2612 1414
2612 2170
2613 884
2613 1447
2613 2049
2614 837
2614 1436
2614 2117
2615 864
2615 1480
2615 2066
2616 876
2616 1458
2616 2051
2617 843
2617 1521
2617 2097
2618 796
2618 1429
2618 2133
2619 854
2619 1502
2619 2101
2620 878
2620 1522
2620 2143
2621 835
2621 1411
2621 2157
2622 792
2622 1427
2622 2146
2623 889
2623 1459
2623 2140
2624 839
2624 1430
2624 2147
2625 887
2625 1452
2625 2085
2626 873
2626 1531
2626 2136
2627 777
2627 1437
2627 2173
2628 786
2628 1508
2628 2122
2629 840
2629 1486
2629 2126
2630 888
2630 1487
2630 2053
2631 857
2631 1438
2631 2058
2632 860
2632 1435
2632 2130
2633 808
2633 1444
2633 2050
2634 770
2634 1530
2634 2072
2635 785
2635 1453
2635 2164
2636 865
2636 1426
2636 2169
2637 850
2637 1507
2637 2054
2638 848
2638 1450
2638 2135
2639 829
2639 1504
2639 2067
2640 883
2640 1434
2640 2138
2641 810
2641 1467
2641 2069
2642 882
2642 1409
2642 2056
2643 849
2643 1490
2643 2084
2644 845
2644 1432
2644 2151
2645 812
2645 1529
2645 2172
2646 851
2646 1408
2646 2064
2647 794
2647 1446
2647 2103
2648 789
2648 1433
2648 2088
2649 774
2649 1500
2649 2114
2650 778
2650 1488
2650 2100
2651 859
2651 1527
2651 2166
2652 797
2652 1512
2652 2155
2653 804
2653 1483
2653 2068
2654 838
2654 1506
2654 2134
2655 780
2655 1431
2655 2082
2656 769
2656 1472
2656 2098
2657 861
2657 1451
2657 2141
2658 803
2658 1514
2658 2144
2659 879
2659 1479
2659 2052
2660 793
2660 1534
2660 2165
2661 798
2661 1415
2661 2073
2662 868
2662 1516
2662 2083
2663 832
2663 1481
2663 2121
2664 772
2664 1492
2664 2171
2665 871
2665 1418
2665 2087
2666 833
2666 1532
2666 2137
2667 855
2667 1498
2667 2109
2668 816
2668 1462
2668 2081
2669 768
2669 1519
2669 2099
2670 790
2670 1465
2670 2104
2671 852
2671 1422
2671 2153
2672 828
2672 1535
2672 2093
2673 826
2673 1476
2673 2074
2674 819
2674 1419
2674 2161
2675 818
2675 1461
2675 2070
2676 891
2676 1477
2676 2139
2677 827
2677 1454
2677 2113
2678 853
2678 1448
2678 2078
2679 779
2679 1455
2679 2162
2680 800
2680 1475
2680 2079
2681 831
2681 1515
2681 2063
2682 867
2682 1497
2682 2174
2683 801
2683 1496
2683 2102
2684 885
2684 1499
2684 2131
2685 821
2685 1423
2685 2090
2686 830
2686 1463
2686 2060
2687 872
2687 1421
2687 2158
2688 0
2688 1517
2688 1966
2689 63
2689 1443
2689 2010
2690 44
2690 1481
2690 1938
2691 59
2691 1422
2691 2019
2692 33
2692 1459
2692 2020
2693 13
2693 1519
2693 2026
2694 23
2694 1429
2694 1933
2695 81
2695 1442
2695 2046
2696 108
2696 1462
2696 2017
2697 10
2697 1452
2697 1967
2698 65
2698 1425
2698 1934
2699 78
2699 1470
2699 1964
2700 30
2700 1478
2700 2023
2701 48
2701 1473
2701 1959
2702 15
2702 1514
2702 2012
2703 87
2703 1489
2703 1976
2704 46
2704 1471
2704 2013
2705 27
2705 1513
2705 1937
2706 20
2706 1419
2706 1927
2707 92
2707 1408
2707 1939
2708 26
2708 1464
2708 1935
2709 51
2709 1417
2709 1931
2710 37
2710 1438
2710 2006
2711 41
2711 1509
2711 1973
2712 111
2712 1493
2712 2036
2713 89
2713 1516
2713 1995
2714 120
2714 1415
2714 2042
2715 54
2715 1499
2715 1936
2716 31
2716 1424
2716 1929
2717 18
2717 1497
2717 1990
2718 109
2718 1524
2718 2039
2719 100
2719 1523
2719 1930
2720 1
2720 1436
2720 1979
2721 62
2721 1423
2721 1975
2722 114
2722 1484
2722 2037
2723 122
2723 1504
2723 1954
2724 107
2724 1472
2724 1984
2725 118
2725 1469
2725 1946
2726 29
2726 1457
2726 1978
2727 102
2727 1440
2727 1949
2728 6
2728 1525
2728 1977
2729 7
2729 1486
2729 1956
2730 50
2730 1430
2730 1940
2731 68
2731 1468
2731 2043
2732 80
2732 1418
2732 2015
2733 14
2733 1466
2733 2047
2734 69
2734 1521
2734 2038
2735 42
2735 1476
2735 1948
2736 110
2736 1474
2736 1958
2737 83
2737 1510
2737 1980
2738 4
2738 1450
2738 1962
2739 104
2739 1448
2739 2008
2740 55
2740 1431
2740 2009
2741 76
2741 1482
2741 2005
2742 24
2742 1439
2742 1952
2743 9
2743 1507
2743 1947
2744 28
2744 1530
2744 1989
2745 47
2745 1414
2745 2030
2746 74
2746 1420
2746 2000
2747 94
2747 1412
2747 1982
2748 75
2748 1426
2748 1945
2749 72
2749 1444
2749 2014
2750 126
2750 1428
2750 2040
2751 98
2751 1447
2751 2025
2752 77
2752 1506
2752 1951
2753 53
2753 1534
2753 2031
2754 95
2754 1480
2754 1968
2755 22
2755 1479
2755 1992
2756 96
2756 1421
2756 2034
2757 119
2757 1511
2757 1925
2758 17
2758 1475
2758 1981
2759 82
2759 1487
2759 1932
2760 58
2760 1526
2760 1988
2761 39
2761 1532
2761 1972
2762 91
2762 1500
2762 2003
2763 61
2763 1492
2763 1991
2764 123
2764 1437
2764 2002
2765 52
2765 1529
2765 1923
2766 21
2766 1432
2766 1974
2767 106
2767 1416
2767 1922
2768 56
2768 1531
2768 1928
2769 101
2769 1491
2769 1957
2770 8
2770 1467
2770 1963
2771 67
2771 1446
2771 1987
2772 11
2772 1518
2772 1969
2773 85
2773 1515
2773 1944
2774 125
2774 1520
2774 1986
2775 70
2775 1503
2775 2021
2776 79
2776 1451
2776 1921
2777 2
2777 1508
2777 2028
2778 73
2778 1527
2778 1941
2779 115
2779 1505
2779 1999
2780 25
2780 1433
2780 2041
2781 93
2781 1435
2781 2024
2782 34
2782 1477
2782 2033
2783 60
2783 1427
2783 2022
2784 127
2784 1485
2784 1996
2785 99
2785 1409
2785 2011
2786 35
2786 1498
2786 2007
2787 19
2787 1410
2787 2045
2788 117
2788 1458
2788 1943
2789 113
2789 1445
2789 1955
2790 116
2790 1490
2790 1983
2791 105
2791 1461
2791 1950
2792 36
2792 1522
2792 2044
2793 124
2793 1453
2793 1997
2794 40
2794 1449
2794 2027
2795 121
2795 1411
2795 2032
2796 112
2796 1463
2796 1953
2797 16
2797 1434
2797 2029
2798 103
2798 1483
2798 1970
2799 84
2799 1441
2799 1942
2800 57
2800 1494
2800 2001
2801 90
2801 1533
2801 1971
2802 64
2802 1502
2802 2016
2803 97
2803 1465
2803 1920
2804 32
2804 1512
2804 1960
2805 38
2805 1495
2805 2018
2806 49
2806 1501
2806 2035
2807 86
2807 1456
2807 1965
2808 12
2808 1488
2808 1998
2809 43
2809 1535
2809 1926
2810 5
2810 1496
2810 1993
2811 45
2811 1413
2811 1924
2812 88
2812 1455
2812 1985
2813 71
2813 1528
2813 1994
2814 66
2814 1454
2814 1961
2815 3
2815 1460
2815 2004
2816 233
2816 1569
2816 2140
2817 214
2817 1641
2817 2121
2818 141
2818 1555
2818 2146
2819 206
2819 1602
2819 2123
2820 202
2820 1536
2820 2103
2821 222
2821 1558
2821 2143
2822 181
2822 1629
2822 2164
2823 132
2823 1538
2823 2056
2824 221
2824 1561
2824 2090
2825 153
2825 1537
2825 2067
2826 179
2826 1579
2826 2145
2827 148
2827 1586
2827 2078
2828 203
2828 1612
2828 2063
2829 255
2829 1564
2829 2068
2830 208
2830 1659
2830 2175
2831 162
2831 1582
2831 2156
2832 185
2832 1574
2832 2128
2833 170
2833 1663
2833 2109
2834 253
2834 1609
2834 2054
2835 133
2835 1606
2835 2159
2836 159
2836 1635
2836 2154
2837 204
2837 1589
2837 2062
2838 165
2838 1654
2838 2136
2839 169
2839 1583
2839 2132
2840 200
2840 1552
2840 2113
2841 207
2841 1650
2841 2084
2842 220
2842 1623
2842 2138
2843 150
2843 1618
2843 2051
2844 180
2844 1573
2844 2072
2845 135
2845 1611
2845 2142
2846 252
2846 1603
2846 2131
2847 144
2847 1621
2847 2172
2848 228
2848 1613
2848 2108
2849 139
2849 1610
2849 2095
2850 240
2850 1595
2850 2163
2851 168
2851 1578
2851 2052
2852 142
2852 1605
2852 2048
2853 138
2853 1638
2853 2116
2854 235
2854 1608
2854 2069
2855 174
2855 1620
2855 2079
2856 247
2856 1593
2856 2093
2857 226
2857 1651
2857 2081
2858 244
2858 1548
2858 2092
2859 199
2859 1592
2859 2118
2860 128
2860 1541
2860 2149
2861 198
2861 1568
2861 2112
2862 241
2862 1615
2862 2120
2863 213
2863 1575
2863 2083
2864 164
2864 1588
2864 2080
2865 129
2865 1598
2865 2087
2866 182
2866 1630
2866 2124
2867 191
2867 1549
2867 2057
2868 229
2868 1590
2868 2144
2869 152
2869 1632
2869 2089
2870 155
2870 1550
2870 2122
2871 175
2871 1565
2871 2170
2872 149
2872 1625
2872 2058
2873 166
2873 1649
2873 2114
2874 154
2874 1587
2874 2166
2875 188
2875 1637
2875 2155
2876 177
2876 1624
2876 2071
2877 178
2877 1662
2877 2064
2878 160
2878 1604
2878 2160
2879 246
2879 1648
2879 2127
2880 230
2880 1557
2880 2139
2881 254
2881 1584
2881 2167
2882 161
2882 1542
2882 2153
2883 249
2883 1570
2883 2106
2884 211
2884 1559
2884 2130
2885 201
2885 1543
2885 2066
2886 223
2886 1545
2886 2148
2887 215
2887 1601
2887 2165
2888 190
2888 1554
2888 2088
2889 216
2889 1585
2889 2102
2890 134
2890 1600
2890 2135
2891 227
2891 1563
2891 2110
2892 146
2892 1553
2892 2070
2893 172
2893 1576
2893 2152
2894 140
2894 1639
2894 2101
2895 238
2895 1539
2895 2055
2896 225
2896 1597
2896 2158
2897 196
2897 1596
2897 2151
2898 195
2898 1633
2898 2150
2899 171
2899 1647
2899 2076
2900 218
2900 1572
2900 2085
2901 147
2901 1580
2901 2098
2902 239
2902 1660
2902 2134
2903 163
2903 1566
2903 2049
2904 250
2904 1636
2904 2097
2905 151
2905 1544
2905 2077
2906 212
2906 1567
2906 2060
2907 194
2907 1551
2907 2126
2908 251
2908 1560
2908 2174
2909 145
2909 1646
2909 2074
2910 173
2910 1645
2910 2129
2911 248
2911 1547
2911 2117
2912 131
2912 1656
2912 2137
2913 209
2913 1657
2913 2111
2914 158
2914 1599
2914 2075
2915 197
2915 1655
2915 2173
2916 186
2916 1577
2916 2082
2917 219
2917 1594
2917 2073
2918 237
2918 1634
2918 2169
2919 176
2919 1546
2919 2171
2920 245
2920 1626
2920 2059
2921 232
2921 1562
2921 2125
2922 210
2922 1658
2922 2162
2923 143
2923 1622
2923 2100
2924 243
2924 1653
2924 2141
2925 184
2925 1591
2925 2053
2926 205
2926 1581
2926 2091
2927 187
2927 1617
2927 2105
2928 224
2928 1652
2928 2104
2929 183
2929 1627
2929 2050
2930 231
2930 1661
2930 2157
2931 242
2931 1614
2931 2147
2932 234
2932 1643
2932 2115
2933 189
2933 1607
2933 2168
2934 217
2934 1571
2934 2061
2935 156
2935 1619
2935 2086
2936 192
2936 1642
2936 2107
2937 236
2937 1644
2937 2119
2938 193
2938 1540
2938 2096
2939 136
2939 1556
2939 2161
2940 130
2940 1631
2940 2133
2941 157
2941 1640
2941 2094
2942 137
2942 1616
2942 2065
2943 167
2943 1628
2943 2099
2944 380
2944 1701
2944 2184
2945 361
2945 1665
2945 2256
2946 313
2946 1688
2946 2261
2947 281
2947 1749
2947 2205
2948 336
2948 1736
2948 2204
2949 276
2949 1686
2949 2208
2950 259
2950 1787
2950 2298
2951 265
2951 1723
2951 2302
2952 289
2952 1753
2952 2191
2953 316
2953 1730
2953 2303
2954 323
2954 1718
2954 2222
2955 343
2955 1743
2955 2207
2956 373
2956 1729
2956 2250
2957 368
2957 1706
2957 2228
2958 360
2958 1789
2958 2257
2959 287
2959 1721
2959 2283
2960 302
2960 1666
2960 2285
2961 275
2961 1780
2961 2265
2962 357
2962 1704
2962 2287
2963 331
2963 1673
2963 2194
2964 369
2964 1722
2964 2248
2965 340
2965 1750
2965 2226
2966 375
2966 1766
2966 2270
2967 341
2967 1732
2967 2225
2968 256
2968 1687
2968 2262
2969 353
2969 1711
2969 2290
2970 358
2970 1790
2970 2295
2971 370
2971 1791
2971 2176
2972 267
2972 1708
2972 2284
2973 319
2973 1785
2973 2267
2974 307
2974 1678
2974 2213
2975 270
2975 1680
2975 2301
2976 376
2976 1691
2976 2189
2977 335
2977 1676
2977 2203
2978 326
2978 1702
2978 2278
2979 306
2979 1739
2979 2216
2980 284
2980 1756
2980 2292
2981 362
2981 1786
2981 2255
2982 258
2982 1713
2982 2268
2983 266
2983 1689
2983 2300
2984 355
2984 1677
2984 2294
2985 338
2985 1772
2985 2227
2986 292
2986 1731
2986 2201
2987 366
2987 1672
2987 2195
2988 283
2988 1779
2988 2232
2989 293
2989 1724
2989 2218
2990 285
2990 1762
2990 2275
2991 305
2991 1760
2991 2269
2992 315
2992 1697
2992 2241
2993 318
2993 1725
2993 2219
2994 268
2994 1752
2994 2291
2995 260
2995 1714
2995 2271
2996 294
2996 1709
2996 2252
2997 351
2997 1694
2997 2221
2998 337
2998 1719
2998 2289
2999 298
2999 1696
2999 2211
3000 291
3000 1747
3000 2200
3001 365
3001 1751
3001 2202
3002 322
3002 1758
3002 2197
3003 301
3003 1675
3003 2272
3004 354
3004 1733
3004 2214
3005 339
3005 1715
3005 2273
3006 288
3006 1703
3006 2296
3007 348
3007 1773
3007 2251
3008 262
3008 1712
3008 2276
3009 296
3009 1778
3009 2198
3010 378
3010 1771
3010 2235
3011 299
3011 1683
3011 2212
3012 377
3012 1744
3012 2217
3013 349
3013 1705
3013 2192
3014 356
3014 1741
3014 2180
3015 290
3015 1699
3015 2181
3016 334
3016 1783
3016 2237
3017 342
3017 1748
3017 2274
3018 269
3018 1765
3018 2260
3019 382
3019 1710
3019 2178
3020 321
3020 1717
3020 2288
3021 379
3021 1668
3021 2186
3022 312
3022 1692
3022 2231
3023 277
3023 1782
3023 2210
3024 359
3024 1767
3024 2182
3025 271
3025 1745
3025 2238
3026 333
3026 1735
3026 2263
3027 371
3027 1777
3027 2293
3028 352
3028 1700
3028 2188
3029 303
3029 1707
3029 2187
3030 310
3030 1768
3030 2193
3031 317
3031 1788
3031 2233
3032 282
3032 1781
3032 2220
3033 300
3033 1727
3033 2215
3034 261
3034 1720
3034 2281
3035 350
3035 1670
3035 2243
3036 330
3036 1726
3036 2277
3037 311
3037 1740
3037 2190
3038 320
3038 1755
3038 2247
3039 314
3039 1693
3039 2246
3040 279
3040 1754
3040 2297
3041 363
3041 1746
3041 2179
3042 345
3042 1690
3042 2253
3043 344
3043 1664
3043 2230
3044 308
3044 1734
3044 2223
3045 263
3045 1685
3045 2258
3046 374
3046 1774
3046 2209
3047 272
3047 1728
3047 2177
3048 347
3048 1738
3048 2244
3049 273
3049 1698
3049 2254
3050 286
3050 1682
3050 2196
3051 309
3051 1759
3051 2264
3052 329
3052 1684
3052 2239
3053 364
3053 1775
3053 2240
3054 381
3054 1669
3054 2286
3055 372
3055 1763
3055 2206
3056 257
3056 1671
3056 2229
3057 274
3057 1737
3057 2224
3058 304
3058 1681
3058 2259
3059 297
3059 1769
3059 2279
3060 332
3060 1667
3060 2185
3061 367
3061 1742
3061 2266
3062 325
3062 1784
3062 2299
3063 278
3063 1757
3063 2199
3064 324
3064 1770
3064 2249
3065 280
3065 1776
3065 2183
3066 327
3066 1695
3066 2282
3067 328
3067 1716
3067 2280
3068 346
3068 1764
3068 2234
3069 264
3069 1679
3069 2236
3070 295
3070 1674
3070 2242
3071 383
3071 1761
3071 2245
3072 422
3072 953
3072 2320
3073 501
3073 947
3073 2364
3074 450
3074 913
3074 2429
3075 386
3075 936
3075 2311
3076 441
3076 962
3076 2345
3077 442
3077 902
3077 2396
3078 406
3078 969
3078 2317
3079 447
3079 945
3079 2377
3080 503
3080 955
3080 2321
3081 509
3081 979
3081 2357
3082 486
3082 920
3082 2387
3083 454
3083 927
3083 2327
3084 496
3084 905
3084 2386
3085 399
3085 926
3085 2382
3086 461
3086 928
3086 2306
3087 401
3087 951
3087 2356
3088 407
3088 958
3088 2330
3089 500
3089 1013
3089 2388
3090 396
3090 923
3090 2402
3091 428
3091 946
3091 2395
3092 474
3092 931
3092 2421
3093 477
3093 982
3093 2401
3094 445
3094 956
3094 2367
3095 391
3095 918
3095 2389
3096 444
3096 952
3096 2328
3097 409
3097 993
3097 2363
3098 479
3098 959
3098 2408
3099 470
3099 1009
3099 2358
3100 495
3100 1012
3100 2398
3101 421
3101 983
3101 2308
3102 387
3102 1011
3102 2393
3103 493
3103 896
3103 2407
3104 485
3104 901
3104 2340
3105 436
3105 990
3105 2428
3106 465
3106 1006
3106 2426
3107 471
3107 939
3107 2312
3108 393
3108 998
3108 2416
3109 498
3109 1022
3109 2346
3110 390
3110 976
3110 2344
3111 448
3111 941
3111 2323
3112 414
3112 957
3112 2405
3113 502
3113 919
3113 2361
3114 491
3114 1020
3114 2304
3115 416
3115 977
3115 2314
3116 492
3116 981
3116 2380
3117 462
3117 984
3117 2374
3118 395
3118 916
3118 2342
3119 504
3119 991
3119 2381
3120 388
3120 1023
3120 2348
3121 460
3121 908
3121 2352
3122 455
3122 907
3122 2384
3123 392
3123 898
3123 2325
3124 424
3124 978
3124 2373
3125 468
3125 964
3125 2354
3126 400
3126 973
3126 2399
3127 490
3127 992
3127 2420
3128 423
3128 929
3128 2425
3129 404
3129 985
3129 2397
3130 397
3130 932
3130 2430
3131 418
3131 986
3131 2391
3132 473
3132 1014
3132 2392
3133 508
3133 1008
3133 2418
3134 419
3134 906
3134 2332
3135 443
3135 948
3135 2315
3136 453
3136 961
3136 2424
3137 434
3137 933
3137 2360
3138 464
3138 921
3138 2411
3139 469
3139 922
3139 2406
3140 484
3140 994
3140 2329
3141 429
3141 942
3141 2316
3142 405
3142 915
3142 2337
3143 417
3143 1010
3143 2339
3144 506
3144 988
3144 2378
3145 394
3145 912
3145 2403
3146 466
3146 965
3146 2350
3147 449
3147 987
3147 2326
3148 410
3148 970
3148 2368
3149 482
3149 1005
3149 2318
3150 476
3150 934
3150 2414
3151 467
3151 943
3151 2334
3152 435
3152 1007
3152 2322
3153 489
3153 917
3153 2353
3154 494
3154 995
3154 2365
3155 425
3155 954
3155 2362
3156 384
3156 940
3156 2410
3157 420
3157 1016
3157 2331
3158 472
3158 1017
3158 2415
3159 431
3159 980
3159 2355
3160 505
3160 938
3160 2369
3161 480
3161 925
3161 2343
3162 499
3162 903
3162 2319
3163 483
3163 899
3163 2305
3164 415
3164 1001
3164 2394
3165 451
3165 967
3165 2379
3166 408
3166 972
3166 2423
3167 458
3167 930
3167 2310
3168 433
3168 904
3168 2400
3169 411
3169 924
3169 2336
3170 440
3170 949
3170 2390
3171 478
3171 963
3171 2309
3172 487
3172 974
3172 2370
3173 426
3173 1004
3173 2359
3174 427
3174 950
3174 2427
3175 510
3175 1003
3175 2417
3176 439
3176 1021
3176 2383
3177 459
3177 966
3177 2338
3178 402
3178 960
3178 2412
3179 511
3179 944
3179 2341
3180 432
3180 911
3180 2372
3181 457
3181 975
3181 2347
3182 413
3182 999
3182 2376
3183 389
3183 900
3183 2409
3184 463
3184 968
3184 2324
3185 456
3185 989
3185 2333
3186 481
3186 1015
3186 2351
3187 452
3187 937
3187 2413
3188 385
3188 1000
3188 2335
3189 488
3189 914
3189 2349
3190 403
3190 897
3190 2385
3191 430
3191 997
3191 2422
3192 497
3192 909
3192 2431
3193 438
3193 971
3193 2307
3194 446
3194 1018
3194 2419
3195 475
3195 910
3195 2313
3196 398
3196 1002
3196 2404
3197 437
3197 1019
3197 2371
3198 507
3198 935
3198 2375
3199 412
3199 996
3199 2366
3200 555
3200 1034
3200 2444
3201 639
3201 1126
3201 2450
3202 599
3202 1093
3202 2517
3203 556
3203 1052
3203 2458
3204 588
3204 1095
3204 2494
3205 634
3205 1048
3205 2435
3206 600
3206 1109
3206 2509
3207 559
3207 1040
3207 2460
3208 592
3208 1081
3208 2514
3209 532
3209 1123
3209 2544
3210 513
3210 1075
3210 2453
3211 575
3211 1088
3211 2451
3212 570
3212 1082
3212 2455
3213 526
3213 1053
3213 2486
3214 610
3214 1138
3214 2528
3215 536
3215 1117
3215 2432
3216 522
3216 1087
3216 2468
3217 576
3217 1065
3217 2433
3218 525
3218 1135
3218 2469
3219 608
3219 1054
3219 2496
3220 605
3220 1055
3220 2505
3221 597
3221 1041
3221 2495
3222 527
3222 1083
3222 2500
3223 563
3223 1133
3223 2536
3224 568
3224 1111
3224 2480
3225 598
3225 1119
3225 2516
3226 629
3226 1028
3226 2488
3227 637
3227 1077
3227 2473
3228 558
3228 1141
3228 2484
3229 601
3229 1096
3229 2552
3230 546
3230 1032
3230 2474
3231 540
3231 1099
3231 2543
3232 604
3232 1129
3232 2558
3233 631
3233 1049
3233 2497
3234 606
3234 1033
3234 2441
3235 609
3235 1086
3235 2439
3236 529
3236 1128
3236 2533
3237 617
3237 1136
3237 2556
3238 534
3238 1145
3238 2548
3239 626
3239 1080
3239 2539
3240 628
3240 1079
3240 2479
3241 632
3241 1070
3241 2436
3242 584
3242 1078
3242 2559
3243 512
3243 1063
3243 2535
3244 521
3244 1090
3244 2557
3245 579
3245 1110
3245 2510
3246 571
3246 1084
3246 2457
3247 538
3247 1062
3247 2472
3248 565
3248 1142
3248 2515
3249 596
3249 1047
3249 2438
3250 552
3250 1150
3250 2520
3251 530
3251 1113
3251 2445
3252 547
3252 1042
3252 2554
3253 625
3253 1031
3253 2449
3254 619
3254 1046
3254 2525
3255 618
3255 1059
3255 2545
3256 520
3256 1066
3256 2521
3257 523
3257 1094
3257 2532
3258 578
3258 1120
3258 2440
3259 615
3259 1067
3259 2537
3260 602
3260 1038
3260 2491
3261 638
3261 1027
3261 2499
3262 515
3262 1100
3262 2506
3263 573
3263 1026
3263 2503
3264 607
3264 1149
3264 2523
3265 539
3265 1134
3265 2437
3266 543
3266 1104
3266 2511
3267 514
3267 1060
3267 2448
3268 577
3268 1130
3268 2501
3269 593
3269 1148
3269 2483
3270 560
3270 1139
3270 2547
3271 516
3271 1137
3271 2549
3272 524
3272 1125
3272 2475
3273 541
3273 1064
3273 2463
3274 557
3274 1118
3274 2534
3275 585
3275 1050
3275 2447
3276 580
3276 1074
3276 2508
3277 594
3277 1037
3277 2446
3278 517
3278 1091
3278 2471
3279 581
3279 1131
3279 2493
3280 612
3280 1101
3280 2454
3281 614
3281 1068
3281 2492
3282 572
3282 1069
3282 2464
3283 564
3283 1051
3283 2476
3284 591
3284 1098
3284 2502
3285 549
3285 1102
3285 2542
3286 542
3286 1030
3286 2527
3287 613
3287 1124
3287 2442
3288 531
3288 1085
3288 2541
3289 611
3289 1025
3289 2550
3290 589
3290 1073
3290 2504
3291 562
3291 1056
3291 2513
3292 595
3292 1144
3292 2498
3293 567
3293 1061
3293 2485
3294 548
3294 1058
3294 2553
3295 635
3295 1147
3295 2452
3296 566
3296 1122
3296 2490
3297 544
3297 1121
3297 2466
3298 627
3298 1089
3298 2551
3299 623
3299 1036
3299 2434
3300 535
3300 1143
3300 2531
3301 586
3301 1140
3301 2512
3302 519
3302 1112
3302 2482
3303 545
3303 1107
3303 2538
3304 620
3304 1097
3304 2456
3305 622
3305 1116
3305 2489
3306 528
3306 1127
3306 2529
3307 550
3307 1115
3307 2487
3308 533
3308 1043
3308 2481
3309 616
3309 1146
3309 2530
3310 590
3310 1044
3310 2467
3311 574
3311 1035
3311 2465
3312 553
3312 1029
3312 2478
3313 569
3313 1108
3313 2522
3314 561
3314 1071
3314 2461
3315 621
3315 1132
3315 2540
3316 603
3316 1057
3316 2526
3317 582
3317 1114
3317 2443
3318 630
3318 1024
3318 2470
3319 636
3319 1045
3319 2507
3320 633
3320 1151
3320 2462
3321 518
3321 1039
3321 2524
3322 587
3322 1076
3322 2546
3323 583
3323 1105
3323 2459
3324 624
3324 1072
3324 2477
3325 537
3325 1092
3325 2519
3326 551
3326 1106
3326 2518
3327 554
3327 1103
3327 2555
3328 715
3328 1255
3328 2596
3329 761
3329 1199
3329 2668
3330 745
3330 1251
3330 2649
3331 680
3331 1161
3331 2609
3332 678
3332 1209
3332 2633
3333 698
3333 1253
3333 2671
3334 670
3334 1257
3334 2626
3335 767
3335 1157
3335 2655
3336 736
3336 1162
3336 2562
3337 741
3337 1170
3337 2606
3338 652
3338 1269
3338 2651
3339 663
3339 1241
3339 2664
3340 649
3340 1240
3340 2574
3341 673
3341 1217
3341 2672
3342 656
3342 1252
3342 2636
3343 757
3343 1186
3343 2622
3344 644
3344 1206
3344 2658
3345 737
3345 1152
3345 2644
3346 674
3346 1165
3346 2577
3347 645
3347 1267
3347 2648
3348 651
3348 1177
3348 2561
3349 684
3349 1196
3349 2618
3350 760
3350 1153
3350 2657
3351 718
3351 1194
3351 2616
3352 762
3352 1212
3352 2584
3353 732
3353 1213
3353 2676
3354 747
3354 1180
3354 2652
3355 667
3355 1232
3355 2576
3356 661
3356 1211
3356 2598
3357 729
3357 1235
3357 2570
3358 735
3358 1163
3358 2587
3359 709
3359 1238
3359 2621
3360 676
3360 1277
3360 2683
3361 648
3361 1173
3361 2573
3362 759
3362 1274
3362 2635
3363 653
3363 1155
3363 2647
3364 744
3364 1171
3364 2614
3365 666
3365 1191
3365 2685
3366 748
3366 1215
3366 2575
3367 713
3367 1216
3367 2631
3368 742
3368 1239
3368 2624
3369 660
3369 1244
3369 2603
3370 694
3370 1278
3370 2645
3371 751
3371 1271
3371 2627
3372 714
3372 1214
3372 2641
3373 743
3373 1220
3373 2605
3374 755
3374 1259
3374 2582
3375 659
3375 1190
3375 2581
3376 766
3376 1224
3376 2564
3377 695
3377 1275
3377 2637
3378 712
3378 1243
3378 2563
3379 691
3379 1160
3379 2592
3380 681
3380 1166
3380 2620
3381 753
3381 1234
3381 2625
3382 708
3382 1219
3382 2612
3383 697
3383 1207
3383 2590
3384 738
3384 1178
3384 2632
3385 640
3385 1227
3385 2569
3386 725
3386 1179
3386 2589
3387 643
3387 1249
3387 2686
3388 657
3388 1258
3388 2595
3389 758
3389 1247
3389 2628
3390 728
3390 1169
3390 2604
3391 750
3391 1210
3391 2611
3392 722
3392 1172
3392 2585
3393 668
3393 1200
3393 2643
3394 664
3394 1236
3394 2642
3395 724
3395 1225
3395 2665
3396 696
3396 1260
3396 2608
3397 654
3397 1197
3397 2565
3398 749
3398 1156
3398 2663
3399 723
3399 1175
3399 2667
3400 690
3400 1223
3400 2660
3401 710
3401 1245
3401 2560
3402 679
3402 1164
3402 2669
3403 733
3403 1176
3403 2670
3404 658
3404 1272
3404 2661
3405 669
3405 1205
3405 2675
3406 754
3406 1262
3406 2673
3407 682
3407 1228
3407 2678
3408 688
3408 1231
3408 2566
3409 739
3409 1167
3409 2578
3410 719
3410 1204
3410 2623
3411 701
3411 1248
3411 2674
3412 702
3412 1195
3412 2659
3413 765
3413 1208
3413 2666
3414 683
3414 1256
3414 2579
3415 647
3415 1198
3415 2639
3416 707
3416 1182
3416 2684
3417 692
3417 1273
3417 2650
3418 686
3418 1154
3418 2662
3419 740
3419 1168
3419 2682
3420 721
3420 1266
3420 2687
3421 703
3421 1263
3421 2580
3422 731
3422 1222
3422 2630
3423 704
3423 1264
3423 2640
3424 665
3424 1233
3424 2572
3425 646
3425 1242
3425 2653
3426 675
3426 1261
3426 2588
3427 671
3427 1229
3427 2680
3428 677
3428 1193
3428 2656
3429 734
3429 1230
3429 2619
3430 699
3430 1268
3430 2681
3431 641
3431 1226
3431 2679
3432 726
3432 1250
3432 2568
3433 716
3433 1276
3433 2593
3434 746
3434 1254
3434 2610
3435 711
3435 1237
3435 2591
3436 687
3436 1270
3436 2594
3437 752
3437 1187
3437 2634
3438 727
3438 1279
3438 2583
3439 693
3439 1201
3439 2607
3440 730
3440 1265
3440 2602
3441 655
3441 1185
3441 2601
3442 672
3442 1188
3442 2638
3443 642
3443 1203
3443 2597
3444 763
3444 1192
3444 2629
3445 764
3445 1159
3445 2600
3446 700
3446 1189
3446 2571
3447 756
3447 1218
3447 2654
3448 689
3448 1158
3448 2617
3449 717
3449 1221
3449 2599
3450 706
3450 1184
3450 2615
3451 720
3451 1174
3451 2567
3452 685
3452 1246
3452 2586
3453 650
3453 1181
3453 2646
3454 705
3454 1202
3454 2613
3455 662
3455 1183
3455 2677
3456 890
3456 1330
3456 1819
3457 819
3457 1318
3457 1823
3458 861
3458 1400
3458 1812
3459 880
3459 1406
3459 1891
3460 771
3460 1344
3460 1810
3461 835
3461 1312
3461 1917
3462 778
3462 1336
3462 1902
3463 772
3463 1346
3463 1900
3464 843
3464 1291
3464 1828
3465 793
3465 1403
3465 1918
3466 796
3466 1359
3466 1838
3467 829
3467 1316
3467 1796
3468 871
3468 1284
3468 1804
3469 814
3469 1379
3469 1886
3470 891
3470 1357
3470 1907
3471 813
3471 1337
3471 1840
3472 889
3472 1370
3472 1797
3473 824
3473 1358
3473 1809
3474 830
3474 1367
3474 1826
3475 837
3475 1362
3475 1850
3476 783
3476 1388
3476 1842
3477 808
3477 1317
3477 1889
3478 839
3478 1355
3478 1837
3479 831
3479 1369
3479 1834
3480 773
3480 1401
3480 1883
3481 779
3481 1404
3481 1868
3482 820
3482 1289
3482 1869
3483 856
3483 1285
3483 1863
3484 797
3484 1324
3484 1818
3485 774
3485 1353
3485 1813
3486 798
3486 1382
3486 1806
3487 872
3487 1341
3487 1801
3488 780
3488 1333
3488 1914
3489 786
3489 1323
3489 1871
3490 800
3490 1402
3490 1878
3491 876
3491 1286
3491 1866
3492 841
3492 1326
3492 1855
3493 811
3493 1405
3493 1795
3494 784
3494 1391
3494 1814
3495 794
3495 1374
3495 1832
3496 781
3496 1320
3496 1839
3497 886
3497 1338
3497 1851
3498 895
3498 1306
3498 1884
3499 788
3499 1390
3499 1888
3500 777
3500 1297
3500 1913
3501 854
3501 1384
3501 1798
3502 847
3502 1373
3502 1860
3503 855
3503 1283
3503 1831
3504 846
3504 1328
3504 1897
3505 845
3505 1349
3505 1858
3506 825
3506 1399
3506 1802
3507 881
3507 1332
3507 1794
3508 836
3508 1280
3508 1821
3509 812
3509 1345
3509 1899
3510 817
3510 1321
3510 1894
3511 792
3511 1311
3511 1873
3512 775
3512 1342
3512 1836
3513 888
3513 1322
3513 1830
3514 879
3514 1383
3514 1799
3515 805
3515 1380
3515 1882
3516 892
3516 1292
3516 1807
3517 827
3517 1389
3517 1853
3518 874
3518 1356
3518 1898
3519 867
3519 1325
3519 1822
3520 791
3520 1313
3520 1887
3521 869
3521 1294
3521 1827
3522 864
3522 1368
3522 1820
3523 789
3523 1363
3523 1885
3524 844
3524 1301
3524 1870
3525 858
3525 1302
3525 1906
3526 887
3526 1335
3526 1864
3527 810
3527 1365
3527 1841
3528 853
3528 1376
3528 1845
3529 828
3529 1350
3529 1803
3530 768
3530 1394
3530 1881
3531 807
3531 1352
3531 1861
3532 875
3532 1378
3532 1846
3533 787
3533 1360
3533 1848
3534 795
3534 1319
3534 1880
3535 832
3535 1407
3535 1854
3536 849
3536 1281
3536 1877
3537 859
3537 1364
3537 1911
3538 850
3538 1397
3538 1825
3539 873
3539 1310
3539 1865
3540 823
3540 1351
3540 1910
3541 857
3541 1334
3541 1919
3542 801
3542 1395
3542 1901
3543 790
3543 1347
3543 1852
3544 833
3544 1354
3544 1876
3545 818
3545 1392
3545 1856
3546 863
3546 1303
3546 1874
3547 804
3547 1296
3547 1908
3548 860
3548 1314
3548 1915
3549 840
3549 1398
3549 1896
3550 822
3550 1361
3550 1792
3551 834
3551 1371
3551 1857
3552 802
3552 1396
3552 1872
3553 862
3553 1339
3553 1905
3554 878
3554 1304
3554 1844
3555 806
3555 1366
3555 1800
3556 799
3556 1315
3556 1843
3557 893
3557 1305
3557 1793
3558 866
3558 1372
3558 1833
3559 877
3559 1340
3559 1909
3560 868
3560 1385
3560 1875
3561 851
3561 1309
3561 1893
3562 815
3562 1300
3562 1811
3563 809
3563 1386
3563 1890
3564 865
3564 1381
3564 1903
3565 770
3565 1293
3565 1815
3566 803
3566 1331
3566 1808
3567 870
3567 1298
3567 1849
3568 821
3568 1287
3568 1816
3569 769
3569 1307
3569 1892
3570 884
3570 1377
3570 1805
3571 782
3571 1282
3571 1859
3572 894
3572 1343
3572 1824
3573 848
3573 1299
3573 1916
3574 838
3574 1290
3574 1817
3575 785
3575 1295
3575 1835
3576 852
3576 1329
3576 1912
3577 885
3577 1348
3577 1895
3578 776
3578 1375
3578 1867
3579 882
3579 1288
3579 1847
3580 842
3580 1327
3580 1862
3581 816
3581 1393
3581 1879
3582 883
3582 1387
3582 1829
3583 826
3583 1308
3583 1904
3584 58
3584 1372
3584 2616
3585 102
3585 1398
3585 2575
3586 104
3586 1314
3586 2565
3587 95
3587 1344
3587 2663
3588 84
3588 1325
3588 2590
3589 97
3589 1378
3589 2665
3590 38
3590 1330
3590 2586
3591 88
3591 1289
3591 2661
3592 21
3592 1283
3592 2656
3593 71
3593 1339
3593 2682
3594 121
3594 1382
3594 2680
3595 20
3595 1348
3595 2626
3596 73
3596 1371
3596 2662
3597 69
3597 1280
3597 2578
3598 0
3598 1318
3598 2628
3599 94
3599 1377
3599 2634
3600 13
3600 1390
3600 2625
3601 91
3601 1363
3601 2669
3602 37
3602 1291
3602 2624
3603 50
3603 1310
3603 2672
3604 6
3604 1385
3604 2591
3605 22
3605 1361
3605 2681
3606 16
3606 1367
3606 2597
3607 83
3607 1379
3607 2605
3608 108
3608 1311
3608 2577
3609 12
3609 1353
3609 2618
3610 54
3610 1294
3610 2595
3611 68
3611 1364
3611 2580
3612 45
3612 1305
3612 2589
3613 62
3613 1362
3613 2649
3614 32
3614 1306
3614 2594
3615 123
3615 1345
3615 2593
3616 77
3616 1366
3616 2640
3617 41
3617 1400
3617 2647
3618 65
3618 1342
3618 2599
3619 14
3619 1396
3619 2614
3620 66
3620 1334
3620 2653
3621 82
3621 1332
3621 2569
3622 72
3622 1302
3622 2615
3623 60
3623 1297
3623 2583
3624 30
3624 1352
3624 2602
3625 103
3625 1301
3625 2567
3626 2
3626 1394
3626 2609
3627 99
3627 1284
3627 2622
3628 75
3628 1286
3628 2585
3629 33
3629 1395
3629 2674
3630 26
3630 1402
3630 2642
3631 81
3631 1369
3631 2675
3632 70
3632 1387
3632 2635
3633 78
3633 1320
3633 2631
3634 114
3634 1406
3634 2566
3635 122
3635 1293
3635 2684
3636 109
3636 1373
3636 2563
3637 127
3637 1303
3637 2685
3638 93
3638 1343
3638 2607
3639 7
3639 1380
3639 2560
3640 55
3640 1331
3640 2579
3641 23
3641 1393
3641 2636
3642 8
3642 1349
3642 2613
3643 39
3643 1338
3643 2598
3644 3
3644 1388
3644 2652
3645 115
3645 1329
3645 2592
3646 90
3646 1370
3646 2568
3647 25
3647 1374
3647 2666
3648 29
3648 1397
3648 2611
3649 28
3649 1404
3649 2648
3650 5
3650 1321
3650 2564
3651 79
3651 1381
3651 2612
3652 92
3652 1376
3652 2658
3653 43
3653 1391
3653 2670
3654 124
3654 1359
3654 2644
3655 126
3655 1358
3655 2581
3656 118
3656 1383
3656 2630
3657 61
3657 1392
3657 2633
3658 27
3658 1403
3658 2604
3659 113
3659 1296
3659 2638
3660 42
3660 1282
3660 2620
3661 34
3661 1401
3661 2582
3662 52
3662 1346
3662 2623
3663 96
3663 1351
3663 2668
3664 101
3664 1285
3664 2650
3665 111
3665 1308
3665 2629
3666 80
3666 1298
3666 2596
3667 31
3667 1335
3667 2562
3668 35
3668 1323
3668 2646
3669 53
3669 1281
3669 2676
3670 18
3670 1300
3670 2686
3671 86
3671 1295
3671 2617
3672 47
3672 1292
3672 2654
3673 110
3673 1327
3673 2679
3674 64
3674 1405
3674 2659
3675 105
3675 1333
3675 2632
3676 63
3676 1340
3676 2678
3677 10
3677 1354
3677 2573
3678 57
3678 1322
3678 2664
3679 1
3679 1307
3679 2572
3680 11
3680 1315
3680 2571
3681 44
3681 1347
3681 2687
3682 36
3682 1288
3682 2621
3683 24
3683 1287
3683 2606
3684 51
3684 1407
3684 2657
3685 117
3685 1375
3685 2570
3686 100
3686 1365
3686 2561
3687 85
3687 1313
3687 2651
3688 15
3688 1336
3688 2587
3689 4
3689 1290
3689 2584
3690 19
3690 1309
3690 2671
3691 89
3691 1389
3691 2588
3692 116
3692 1326
3692 2574
3693 98
3693 1316
3693 2608
3694 120
3694 1304
3694 2677
3695 107
3695 1384
3695 2643
3696 74
3696 1399
3696 2576
3697 119
3697 1360
3697 2610
3698 17
3698 1386
3698 2683
3699 48
3699 1356
3699 2619
3700 59
3700 1341
3700 2603
3701 49
3701 1357
3701 2600
3702 112
3702 1368
3702 2639
3703 76
3703 1324
3703 2660
3704 67
3704 1328
3704 2637
3705 46
3705 1312
3705 2673
3706 56
3706 1355
3706 2667
3707 40
3707 1299
3707 2645
3708 106
3708 1319
3708 2641
3709 87
3709 1337
3709 2627
3710 125
3710 1317
3710 2601
3711 9
3711 1350
3711 2655
3712 143
3712 1416
3712 1855
3713 218
3713 1463
3713 1888
3714 140
3714 1507
3714 1895
3715 171
3715 1487
3715 1861
3716 222
3716 1523
3716 1825
3717 234
3717 1491
3717 1827
3718 142
3718 1421
3718 1849
3719 219
3719 1460
3719 1890
3720 228
3720 1505
3720 1875
3721 251
3721 1470
3721 1829
3722 230
3722 1533
3722 1858
3723 191
3723 1435
3723 1838
3724 183
3724 1479
3724 1816
3725 176
3725 1534
3725 1893
3726 172
3726 1500
3726 1806
3727 235
3727 1520
3727 1865
3728 225
3728 1429
3728 1869
3729 248
3729 1448
3729 1812
3730 231
3730 1524
3730 1795
3731 135
3731 1426
3731 1844
3732 238
3732 1484
3732 1800
3733 244
3733 1462
3733 1878
3734 156
3734 1425
3734 1852
3735 255
3735 1427
3735 1912
3736 162
3736 1433
3736 1817
3737 249
3737 1412
3737 1916
3738 216
3738 1413
3738 1823
3739 233
3739 1474
3739 1837
3740 177
3740 1472
3740 1872
3741 133
3741 1466
3741 1845
3742 150
3742 1414
3742 1909
3743 223
3743 1411
3743 1856
3744 134
3744 1503
3744 1868
3745 151
3745 1464
3745 1811
3746 152
3746 1457
3746 1867
3747 182
3747 1493
3747 1813
3748 201
3748 1449
3748 1820
3749 202
3749 1480
3749 1819
3750 239
3750 1514
3750 1881
3751 221
3751 1527
3751 1836
3752 169
3752 1512
3752 1902
3753 188
3753 1486
3753 1900
3754 214
3754 1495
3754 1886
3755 253
3755 1535
3755 1828
3756 186
3756 1456
3756 1917
3757 193
3757 1498
3757 1914
3758 210
3758 1441
3758 1802
3759 213
3759 1481
3759 1903
3760 153
3760 1454
3760 1853
3761 243
3761 1478
3761 1846
3762 131
3762 1410
3762 1918
3763 168
3763 1442
3763 1906
3764 224
3764 1452
3764 1911
3765 206
3765 1508
3765 1809
3766 215
3766 1501
3766 1804
3767 189
3767 1485
3767 1815
3768 165
3768 1468
3768 1913
3769 245
3769 1517
3769 1864
3770 217
3770 1529
3770 1824
3771 226
3771 1496
3771 1863
3772 173
3772 1455
3772 1904
3773 158
3773 1476
3773 1910
3774 145
3774 1504
3774 1859
3775 149
3775 1430
3775 1818
3776 179
3776 1436
3776 1801
3777 241
3777 1516
3777 1876
3778 190
3778 1418
3778 1833
3779 198
3779 1420
3779 1831
3780 227
3780 1444
3780 1873
3781 161
3781 1513
3781 1839
3782 204
3782 1506
3782 1884
3783 203
3783 1530
3783 1905
3784 138
3784 1477
3784 1826
3785 194
3785 1424
3785 1854
3786 139
3786 1497
3786 1908
3787 180
3787 1509
3787 1792
3788 199
3788 1522
3788 1882
3789 157
3789 1521
3789 1830
3790 250
3790 1451
3790 1850
3791 209
3791 1459
3791 1805
3792 155
3792 1461
3792 1840
3793 166
3793 1511
3793 1832
3794 242
3794 1488
3794 1807
3795 137
3795 1519
3795 1907
3796 236
3796 1422
3796 1793
3797 185
3797 1446
3797 1797
3798 159
3798 1494
3798 1880
3799 254
3799 1437
3799 1898
3800 160
3800 1518
3800 1866
3801 232
3801 1458
3801 1894
3802 211
3802 1526
3802 1901
3803 252
3803 1475
3803 1847
3804 196
3804 1465
3804 1803
3805 187
3805 1471
3805 1857
3806 128
3806 1415
3806 1862
3807 195
3807 1443
3807 1883
3808 181
3808 1419
3808 1821
3809 174
3809 1453
3809 1870
3810 167
3810 1525
3810 1810
3811 163
3811 1489
3811 1796
3812 246
3812 1450
3812 1892
3813 212
3813 1490
3813 1887
3814 144
3814 1423
3814 1798
3815 148
3815 1510
3815 1915
3816 146
3816 1432
3816 1879
3817 130
3817 1445
3817 1889
3818 170
3818 1532
3818 1842
3819 178
3819 1502
3819 1848
3820 237
3820 1428
3820 1896
3821 205
3821 1447
3821 1834
3822 154
3822 1499
3822 1814
3823 175
3823 1531
3823 1808
3824 132
3824 1483
3824 1899
3825 247
3825 1409
3825 1851
3826 208
3826 1431
3826 1897
3827 197
3827 1469
3827 1885
3828 136
3828 1482
3828 1835
3829 129
3829 1417
3829 1794
3830 207
3830 1440
3830 1799
3831 164
3831 1515
3831 1822
3832 229
3832 1467
3832 1877
3833 192
3833 1408
3833 1919
3834 200
3834 1439
3834 1860
3835 141
3835 1473
3835 1843
3836 147
3836 1438
3836 1874
3837 184
3837 1492
3837 1871
3838 240
3838 1434
3838 1841
3839 220
3839 1528
3839 1891
3840 372
3840 1589
3840 1983
3841 365
3841 1593
3841 2005
3842 356
3842 1618
3842 1988
3843 294
3843 1538
3843 1937
3844 382
3844 1607
3844 2022
3845 272
3845 1564
3845 2018
3846 264
3846 1594
3846 1958
3847 301
3847 1602
3847 2000
3848 327
3848 1596
3848 2029
3849 306
3849 1550
3849 1989
3850 330
3850 1601
3850 1970
3851 268
3851 1579
3851 1978
3852 282
3852 1608
3852 1999
3853 286
3853 1609
3853 1941
3854 323
3854 1625
3854 1940
3855 369
3855 1624
3855 1964
3856 367
3856 1638
3856 1952
3857 263
3857 1558
3857 2042
3858 336
3858 1553
3858 1951
3859 288
3859 1549
3859 2031
3860 299
3860 1557
3860 1925
3861 279
3861 1613
3861 1990
3862 350
3862 1621
3862 1944
3863 373
3863 1640
3863 1975
3864 354
3864 1545
3864 1927
3865 366
3865 1572
3865 2006
3866 322
3866 1597
3866 2001
3867 333
3867 1631
3867 1928
3868 347
3868 1642
3868 2044
3869 320
3869 1619
3869 1921
3870 256
3870 1539
3870 1955
3871 285
3871 1612
3871 2013
3872 325
3872 1570
3872 1922
3873 362
3873 1622
3873 1980
3874 315
3874 1623
3874 1981
3875 259
3875 1635
3875 2023
3876 303
3876 1562
3876 2040
3877 358
3877 1660
3877 1934
3878 332
3878 1653
3878 1943
3879 338
3879 1657
3879 1933
3880 377
3880 1633
3880 2009
3881 368
3881 1565
3881 2038
3882 349
3882 1648
3882 1994
3883 292
3883 1548
3883 1967
3884 334
3884 1575
3884 1973
3885 308
3885 1620
3885 2024
3886 324
3886 1556
3886 1998
3887 293
3887 1652
3887 1931
3888 340
3888 1585
3888 2035
3889 281
3889 1542
3889 1947
3890 359
3890 1644
3890 1924
3891 316
3891 1574
3891 1949
3892 284
3892 1659
3892 2014
3893 271
3893 1595
3893 1953
3894 355
3894 1651
3894 1950
3895 265
3895 1614
3895 2010
3896 331
3896 1655
3896 1992
3897 352
3897 1555
3897 1935
3898 277
3898 1590
3898 2026
3899 378
3899 1656
3899 2027
3900 291
3900 1630
3900 1926
3901 313
3901 1586
3901 2046
3902 353
3902 1662
3902 1972
3903 275
3903 1658
3903 1936
3904 305
3904 1584
3904 2025
3905 297
3905 1583
3905 1982
3906 335
3906 1566
3906 2016
3907 370
3907 1600
3907 1996
3908 296
3908 1641
3908 2043
3909 274
3909 1654
3909 2008
3910 300
3910 1636
3910 1962
3911 342
3911 1592
3911 1993
3912 380
3912 1588
3912 2004
3913 381
3913 1606
3913 1995
3914 290
3914 1578
3914 2037
3915 383
3915 1643
3915 1954
3916 266
3916 1628
3916 2003
3917 337
3917 1626
3917 2012
3918 345
3918 1603
3918 1948
3919 374
3919 1617
3919 1977
3920 343
3920 1544
3920 1938
3921 269
3921 1576
3921 2015
3922 270
3922 1629
3922 1929
3923 262
3923 1552
3923 1969
3924 357
3924 1543
3924 1959
3925 326
3925 1632
3925 2034
3926 267
3926 1581
3926 1986
3927 341
3927 1611
3927 1939
3928 318
3928 1559
3928 1942
3929 257
3929 1561
3929 1971
3930 319
3930 1663
3930 2033
3931 260
3931 1563
3931 1979
3932 258
3932 1571
3932 2032
3933 329
3933 1604
3933 2007
3934 321
3934 1627
3934 2036
3935 283
3935 1573
3935 1945
3936 278
3936 1582
3936 1920
3937 298
3937 1537
3937 1991
3938 307
3938 1605
3938 1987
3939 276
3939 1536
3939 2030
3940 261
3940 1567
3940 2019
3941 364
3941 1540
3941 2021
3942 289
3942 1616
3942 2017
3943 371
3943 1661
3943 1946
3944 309
3944 1569
3944 2039
3945 376
3945 1650
3945 1963
3946 304
3946 1598
3946 2011
3947 360
3947 1645
3947 2028
3948 312
3948 1639
3948 1997
3949 310
3949 1634
3949 1985
3950 379
3950 1546
3950 2045
3951 287
3951 1560
3951 2020
3952 344
3952 1551
3952 1960
3953 314
3953 1615
3953 1965
3954 361
3954 1577
3954 1956
3955 311
3955 1580
3955 1932
3956 351
3956 1554
3956 1957
3957 273
3957 1547
3957 1974
3958 348
3958 1568
3958 2047
3959 363
3959 1610
3959 1984
3960 375
3960 1591
3960 1976
3961 302
3961 1599
3961 1930
3962 317
3962 1649
3962 1923
3963 346
3963 1587
3963 1968
3964 328
3964 1647
3964 2002
3965 295
3965 1541
3965 1961
3966 280
3966 1646
3966 1966
3967 339
3967 1637
3967 2041
3968 479
3968 1670
3968 2110
3969 469
3969 1790
3969 2048
3970 470
3970 1778
3970 2135
3971 460
3971 1771
3971 2157
3972 441
3972 1758
3972 2134
3973 428
3973 1739
3973 2120
3974 450
3974 1766
3974 2100
3975 496
3975 1770
3975 2136
3976 412
3976 1667
3976 2095
3977 494
3977 1743
3977 2068
3978 487
3978 1742
3978 2150
3979 408
3979 1749
3979 2138
3980 397
3980 1738
3980 2064
3981 462
3981 1677
3981 2128
3982 464
3982 1735
3982 2143
3983 500
3983 1719
3983 2159
3984 387
3984 1763
3984 2104
3985 443
3985 1751
3985 2072
3986 486
3986 1776
3986 2156
3987 444
3987 1666
3987 2092
3988 475
3988 1734
3988 2148
3989 418
3989 1687
3989 2083
3990 404
3990 1695
3990 2132
3991 466
3991 1767
3991 2119
3992 414
3992 1733
3992 2174
3993 461
3993 1707
3993 2057
3994 442
3994 1760
3994 2165
3995 389
3995 1664
3995 2108
3996 400
3996 1708
3996 2109
3997 505
3997 1723
3997 2055
3998 482
3998 1672
3998 2162
3999 481
3999 1696
3999 2076
4000 504
4000 1774
4000 2167
4001 506
4001 1714
4001 2079
4002 456
4002 1753
4002 2166
4003 386
4003 1755
4003 2112
4004 447
4004 1718
4004 2069
4005 445
4005 1786
4005 2056
4006 403
4006 1690
4006 2126
4007 507
4007 1777
4007 2153
4008 415
4008 1727
4008 2080
4009 463
4009 1785
4009 2122
4010 458
4010 1691
4010 2098
4011 406
4011 1769
4011 2137
4012 502
4012 1750
4012 2114
4013 508
4013 1702
4013 2071
4014 493
4014 1674
4014 2154
4015 457
4015 1716
4015 2087
4016 491
4016 1737
4016 2158
4017 474
4017 1752
4017 2118
4018 426
4018 1741
4018 2116
4019 413
4019 1675
4019 2073
4020 455
4020 1732
4020 2050
4021 427
4021 1689
4021 2077
4022 388
4022 1680
4022 2070
4023 437
4023 1673
4023 2075
4024 440
4024 1768
4024 2141
4025 490
4025 1791
4025 2078
4026 510
4026 1762
4026 2088
4027 399
4027 1775
4027 2102
4028 465
4028 1711
4028 2094
4029 503
4029 1692
4029 2089
4030 511
4030 1748
4030 2175
4031 416
4031 1713
4031 2105
4032 459
4032 1729
4032 2172
4033 489
4033 1712
4033 2160
4034 467
4034 1701
4034 2130
4035 453
4035 1784
4035 2063
4036 498
4036 1678
4036 2062
4037 398
4037 1709
4037 2149
4038 390
4038 1705
4038 2053
4039 421
4039 1704
4039 2171
4040 436
4040 1764
4040 2097
4041 391
4041 1781
4041 2106
4042 497
4042 1684
4042 2173
4043 411
4043 1715
4043 2144
4044 454
4044 1725
4044 2142
4045 393
4045 1746
4045 2084
4046 422
4046 1693
4046 2115
4047 472
4047 1754
4047 2060
4048 509
4048 1759
4048 2127
4049 396
4049 1789
4049 2107
4050 492
4050 1745
4050 2085
4051 432
4051 1717
4051 2133
4052 425
4052 1731
4052 2058
4053 446
4053 1681
4053 2164
4054 430
4054 1787
4054 2169
4055 471
4055 1744
4055 2111
4056 438
4056 1747
4056 2082
4057 394
4057 1756
4057 2168
4058 420
4058 1679
4058 2066
4059 410
4059 1788
4059 2096
4060 499
4060 1676
4060 2067
4061 419
4061 1779
4061 2155
4062 501
4062 1699
4062 2117
4063 439
4063 1736
4063 2054
4064 402
4064 1671
4064 2161
4065 480
4065 1780
4065 2124
4066 483
4066 1710
4066 2049
4067 431
4067 1698
4067 2099
4068 488
4068 1683
4068 2121
4069 423
4069 1773
4069 2086
4070 485
4070 1668
4070 2147
4071 401
4071 1726
4071 2152
4072 449
4072 1730
4072 2163
4073 468
4073 1765
4073 2125
4074 384
4074 1740
4074 2103
4075 407
4075 1761
4075 2061
4076 409
4076 1694
4076 2074
4077 395
4077 1700
4077 2123
4078 433
4078 1722
4078 2139
4079 452
4079 1783
4079 2145
4080 417
4080 1697
4080 2090
4081 435
4081 1688
4081 2081
4082 451
4082 1686
4082 2129
4083 476
4083 1706
4083 2140
4084 424
4084 1685
4084 2101
4085 448
4085 1782
4085 2131
4086 473
4086 1757
4086 2093
4087 405
4087 1772
4087 2059
4088 385
4088 1703
4088 2051
4089 495
4089 1669
4089 2113
4090 434
4090 1724
4090 2052
4091 477
4091 1682
4091 2146
4092 392
4092 1728
4092 2170
4093 484
4093 1720
4093 2151
4094 429
4094 1665
4094 2065
4095 478
4095 1721
4095 2091
4096 513
4096 1023
4096 2196
4097 520
4097 899
4097 2264
4098 553
4098 1011
4098 2212
4099 586
4099 932
4099 2255
4100 608
4100 973
4100 2192
4101 601
4101 912
4101 2291
4102 604
4102 940
4102 2188
4103 583
4103 994
4103 2221
4104 541
4104 1007
4104 2176
4105 531
4105 935
4105 2259
4106 565
4106 914
4106 2287
4107 587
4107 948
4107 2256
4108 590
4108 993
4108 2279
4109 614
4109 1015
4109 2246
4110 624
4110 979
4110 2239
4111 581
4111 1021
4111 2281
4112 535
4112 992
4112 2237
4113 612
4113 898
4113 2241
4114 569
4114 985
4114 2285
4115 592
4115 939
4115 2261
4116 638
4116 997
4116 2293
4117 526
4117 981
4117 2251
4118 518
4118 897
4118 2280
4119 596
4119 963
4119 2240
4120 639
4120 1003
4120 2189
4121 579
4121 910
4121 2194
4122 550
4122 923
4122 2193
4123 615
4123 960
4123 2242
4124 629
4124 922
4124 2253
4125 597
4125 1006
4125 2276
4126 566
4126 987
4126 2269
4127 636
4127 917
4127 2272
4128 606
4128 931
4128 2296
4129 567
4129 975
4129 2274
4130 632
4130 959
4130 2208
4131 621
4131 946
4131 2217
4132 637
4132 949
4132 2197
4133 573
4133 995
4133 2228
4134 551
4134 958
4134 2267
4135 529
4135 943
4135 2245
4136 564
4136 941
4136 2178
4137 613
4137 934
4137 2222
4138 582
4138 918
4138 2183
4139 559
4139 965
4139 2190
4140 554
4140 926
4140 2278
4141 589
4141 915
4141 2211
4142 519
4142 954
4142 2263
4143 627
4143 1016
4143 2257
4144 563
4144 896
4144 2230
4145 572
4145 920
4145 2213
4146 607
4146 913
4146 2185
4147 588
4147 957
4147 2231
4148 595
4148 1009
4148 2273
4149 628
4149 970
4149 2277
4150 580
4150 964
4150 2232
4151 532
4151 953
4151 2234
4152 545
4152 902
4152 2215
4153 600
4153 909
4153 2205
4154 620
4154 900
4154 2289
4155 617
4155 972
4155 2262
4156 610
4156 969
4156 2224
4157 577
4157 919
4157 2250
4158 584
4158 936
4158 2297
4159 552
4159 968
4159 2298
4160 623
4160 924
4160 2295
4161 539
4161 1018
4161 2200
4162 602
4162 925
4162 2252
4163 536
4163 1013
4163 2248
4164 523
4164 938
4164 2244
4165 530
4165 928
4165 2218
4166 547
4166 976
4166 2184
4167 512
4167 998
4167 2226
4168 527
4168 907
4168 2258
4169 522
4169 977
4169 2202
4170 568
4170 1000
4170 2302
4171 570
4171 982
4171 2227
4172 537
4172 908
4172 2198
4173 556
4173 937
4173 2236
4174 558
4174 1019
4174 2201
4175 533
4175 983
4175 2288
4176 516
4176 980
4176 2294
4177 622
4177 962
4177 2180
4178 630
4178 989
4178 2247
4179 585
4179 991
4179 2249
4180 540
4180 1010
4180 2229
4181 574
4181 961
4181 2265
4182 616
4182 944
4182 2286
4183 562
4183 916
4183 2199
4184 633
4184 930
4184 2182
4185 575
4185 984
4185 2266
4186 598
4186 988
4186 2235
4187 555
4187 1001
4187 2260
4188 618
4188 911
4188 2187
4189 578
4189 999
4189 2254
4190 571
4190 1004
4190 2219
4191 521
4191 978
4191 2303
4192 626
4192 927
4192 2206
4193 517
4193 1017
4193 2179
4194 611
4194 933
4194 2223
4195 542
4195 966
4195 2203
4196 549
4196 1012
4196 2214
4197 576
4197 947
4197 2220
4198 609
4198 996
4198 2290
4199 543
4199 1002
4199 2282
4200 525
4200 952
4200 2225
4201 634
4201 1008
4201 2181
4202 603
4202 971
4202 2195
4203 593
4203 906
4203 2207
4204 546
4204 1020
4204 2210
4205 534
4205 951
4205 2177
4206 619
4206 990
4206 2238
4207 515
4207 1022
4207 2216
4208 544
4208 942
4208 2186
4209 538
4209 1005
4209 2301
4210 594
4210 955
4210 2270
4211 625
4211 986
4211 2275
4212 591
4212 1014
4212 2299
4213 524
4213 903
4213 2300
4214 548
4214 945
4214 2268
4215 557
4215 967
4215 2271
4216 631
4216 905
4216 2233
4217 599
4217 974
4217 2243
4218 560
4218 904
4218 2191
4219 605
4219 921
4219 2209
4220 528
4220 950
4220 2204
4221 514
4221 901
4221 2292
4222 561
4222 929
4222 2284
4223 635
4223 956
4223 2283
4224 752
4224 1129
4224 2407
4225 711
4225 1130
4225 2350
4226 712
4226 1038
4226 2359
4227 722
4227 1058
4227 2375
4228 747
4228 1120
4228 2429
4229 678
4229 1097
4229 2307
4230 644
4230 1050
4230 2364
4231 724
4231 1101
4231 2361
4232 746
4232 1076
4232 2344
4233 725
4233 1068
4233 2425
4234 705
4234 1065
4234 2424
4235 698
4235 1049
4235 2413
4236 748
4236 1081
4236 2408
4237 676
4237 1108
4237 2426
4238 662
4238 1121
4238 2319
4239 737
4239 1074
4239 2382
4240 740
4240 1063
4240 2427
4241 655
4241 1078
4241 2400
4242 739
4242 1141
4242 2367
4243 741
4243 1036
4243 2355
4244 744
4244 1142
4244 2317
4245 681
4245 1080
4245 2391
4246 763
4246 1025
4246 2335
4247 765
4247 1124
4247 2418
4248 719
4248 1110
4248 2419
4249 652
4249 1088
4249 2351
4250 745
4250 1151
4250 2348
4251 650
4251 1034
4251 2388
4252 691
4252 1115
4252 2316
4253 761
4253 1045
4253 2431
4254 683
4254 1064
4254 2383
4255 699
4255 1070
4255 2354
4256 696
4256 1127
4256 2326
4257 715
4257 1149
4257 2312
4258 670
4258 1084
4258 2336
4259 726
4259 1059
4259 2410
4260 736
4260 1087
4260 2314
4261 656
4261 1093
4261 2421
4262 700
4262 1024
4262 2393
4263 766
4263 1089
4263 2330
4264 720
4264 1105
4264 2329
4265 717
4265 1044
4265 2380
4266 685
4266 1131
4266 2422
4267 648
4267 1119
4267 2337
4268 667
4268 1071
4268 2379
4269 673
4269 1125
4269 2430
4270 665
4270 1061
4270 2368
4271 688
4271 1112
4271 2324
4272 694
4272 1029
4272 2387
4273 697
4273 1132
4273 2397
4274 651
4274 1027
4274 2394
4275 731
4275 1043
4275 2370
4276 754
4276 1147
4276 2320
4277 757
4277 1037
4277 2373
4278 708
4278 1109
4278 2343
4279 764
4279 1055
4279 2349
4280 679
4280 1128
4280 2328
4281 762
4281 1146
4281 2339
4282 675
4282 1053
4282 2386
4283 668
4283 1107
4283 2341
4284 653
4284 1139
4284 2378
4285 658
4285 1048
4285 2411
4286 738
4286 1060
4286 2420
4287 657
4287 1031
4287 2409
4288 767
4288 1138
4288 2398
4289 759
4289 1092
4289 2399
4290 760
4290 1114
4290 2365
4291 714
4291 1102
4291 2363
4292 640
4292 1134
4292 2403
4293 749
4293 1086
4293 2332
4294 727
4294 1035
4294 2323
4295 692
4295 1091
4295 2369
4296 713
4296 1085
4296 2360
4297 647
4297 1083
4297 2318
4298 734
4298 1143
4298 2428
4299 661
4299 1106
4299 2372
4300 643
4300 1090
4300 2333
4301 728
4301 1066
4301 2423
4302 641
4302 1113
4302 2402
4303 732
4303 1145
4303 2310
4304 716
4304 1046
4304 2377
4305 693
4305 1094
4305 2338
4306 733
4306 1077
4306 2366
4307 646
4307 1026
4307 2342
4308 703
4308 1032
4308 2401
4309 682
4309 1062
4309 2376
4310 743
4310 1067
4310 2414
4311 686
4311 1082
4311 2322
4312 642
4312 1054
4312 2334
4313 689
4313 1095
4313 2392
4314 721
4314 1111
4314 2308
4315 750
4315 1028
4315 2311
4316 710
4316 1140
4316 2371
4317 680
4317 1100
4317 2389
4318 649
4318 1072
4318 2416
4319 654
4319 1033
4319 2417
4320 677
4320 1118
4320 2340
4321 663
4321 1069
4321 2315
4322 751
4322 1042
4322 2321
4323 723
4323 1030
4323 2331
4324 687
4324 1148
4324 2415
4325 660
4325 1135
4325 2345
4326 695
4326 1047
4326 2313
4327 701
4327 1075
4327 2305
4328 671
4328 1136
4328 2381
4329 758
4329 1040
4329 2390
4330 718
4330 1126
4330 2357
4331 735
4331 1039
4331 2384
4332 664
4332 1137
4332 2325
4333 756
4333 1041
4333 2362
4334 707
4334 1104
4334 2353
4335 674
4335 1123
4335 2327
4336 669
4336 1116
4336 2412
4337 704
4337 1052
4337 2352
4338 753
4338 1103
4338 2396
4339 690
4339 1150
4339 2404
4340 666
4340 1096
4340 2306
4341 684
4341 1056
4341 2358
4342 702
4342 1079
4342 2309
4343 659
4343 1117
4343 2346
4344 706
4344 1144
4344 2347
4345 742
4345 1051
4345 2405
4346 672
4346 1122
4346 2304
4347 729
4347 1057
4347 2395
4348 755
4348 1098
4348 2356
4349 645
4349 1099
4349 2385
4350 709
4350 1073
4350 2374
4351 730
4351 1133
4351 2406
4352 784
4352 1252
4352 2488
4353 801
4353 1214
4353 2559
4354 815
4354 1194
4354 2485
4355 882
4355 1198
4355 2552
4356 838
4356 1243
4356 2553
4357 845
4357 1277
4357 2542
4358 842
4358 1267
4358 2529
4359 860
4359 1199
4359 2466
4360 781
4360 1191
4360 2512
4361 816
4361 1222
4361 2463
4362 876
4362 1261
4362 2491
4363 785
4363 1276
4363 2469
4364 843
4364 1240
4364 2445
4365 861
4365 1249
4365 2458
4366 774
4366 1154
4366 2479
4367 854
4367 1262
4367 2468
4368 858
4368 1180
4368 2533
4369 787
4369 1179
4369 2436
4370 873
4370 1260
4370 2494
4371 855
4371 1165
4371 2454
4372 848
4372 1255
4372 2525
4373 786
4373 1153
4373 2437
4374 877
4374 1219
4374 2449
4375 895
4375 1152
4375 2462
4376 799
4376 1197
4376 2554
4377 776
4377 1232
4377 2544
4378 846
4378 1160
4378 2480
4379 852
4379 1168
4379 2508
4380 850
4380 1157
4380 2540
4381 788
4381 1218
4381 2506
4382 894
4382 1171
4382 2550
4383 863
4383 1221
4383 2538
4384 892
4384 1185
4384 2433
4385 773
4385 1231
4385 2522
4386 840
4386 1237
4386 2519
4387 821
4387 1211
4387 2482
4388 777
4388 1235
4388 2450
4389 835
4389 1229
4389 2456
4390 818
4390 1203
4390 2515
4391 807
4391 1190
4391 2517
4392 832
4392 1181
4392 2447
4393 830
4393 1176
4393 2441
4394 833
4394 1177
4394 2467
4395 857
4395 1162
4395 2556
4396 878
4396 1174
4396 2477
4397 814
4397 1223
4397 2446
4398 869
4398 1256
4398 2460
4399 864
4399 1161
4399 2505
4400 834
4400 1167
4400 2509
4401 887
4401 1250
4401 2432
4402 810
4402 1234
4402 2511
4403 841
4403 1238
4403 2475
4404 792
4404 1279
4404 2452
4405 768
4405 1246
4405 2502
4406 828
4406 1188
4406 2521
4407 795
4407 1183
4407 2545
4408 809
4408 1270
4408 2470
4409 819
4409 1225
4409 2546
4410 844
4410 1266
4410 2438
4411 797
4411 1258
4411 2513
4412 856
4412 1164
4412 2535
4413 885
4413 1264
4413 2539
4414 811
4414 1269
4414 2536
4415 808
4415 1236
4415 2439
4416 798
4416 1242
4416 2558
4417 871
4417 1278
4417 2541
4418 802
4418 1239
4418 2471
4419 812
4419 1192
4419 2500
4420 872
4420 1220
4420 2435
4421 889
4421 1210
4421 2484
4422 782
4422 1245
4422 2440
4423 827
4423 1169
4423 2510
4424 772
4424 1241
4424 2473
4425 803
4425 1251
4425 2472
4426 800
4426 1247
4426 2499
4427 839
4427 1170
4427 2455
4428 780
4428 1212
4428 2496
4429 824
4429 1172
4429 2486
4430 775
4430 1275
4430 2528
4431 796
4431 1257
4431 2534
4432 770
4432 1248
4432 2478
4433 888
4433 1224
4433 2448
4434 851
4434 1186
4434 2461
4435 823
4435 1263
4435 2555
4436 804
4436 1159
4436 2501
4437 866
4437 1207
4437 2487
4438 847
4438 1215
4438 2465
4439 867
4439 1163
4439 2451
4440 825
4440 1178
4440 2551
4441 874
4441 1254
4441 2442
4442 779
4442 1253
4442 2493
4443 789
4443 1271
4443 2547
4444 868
4444 1272
4444 2459
4445 778
4445 1193
4445 2516
4446 879
4446 1208
4446 2537
4447 794
4447 1213
4447 2504
4448 870
4448 1175
4448 2518
4449 862
4449 1228
4449 2557
4450 886
4450 1184
4450 2498
4451 769
4451 1187
4451 2523
4452 790
4452 1182
4452 2527
4453 865
4453 1200
4453 2453
4454 783
4454 1195
4454 2524
4455 891
4455 1201
4455 2444
4456 880
4456 1226
4456 2434
4457 859
4457 1209
4457 2526
4458 771
4458 1206
4458 2543
4459 791
4459 1166
4459 2474
4460 829
4460 1273
4460 2520
4461 849
4461 1230
4461 2476
4462 890
4462 1216
4462 2532
4463 883
4463 1233
4463 2548
4464 793
4464 1217
4464 2464
4465 853
4465 1189
4465 2495
4466 881
4466 1196
4466 2503
4467 806
4467 1173
4467 2483
4468 893
4468 1227
4468 2481
4469 837
4469 1205
4469 2490
4470 820
4470 1202
4470 2514
4471 817
4471 1155
4471 2530
4472 813
4472 1259
4472 2507
4473 884
4473 1265
4473 2457
4474 805
4474 1204
4474 2531
4475 822
4475 1268
4475 2443
4476 826
4476 1274
4476 2549
4477 831
4477 1156
4477 2489
4478 875
4478 1158
4478 2492
4479 836
4479 1244
4479 2497
4480 38
4480 1267
4480 2339
4481 63
4481 1171
4481 2394
4482 103
4482 1239
4482 2363
4483 22
4483 1268
4483 2370
4484 81
4484 1205
4484 2378
4485 30
4485 1222
4485 2349
4486 10
4486 1199
4486 2347
4487 107
4487 1191
4487 2384
4488 78
4488 1217
4488 2430
4489 98
4489 1168
4489 2304
4490 122
4490 1157
4490 2386
4491 17
4491 1260
4491 2336
4492 36
4492 1210
4492 2374
4493 65
4493 1178
4493 2360
4494 59
4494 1221
4494 2403
4495 127
4495 1229
4495 2310
4496 5
4496 1240
4496 2350
4497 125
4497 1248
4497 2429
4498 27
4498 1172
4498 2375
4499 71
4499 1249
4499 2382
4500 110
4500 1224
4500 2381
4501 0
4501 1203
4501 2320
4502 75
4502 1258
4502 2410
4503 51
4503 1262
4503 2341
4504 105
4504 1213
4504 2305
4505 57
4505 1225
4505 2404
4506 91
4506 1162
4506 2392
4507 49
4507 1271
4507 2431
4508 35
4508 1279
4508 2364
4509 87
4509 1231
4509 2340
4510 73
4510 1206
4510 2365
4511 111
4511 1216
4511 2321
4512 21
4512 1184
4512 2385
4513 83
4513 1223
4513 2353
4514 69
4514 1186
4514 2421
4515 34
4515 1244
4515 2406
4516 13
4516 1233
4516 2307
4517 56
4517 1202
4517 2388
4518 4
4518 1160
4518 2314
4519 54
4519 1214
4519 2355
4520 52
4520 1164
4520 2369
4521 70
4521 1261
4521 2380
4522 88
4522 1159
4522 2315
4523 124
4523 1247
4523 2412
4524 33
4524 1252
4524 2331
4525 102
4525 1175
4525 2348
4526 16
4526 1236
4526 2322
4527 84
4527 1219
4527 2333
4528 58
4528 1270
4528 2343
4529 72
4529 1266
4529 2377
4530 66
4530 1277
4530 2400
4531 82
4531 1207
4531 2354
4532 126
4532 1174
4532 2361
4533 94
4533 1153
4533 2358
4534 26
4534 1251
4534 2311
4535 76
4535 1215
4535 2414
4536 80
4536 1227
4536 2326
4537 119
4537 1254
4537 2309
4538 44
4538 1250
4538 2387
4539 108
4539 1273
4539 2325
4540 46
4540 1218
4540 2357
4541 120
4541 1176
4541 2316
4542 89
4542 1170
4542 2424
4543 47
4543 1185
4543 2368
4544 116
4544 1241
4544 2352
4545 48
4545 1232
4545 2328
4546 100
4546 1204
4546 2383
4547 9
4547 1152
4547 2334
4548 18
4548 1275
4548 2423
4549 11
4549 1278
4549 2327
4550 20
4550 1156
4550 2418
4551 8
4551 1165
4551 2312
4552 15
4552 1182
4552 2359
4553 19
4553 1154
4553 2409
4554 114
4554 1234
4554 2399
4555 40
4555 1169
4555 2428
4556 1
4556 1197
4556 2415
4557 41
4557 1161
4557 2426
4558 39
4558 1177
4558 2324
4559 96
4559 1274
4559 2308
4560 74
4560 1192
4560 2332
4561 14
4561 1269
4561 2420
4562 118
4562 1255
4562 2345
4563 67
4563 1242
4563 2372
4564 106
4564 1245
4564 2367
4565 29
4565 1194
4565 2405
4566 37
4566 1189
4566 2319
4567 64
4567 1228
4567 2371
4568 43
4568 1188
4568 2407
4569 77
4569 1180
4569 2389
4570 109
4570 1198
4570 2338
4571 53
4571 1237
4571 2401
4572 28
4572 1208
4572 2366
4573 3
4573 1265
4573 2351
4574 79
4574 1209
4574 2373
4575 95
4575 1259
4575 2379
4576 32
4576 1253
4576 2427
4577 7
4577 1173
4577 2408
4578 90
4578 1238
4578 2306
4579 55
4579 1276
4579 2318
4580 86
4580 1235
4580 2416
4581 42
4581 1201
4581 2419
4582 97
4582 1256
4582 2393
4583 121
4583 1220
4583 2411
4584 115
4584 1166
4584 2344
4585 101
4585 1226
4585 2335
4586 113
4586 1200
4586 2356
4587 61
4587 1212
4587 2362
4588 23
4588 1183
4588 2337
4589 45
4589 1179
4589 2425
4590 25
4590 1155
4590 2402
4591 68
4591 1181
4591 2317
4592 117
4592 1187
4592 2396
4593 24
4593 1158
4593 2417
4594 62
4594 1196
4594 2376
4595 2
4595 1163
4595 2395
4596 31
4596 1193
4596 2413
4597 112
4597 1263
4597 2323
4598 6
4598 1195
4598 2390
4599 99
4599 1246
4599 2329
4600 93
4600 1243
4600 2342
4601 85
4601 1272
4601 2330
4602 50
4602 1167
4602 2422
4603 92
4603 1264
4603 2391
4604 123
4604 1257
4604 2398
4605 60
4605 1190
4605 2313
4606 104
4606 1230
4606 2346
4607 12
4607 1211
4607 2397
4608 142
4608 1402
4608 2526
4609 149
4609 1284
4609 2495
4610 159
4610 1326
4610 2489
4611 157
4611 1380
4611 2490
4612 248
4612 1333
4612 2506
4613 134
4613 1381
4613 2441
4614 137
4614 1376
4614 2473
4615 165
4615 1291
4615 2480
4616 186
4616 1303
4616 2499
4617 222
4617 1316
4617 2519
4618 196
4618 1314
4618 2510
4619 148
4619 1360
4619 2452
4620 144
4620 1363
4620 2533
4621 172
4621 1287
4621 2467
4622 195
4622 1392
4622 2508
4623 129
4623 1315
4623 2451
4624 219
4624 1372
4624 2436
4625 224
4625 1337
4625 2492
4626 187
4626 1388
4626 2531
4627 208
4627 1307
4627 2433
4628 244
4628 1346
4628 2527
4629 221
4629 1370
4629 2456
4630 152
4630 1356
4630 2481
4631 173
4631 1393
4631 2458
4632 234
4632 1292
4632 2550
4633 182
4633 1358
4633 2549
4634 226
4634 1309
4634 2453
4635 179
4635 1339
4635 2496
4636 166
4636 1312
4636 2509
4637 212
4637 1335
4637 2474
4638 128
4638 1301
4638 2552
4639 139
4639 1378
4639 2462
4640 247
4640 1294
4640 2483
4641 136
4641 1384
4641 2556
4642 140
4642 1280
4642 2542
4643 215
4643 1305
4643 2559
4644 154
4644 1338
4644 2464
4645 214
4645 1390
4645 2518
4646 216
4646 1385
4646 2529
4647 164
4647 1399
4647 2520
4648 168
4648 1361
4648 2497
4649 130
4649 1398
4649 2463
4650 161
4650 1319
4650 2544
4651 201
4651 1355
4651 2439
4652 175
4652 1359
4652 2459
4653 188
4653 1354
4653 2454
4654 174
4654 1373
4654 2546
4655 243
4655 1395
4655 2442
4656 210
4656 1383
4656 2528
4657 189
4657 1308
4657 2522
4658 228
4658 1401
4658 2537
4659 145
4659 1389
4659 2446
4660 237
4660 1289
4660 2432
4661 178
4661 1371
4661 2448
4662 151
4662 1397
4662 2540
4663 238
4663 1347
4663 2437
4664 252
4664 1330
4664 2468
4665 153
4665 1342
4665 2494
4666 255
4666 1352
4666 2500
4667 138
4667 1302
4667 2516
4668 227
4668 1332
4668 2515
4669 184
4669 1299
4669 2457
4670 235
4670 1369
4670 2521
4671 239
4671 1282
4671 2460
4672 254
4672 1349
4672 2482
4673 199
4673 1366
4673 2512
4674 167
4674 1324
4674 2541
4675 163
4675 1343
4675 2476
4676 220
4676 1394
4676 2555
4677 203
4677 1298
4677 2461
4678 181
4678 1300
4678 2511
4679 183
4679 1327
4679 2551
4680 242
4680 1348
4680 2524
4681 233
4681 1311
4681 2445
4682 251
4682 1306
4682 2493
4683 253
4683 1386
4683 2435
4684 193
4684 1405
4684 2517
4685 160
4685 1336
4685 2558
4686 190
4686 1379
4686 2547
4687 245
4687 1320
4687 2491
4688 150
4688 1329
4688 2543
4689 204
4689 1328
4689 2475
4690 205
4690 1362
4690 2523
4691 180
4691 1281
4691 2477
4692 229
4692 1310
4692 2532
4693 185
4693 1313
4693 2484
4694 143
4694 1403
4694 2472
4695 197
4695 1304
4695 2470
4696 177
4696 1396
4696 2503
4697 200
4697 1283
4697 2507
4698 218
4698 1374
4698 2465
4699 236
4699 1293
4699 2469
4700 194
4700 1351
4700 2438
4701 141
4701 1382
4701 2534
4702 131
4702 1322
4702 2447
4703 198
4703 1357
4703 2535
4704 230
4704 1364
4704 2488
4705 250
4705 1286
4705 2440
4706 249
4706 1290
4706 2466
4707 207
4707 1367
4707 2545
4708 211
4708 1404
4708 2434
4709 241
4709 1344
4709 2548
4710 133
4710 1288
4710 2498
4711 132
4711 1377
4711 2502
4712 225
4712 1297
4712 2539
4713 176
4713 1407
4713 2501
4714 191
4714 1296
4714 2487
4715 162
4715 1375
4715 2485
4716 170
4716 1325
4716 2443
4717 147
4717 1321
4717 2444
4718 192
4718 1323
4718 2557
4719 240
4719 1318
4719 2525
4720 146
4720 1317
4720 2513
4721 246
4721 1400
4721 2530
4722 155
4722 1285
4722 2514
4723 135
4723 1365
4723 2486
4724 202
4724 1353
4724 2471
4725 156
4725 1368
4725 2455
4726 169
4726 1334
4726 2553
4727 206
4727 1406
4727 2538
4728 213
4728 1331
4728 2450
4729 232
4729 1350
4729 2504
4730 231
4730 1387
4730 2449
4731 171
4731 1391
4731 2554
4732 217
4732 1295
4732 2536
4733 209
4733 1341
4733 2478
4734 223
4734 1345
4734 2505
4735 158
4735 1340
4735 2479
4736 310
4736 1437
4736 2663
4737 303
4737 1436
4737 2639
4738 328
4738 1453
4738 2560
4739 355
4739 1432
4739 2649
4740 345
4740 1526
4740 2642
4741 353
4741 1496
4741 2584
4742 372
4742 1415
4742 2679
4743 362
4743 1498
4743 2683
4744 288
4744 1505
4744 2627
4745 349
4745 1419
4745 2563
4746 347
4746 1492
4746 2578
4747 271
4747 1484
4747 2579
4748 267
4748 1513
4748 2637
4749 367
4749 1452
4749 2576
4750 368
4750 1522
4750 2611
4751 308
4751 1448
4751 2562
4752 301
4752 1439
4752 2614
4753 357
4753 1502
4753 2677
4754 320
4754 1469
4754 2633
4755 275
4755 1493
4755 2644
4756 361
4756 1491
4756 2662
4757 311
4757 1444
4757 2685
4758 335
4758 1509
4758 2603
4759 377
4759 1485
4759 2598
4760 354
4760 1421
4760 2641
4761 369
4761 1514
4761 2648
4762 272
4762 1461
4762 2597
4763 290
4763 1423
4763 2588
4764 378
4764 1529
4764 2682
4765 286
4765 1477
4765 2586
4766 342
4766 1464
4766 2664
4767 291
4767 1443
4767 2670
4768 276
4768 1511
4768 2675
4769 337
4769 1473
4769 2652
4770 364
4770 1534
4770 2672
4771 304
4771 1486
4771 2654
4772 331
4772 1426
4772 2629
4773 268
4773 1428
4773 2667
4774 351
4774 1435
4774 2681
4775 380
4775 1410
4775 2600
4776 270
4776 1458
4776 2636
4777 382
4777 1517
4777 2606
4778 313
4778 1528
4778 2610
4779 314
4779 1507
4779 2674
4780 332
4780 1500
4780 2601
4781 373
4781 1459
4781 2657
4782 360
4782 1531
4782 2623
4783 319
4783 1518
4783 2615
4784 324
4784 1478
4784 2587
4785 336
4785 1533
4785 2673
4786 318
4786 1420
4786 2666
4787 289
4787 1487
4787 2660
4788 297
4788 1515
4788 2569
4789 340
4789 1465
4789 2656
4790 315
4790 1481
4790 2596
4791 274
4791 1480
4791 2567
4792 278
4792 1512
4792 2591
4793 325
4793 1499
4793 2643
4794 323
4794 1466
4794 2581
4795 359
4795 1510
4795 2676
4796 263
4796 1460
4796 2602
4797 352
4797 1431
4797 2678
4798 338
4798 1451
4798 2573
4799 344
4799 1455
4799 2658
4800 300
4800 1445
4800 2570
4801 370
4801 1425
4801 2605
4802 256
4802 1441
4802 2684
4803 283
4803 1470
4803 2582
4804 374
4804 1516
4804 2655
4805 379
4805 1416
4805 2624
4806 322
4806 1501
4806 2671
4807 285
4807 1449
4807 2577
4808 299
4808 1482
4808 2650
4809 381
4809 1527
4809 2628
4810 284
4810 1479
4810 2580
4811 269
4811 1463
4811 2589
4812 333
4812 1422
4812 2632
4813 265
4813 1456
4813 2619
4814 350
4814 1462
4814 2668
4815 261
4815 1433
4815 2571
4816 346
4816 1474
4816 2566
4817 258
4817 1535
4817 2609
4818 298
4818 1434
4818 2680
4819 266
4819 1409
4819 2687
4820 307
4820 1490
4820 2686
4821 327
4821 1524
4821 2620
4822 317
4822 1530
4822 2604
4823 339
4823 1446
4823 2564
4824 383
4824 1489
4824 2631
4825 341
4825 1408
4825 2651
4826 281
4826 1468
4826 2626
4827 343
4827 1427
4827 2565
4828 326
4828 1442
4828 2595
4829 371
4829 1504
4829 2617
4830 264
4830 1429
4830 2647
4831 260
4831 1447
4831 2575
4832 293
4832 1457
4832 2593
4833 312
4833 1417
4833 2616
4834 277
4834 1440
4834 2608
4835 356
4835 1495
4835 2635
4836 262
4836 1506
4836 2646
4837 376
4837 1488
4837 2612
4838 366
4838 1494
4838 2585
4839 330
4839 1430
4839 2594
4840 257
4840 1483
4840 2625
4841 273
4841 1467
4841 2618
4842 309
4842 1414
4842 2669
4843 296
4843 1412
4843 2599
4844 302
4844 1520
4844 2638
4845 316
4845 1450
4845 2661
4846 321
4846 1508
4846 2659
4847 305
4847 1454
4847 2568
4848 358
4848 1424
4848 2574
4849 295
4849 1521
4849 2640
4850 280
4850 1471
4850 2607
4851 287
4851 1503
4851 2583
4852 259
4852 1438
4852 2613
4853 363
4853 1472
4853 2590
4854 334
4854 1523
4854 2665
4855 306
4855 1519
4855 2561
4856 294
4856 1476
4856 2634
4857 279
4857 1525
4857 2622
4858 348
4858 1411
4858 2592
4859 375
4859 1475
4859 2653
4860 365
4860 1532
4860 2572
4861 292
4861 1413
4861 2621
4862 329
4862 1418
4862 2630
4863 282
4863 1497
4863 2645
4864 509
4864 1659
4864 1913
4865 433
4865 1607
4865 1887
4866 426
4866 1569
4866 1803
4867 405
4867 1603
4867 1831
4868 411
4868 1561
4868 1916
4869 414
4869 1634
4869 1807
4870 418
4870 1591
4870 1841
4871 495
4871 1660
4871 1861
4872 489
4872 1601
4872 1917
4873 469
4873 1651
4873 1912
4874 394
4874 1550
4874 1883
4875 500
4875 1580
4875 1837
4876 487
4876 1538
4876 1908
4877 463
4877 1602
4877 1890
4878 499
4878 1611
4878 1906
4879 385
4879 1559
4879 1855
4880 386
4880 1537
4880 1868
4881 451
4881 1581
4881 1846
4882 434
4882 1615
4882 1852
4883 477
4883 1536
4883 1793
4884 479
4884 1621
4884 1847
4885 442
4885 1553
4885 1814
4886 425
4886 1575
4886 1794
4887 420
4887 1630
4887 1796
4888 388
4888 1589
4888 1901
4889 429
4889 1632
4889 1810
4890 497
4890 1631
4890 1819
4891 481
4891 1663
4891 1881
4892 473
4892 1640
4892 1865
4893 416
4893 1629
4893 1860
4894 427
4894 1586
4894 1792
4895 408
4895 1626
4895 1896
4896 393
4896 1642
4896 1827
4897 460
4897 1549
4897 1817
4898 392
4898 1648
4898 1878
4899 419
4899 1608
4899 1797
4900 484
4900 1654
4900 1802
4901 435
4901 1570
4901 1905
4902 496
4902 1628
4902 1805
4903 485
4903 1556
4903 1818
4904 511
4904 1614
4904 1884
4905 466
4905 1540
4905 1848
4906 507
4906 1542
4906 1863
4907 455
4907 1623
4907 1897
4908 498
4908 1600
4908 1902
4909 480
4909 1658
4909 1899
4910 421
4910 1652
4910 1876
4911 400
4911 1622
4911 1834
4912 457
4912 1593
4912 1815
4913 472
4913 1546
4913 1911
4914 468
4914 1645
4914 1850
4915 422
4915 1637
4915 1798
4916 437
4916 1576
4916 1795
4917 458
4917 1647
4917 1879
4918 478
4918 1558
4918 1915
4919 452
4919 1565
4919 1799
4920 438
4920 1567
4920 1808
4921 412
4921 1636
4921 1816
4922 493
4922 1584
4922 1823
4923 390
4923 1596
4923 1909
4924 391
4924 1627
4924 1840
4925 432
4925 1605
4925 1838
4926 395
4926 1617
4926 1844
4927 387
4927 1649
4927 1832
4928 486
4928 1563
4928 1857
4929 471
4929 1644
4929 1842
4930 450
4930 1578
4930 1826
4931 413
4931 1620
4931 1895
4932 475
4932 1562
4932 1853
4933 482
4933 1653
4933 1829
4934 449
4934 1573
4934 1835
4935 501
4935 1582
4935 1862
4936 407
4936 1595
4936 1907
4937 461
4937 1585
4937 1873
4938 483
4938 1588
4938 1877
4939 453
4939 1555
4939 1891
4940 436
4940 1592
4940 1809
4941 508
4941 1572
4941 1869
4942 401
4942 1650
4942 1875
4943 443
4943 1552
4943 1885
4944 403
4944 1624
4944 1845
4945 439
4945 1566
4945 1833
4946 506
4946 1547
4946 1821
4947 503
4947 1610
4947 1843
4948 454
4948 1545
4948 1874
4949 423
4949 1646
4949 1880
4950 430
4950 1619
4950 1894
4951 476
4951 1583
4951 1830
4952 445
4952 1635
4952 1893
4953 406
4953 1633
4953 1849
4954 474
4954 1594
4954 1804
4955 494
4955 1606
4955 1888
4956 415
4956 1625
4956 1870
4957 502
4957 1574
4957 1811
4958 404
4958 1577
4958 1910
4959 402
4959 1557
4959 1872
4960 428
4960 1657
4960 1825
4961 410
4961 1551
4961 1854
4962 398
4962 1548
4962 1851
4963 491
4963 1571
4963 1867
4964 467
4964 1568
4964 1919
4965 456
4965 1638
4965 1822
4966 470
4966 1579
4966 1918
4967 444
4967 1554
4967 1839
4968 448
4968 1597
4968 1800
4969 389
4969 1539
4969 1820
4970 384
4970 1639
4970 1856
4971 446
4971 1618
4971 1858
4972 459
4972 1564
4972 1903
4973 492
4973 1641
4973 1813
4974 447
4974 1612
4974 1898
4975 504
4975 1543
4975 1828
4976 399
4976 1599
4976 1824
4977 409
4977 1661
4977 1859
4978 441
4978 1656
4978 1886
4979 396
4979 1662
4979 1866
4980 488
4980 1604
4980 1836
4981 417
4981 1613
4981 1882
4982 490
4982 1541
4982 1801
4983 462
4983 1655
4983 1900
4984 440
4984 1643
4984 1889
4985 510
4985 1590
4985 1864
4986 505
4986 1544
4986 1914
4987 424
4987 1560
4987 1871
4988 431
4988 1609
4988 1892
4989 465
4989 1587
4989 1904
4990 464
4990 1598
4990 1806
4991 397
4991 1616
4991 1812
4992 595
4992 1739
4992 2026
4993 583
4993 1780
4993 1942
4994 558
4994 1681
4994 1982
4995 579
4995 1698
4995 2003
4996 549
4996 1706
4996 2013
4997 522
4997 1758
4997 2035
4998 515
4998 1744
4998 2011
4999 624
4999 1682
4999 2008
5000 512
5000 1735
5000 1973
5001 578
5001 1680
5001 2018
5002 592
5002 1689
5002 2038
5003 588
5003 1672
5003 1997
5004 547
5004 1670
5004 1972
5005 599
5005 1774
5005 2002
5006 567
5006 1669
5006 1931
5007 584
5007 1770
5007 1966
5008 529
5008 1777
5008 1947
5009 639
5009 1786
5009 1946
5010 519
5010 1764
5010 1990
5011 622
5011 1791
5011 1969
5012 611
5012 1701
5012 1928
5013 571
5013 1755
5013 2045
5014 587
5014 1694
5014 1922
5015 565
5015 1753
5015 1976
5016 525
5016 1708
5016 1978
5017 553
5017 1754
5017 1927
5018 532
5018 1778
5018 1926
5019 628
5019 1664
5019 2047
5020 633
5020 1722
5020 1945
5021 575
5021 1773
5021 1971
5022 637
5022 1775
5022 2031
5023 534
5023 1705
5023 2040
5024 606
5024 1692
5024 1956
5025 590
5025 1785
5025 1983
5026 594
5026 1749
5026 1958
5027 536
5027 1790
5027 1951
5028 597
5028 1740
5028 1984
5029 541
5029 1697
5029 1961
5030 576
5030 1728
5030 1943
5031 613
5031 1729
5031 2019
5032 632
5032 1721
5032 2012
5033 535
5033 1677
5033 1920
5034 608
5034 1687
5034 1987
5035 561
5035 1738
5035 1929
5036 523
5036 1717
5036 2033
5037 551
5037 1731
5037 1934
5038 619
5038 1686
5038 1962
5039 612
5039 1765
5039 1970
5040 581
5040 1788
5040 2000
5041 610
5041 1769
5041 2034
5042 568
5042 1741
5042 1975
5043 620
5043 1712
5043 2036
5044 585
5044 1695
5044 1948
5045 605
5045 1751
5045 1950
5046 601
5046 1747
5046 2024
5047 603
5047 1743
5047 1924
5048 539
5048 1776
5048 1936
5049 598
5049 1742
5049 1935
5050 638
5050 1737
5050 1991
5051 615
5051 1763
5051 1994
5052 573
5052 1772
5052 1941
5053 602
5053 1789
5053 1992
5054 544
5054 1699
5054 2016
5055 530
5055 1730
5055 2004
5056 540
5056 1679
5056 2037
5057 574
5057 1713
5057 1988
5058 514
5058 1782
5058 1979
5059 560
5059 1771
5059 1986
5060 572
5060 1703
5060 2025
5061 607
5061 1719
5061 2020
5062 533
5062 1787
5062 2027
5063 580
5063 1718
5063 2007
5064 555
5064 1674
5064 1921
5065 542
5065 1665
5065 1937
5066 616
5066 1732
5066 1954
5067 557
5067 1759
5067 2010
5068 554
5068 1700
5068 1985
5069 621
5069 1690
5069 2032
5070 596
5070 1746
5070 1980
5071 528
5071 1675
5071 2023
5072 518
5072 1704
5072 2017
5073 552
5073 1723
5073 2044
5074 513
5074 1757
5074 2029
5075 593
5075 1709
5075 2005
5076 591
5076 1668
5076 1974
5077 614
5077 1702
5077 1955
5078 589
5078 1684
5078 1998
5079 556
5079 1683
5079 2039
5080 538
5080 1688
5080 1938
5081 545
5081 1707
5081 2046
5082 564
5082 1761
5082 1925
5083 562
5083 1678
5083 1957
5084 586
5084 1685
5084 2042
5085 559
5085 1691
5085 1993
5086 550
5086 1783
5086 1965
5087 524
5087 1725
5087 1996
5088 630
5088 1756
5088 1959
5089 617
5089 1750
5089 1939
5090 531
5090 1748
5090 1995
5091 609
5091 1727
5091 1952
5092 570
5092 1733
5092 2021
5093 618
5093 1715
5093 1923
5094 543
5094 1762
5094 2014
5095 520
5095 1752
5095 1960
5096 623
5096 1676
5096 1989
5097 629
5097 1736
5097 2009
5098 517
5098 1767
5098 1930
5099 604
5099 1784
5099 2043
5100 521
5100 1724
5100 1944
5101 548
5101 1711
5101 2001
5102 569
5102 1714
5102 2028
5103 600
5103 1760
5103 1940
5104 527
5104 1696
5104 2015
5105 516
5105 1671
5105 2022
5106 626
5106 1734
5106 1932
5107 537
5107 1673
5107 2006
5108 627
5108 1720
5108 1933
5109 563
5109 1716
5109 1968
5110 577
5110 1745
5110 1949
5111 634
5111 1666
5111 2030
5112 636
5112 1710
5112 1967
5113 631
5113 1781
5113 2041
5114 566
5114 1779
5114 1964
5115 635
5115 1693
5115 1981
5116 546
5116 1768
5116 1977
5117 625
5117 1726
5117 1999
5118 526
5118 1766
5118 1963
5119 582
5119 1667
5119 1953
5120 655
5120 960
5120 2148
5121 651
5121 1001
5121 2090
5122 733
5122 974
5122 2068
5123 658
5123 1004
5123 2138
5124 743
5124 927
5124 2136
5125 674
5125 949
5125 2096
5126 728
5126 956
5126 2153
5127 751
5127 919
5127 2083
5128 678
5128 1018
5128 2122
5129 712
5129 977
5129 2110
5130 710
5130 940
5130 2123
5131 662
5131 909
5131 2064
5132 679
5132 907
5132 2091
5133 748
5133 925
5133 2099
5134 664
5134 1023
5134 2173
5135 686
5135 951
5135 2071
5136 695
5136 917
5136 2097
5137 735
5137 948
5137 2095
5138 694
5138 947
5138 2057
5139 663
5139 901
5139 2108
5140 756
5140 989
5140 2115
5141 675
5141 1014
5141 2129
5142 766
5142 1005
5142 2166
5143 719
5143 976
5143 2119
5144 729
5144 1002
5144 2113
5145 741
5145 905
5145 2087
5146 670
5146 984
5146 2054
5147 721
5147 910
5147 2164
5148 716
5148 962
5148 2072
5149 652
5149 988
5149 2093
5150 643
5150 1022
5150 2159
5151 700
5151 979
5151 2114
5152 697
5152 923
5152 2157
5153 727
5153 973
5153 2133
5154 711
5154 912
5154 2116
5155 661
5155 967
5155 2170
5156 722
5156 943
5156 2124
5157 647
5157 902
5157 2120
5158 746
5158 916
5158 2145
5159 649
5159 980
5159 2137
5160 683
5160 1008
5160 2127
5161 645
5161 896
5161 2118
5162 739
5162 961
5162 2146
5163 654
5163 904
5163 2092
5164 704
5164 1015
5164 2154
5165 724
5165 936
5165 2089
5166 737
5166 935
5166 2156
5167 698
5167 1003
5167 2168
5168 640
5168 978
5168 2077
5169 648
5169 918
5169 2078
5170 696
5170 957
5170 2080
5171 656
5171 964
5171 2100
5172 687
5172 966
5172 2132
5173 745
5173 970
5173 2070
5174 673
5174 922
5174 2056
5175 699
5175 959
5175 2147
5176 669
5176 985
5176 2104
5177 725
5177 938
5177 2142
5178 707
5178 1020
5178 2117
5179 734
5179 969
5179 2134
5180 702
5180 1012
5180 2109
5181 714
5181 930
5181 2075
5182 705
5182 942
5182 2067
5183 715
5183 983
5183 2121
5184 723
5184 990
5184 2102
5185 650
5185 933
5185 2076
5186 738
5186 997
5186 2167
5187 703
5187 899
5187 2151
5188 732
5188 1010
5188 2073
5189 757
5189 994
5189 2107
5190 646
5190 928
5190 2152
5191 680
5191 921
5191 2053
5192 690
5192 939
5192 2163
5193 691
5193 946
5193 2169
5194 759
5194 929
5194 2069
5195 718
5195 1016
5195 2158
5196 765
5196 931
5196 2084
5197 761
5197 953
5197 2155
5198 760
5198 996
5198 2049
5199 668
5199 958
5199 2143
5200 762
5200 915
5200 2050
5201 693
5201 982
5201 2141
5202 659
5202 992
5202 2101
5203 749
5203 924
5203 2172
5204 682
5204 1019
5204 2175
5205 764
5205 971
5205 2125
5206 753
5206 903
5206 2139
5207 665
5207 913
5207 2061
5208 726
5208 900
5208 2051
5209 657
5209 965
5209 2135
5210 688
5210 972
5210 2149
5211 731
5211 906
5211 2103
5212 685
5212 908
5212 2174
5213 744
5213 1009
5213 2082
5214 701
5214 934
5214 2112
5215 653
5215 963
5215 2081
5216 708
5216 950
5216 2161
5217 681
5217 987
5217 2060
5218 717
5218 1000
5218 2111
5219 740
5219 932
5219 2048
5220 672
5220 1007
5220 2059
5221 676
5221 941
5221 2088
5222 736
5222 986
5222 2171
5223 730
5223 1006
5223 2058
5224 666
5224 926
5224 2106
5225 752
5225 981
5225 2131
5226 660
5226 911
5226 2085
5227 689
5227 955
5227 2062
5228 742
5228 1013
5228 2150
5229 755
5229 993
5229 2086
5230 720
5230 937
5230 2055
5231 641
5231 952
5231 2144
5232 706
5232 897
5232 2162
5233 709
5233 975
5233 2094
5234 767
5234 944
5234 2140
5235 692
5235 968
5235 2105
5236 763
5236 991
5236 2079
5237 644
5237 954
5237 2126
5238 677
5238 999
5238 2098
5239 758
5239 1017
5239 2063
5240 684
5240 920
5240 2128
5241 667
5241 1011
5241 2165
5242 671
5242 1021
5242 2066
5243 642
5243 945
5243 2074
5244 747
5244 898
5244 2130
5245 754
5245 995
5245 2065
5246 750
5246 998
5246 2052
5247 713
5247 914
5247 2160
5248 854
5248 1046
5248 2247
5249 846
5249 1104
5249 2302
5250 872
5250 1121
5250 2209
5251 791
5251 1138
5251 2274
5252 889
5252 1140
5252 2228
5253 855
5253 1042
5253 2229
5254 860
5254 1115
5254 2301
5255 799
5255 1024
5255 2294
5256 884
5256 1083
5256 2239
5257 888
5257 1073
5257 2204
5258 890
5258 1054
5258 2201
5259 836
5259 1118
5259 2292
5260 785
5260 1068
5260 2180
5261 871
5261 1141
5261 2244
5262 831
5262 1101
5262 2300
5263 865
5263 1066
5263 2260
5264 870
5264 1062
5264 2263
5265 817
5265 1060
5265 2303
5266 769
5266 1092
5266 2267
5267 849
5267 1110
5267 2219
5268 832
5268 1036
5268 2192
5269 852
5269 1044
5269 2286
5270 788
5270 1125
5270 2211
5271 822
5271 1130
5271 2233
5272 795
5272 1034
5272 2223
5273 808
5273 1084
5273 2240
5274 891
5274 1120
5274 2282
5275 783
5275 1113
5275 2288
5276 771
5276 1089
5276 2230
5277 834
5277 1032
5277 2221
5278 815
5278 1049
5278 2182
5279 853
5279 1038
5279 2179
5280 841
5280 1039
5280 2235
5281 811
5281 1076
5281 2207
5282 776
5282 1095
5282 2276
5283 801
5283 1128
5283 2245
5284 781
5284 1029
5284 2243
5285 882
5285 1111
5285 2225
5286 885
5286 1059
5286 2238
5287 878
5287 1071
5287 2196
5288 774
5288 1052
5288 2254
5289 775
5289 1148
5289 2242
5290 895
5290 1096
5290 2234
5291 876
5291 1150
5291 2191
5292 778
5292 1078
5292 2222
5293 780
5293 1026
5293 2268
5294 814
5294 1132
5294 2266
5295 809
5295 1053
5295 2255
5296 833
5296 1033
5296 2218
5297 818
5297 1097
5297 2299
5298 843
5298 1055
5298 2200
5299 883
5299 1070
5299 2248
5300 813
5300 1086
5300 2253
5301 824
5301 1117
5301 2257
5302 777
5302 1091
5302 2194
5303 844
5303 1074
5303 2295
5304 810
5304 1069
5304 2265
5305 847
5305 1126
5305 2220
5306 875
5306 1027
5306 2275
5307 837
5307 1093
5307 2264
5308 772
5308 1028
5308 2184
5309 856
5309 1139
5309 2271
5310 792
5310 1082
5310 2232
5311 787
5311 1047
5311 2199
5312 830
5312 1142
5312 2231
5313 804
5313 1145
5313 2273
5314 825
5314 1134
5314 2279
5315 842
5315 1124
5315 2293
5316 857
5316 1025
5316 2241
5317 823
5317 1085
5317 2178
5318 816
5318 1127
5318 2246
5319 770
5319 1112
5319 2249
5320 850
5320 1035
5320 2216
5321 863
5321 1094
5321 2287
5322 807
5322 1144
5322 2183
5323 839
5323 1064
5323 2195
5324 802
5324 1098
5324 2291
5325 790
5325 1106
5325 2285
5326 858
5326 1122
5326 2176
5327 867
5327 1151
5327 2280
5328 894
5328 1129
5328 2224
5329 887
5329 1136
5329 2187
5330 840
5330 1061
5330 2259
5331 862
5331 1079
5331 2185
5332 821
5332 1067
5332 2281
5333 789
5333 1090
5333 2251
5334 866
5334 1103
5334 2208
5335 773
5335 1043
5335 2272
5336 827
5336 1080
5336 2226
5337 782
5337 1131
5337 2250
5338 794
5338 1056
5338 2189
5339 880
5339 1108
5339 2284
5340 826
5340 1045
5340 2202
5341 886
5341 1143
5341 2181
5342 803
5342 1040
5342 2198
5343 768
5343 1133
5343 2213
5344 819
5344 1114
5344 2298
5345 877
5345 1105
5345 2297
5346 864
5346 1123
5346 2205
5347 879
5347 1081
5347 2278
5348 806
5348 1037
5348 2270
5349 881
5349 1146
5349 2210
5350 796
5350 1057
5350 2177
5351 859
5351 1137
5351 2203
5352 851
5352 1065
5352 2212
5353 838
5353 1149
5353 2215
5354 784
5354 1075
5354 2277
5355 848
5355 1107
5355 2186
5356 800
5356 1109
5356 2193
5357 845
5357 1099
5357 2206
5358 893
5358 1119
5358 2256
5359 835
5359 1087
5359 2217
5360 828
5360 1031
5360 2290
5361 829
5361 1041
5361 2188
5362 820
5362 1072
5362 2283
5363 797
5363 1051
5363 2237
5364 861
5364 1030
5364 2296
5365 812
5365 1147
5365 2197
5366 869
5366 1048
5366 2289
5367 805
5367 1058
5367 2190
5368 779
5368 1116
5368 2227
5369 798
5369 1077
5369 2236
5370 786
5370 1050
5370 2258
5371 793
5371 1135
5371 2252
5372 892
5372 1088
5372 2262
5373 874
5373 1102
5373 2214
5374 873
5374 1100
5374 2269
5375 868
5375 1063
5375 2261
