672 336 2016
0 1
0 112
0 224
1 2
1 113
1 225
2 3
2 114
2 226
3 4
3 115
3 227
4 5
4 116
4 228
5 6
5 117
5 229
6 7
6 118
6 230
7 8
7 119
7 231
8 9
8 120
8 232
9 10
9 121
9 233
10 11
10 122
10 234
11 12
11 123
11 235
12 13
12 124
12 236
13 14
13 125
13 237
14 15
14 126
14 238
15 0
15 127
15 239
16 16
16 128
16 240
17 17
17 129
17 241
18 18
18 130
18 242
19 19
19 131
19 243
20 20
20 132
20 244
21 21
21 133
21 245
22 22
22 134
22 246
23 23
23 135
23 247
24 24
24 136
24 248
25 25
25 137
25 249
26 26
26 138
26 250
27 27
27 139
27 251
28 28
28 140
28 252
29 29
29 141
29 253
30 30
30 142
30 254
31 31
31 143
31 255
32 32
32 144
32 256
33 33
33 145
33 257
34 34
34 146
34 258
35 35
35 147
35 259
36 36
36 148
36 260
37 37
37 149
37 261
38 38
38 150
38 262
39 39
39 151
39 263
40 40
40 152
40 264
41 41
41 153
41 265
42 42
42 154
42 266
43 43
43 155
43 267
44 44
44 156
44 268
45 45
45 157
45 269
46 46
46 158
46 270
47 47
47 159
47 271
48 48
48 160
48 272
49 49
49 161
49 273
50 50
50 162
50 274
51 51
51 163
51 275
52 52
52 164
52 276
53 53
53 165
53 277
54 54
54 166
54 278
55 55
55 167
55 279
56 56
56 168
56 280
57 57
57 169
57 281
58 58
58 170
58 282
59 59
59 171
59 283
60 60
60 172
60 284
61 61
61 173
61 285
62 62
62 174
62 286
63 63
63 175
63 287
64 64
64 176
64 288
65 65
65 177
65 289
66 66
66 178
66 290
67 67
67 179
67 291
68 68
68 180
68 292
69 69
69 181
69 293
70 70
70 182
70 294
71 71
71 183
71 295
72 72
72 184
72 296
73 73
73 185
73 297
74 74
74 186
74 298
75 75
75 187
75 299
76 76
76 188
76 300
77 77
77 189
77 301
78 78
78 190
78 302
79 79
79 191
79 303
80 80
80 192
80 304
81 81
81 193
81 305
82 82
82 194
82 306
83 83
83 195
83 307
84 84
84 196
84 308
85 85
85 197
85 309
86 86
86 198
86 310
87 87
87 199
87 311
88 88
88 200
88 312
89 89
89 201
89 313
90 90
90 202
90 314
91 91
91 203
91 315
92 92
92 204
92 316
93 93
93 205
93 317
94 94
94 206
94 318
95 95
95 207
95 319
96 96
96 208
96 320
97 97
97 209
97 321
98 98
98 210
98 322
99 99
99 211
99 323
100 100
100 212
100 324
101 101
101 213
101 325
102 102
102 214
102 326
103 103
103 215
103 327
104 104
104 216
104 328
105 105
105 217
105 329
106 106
106 218
106 330
107 107
107 219
107 331
108 108
108 220
108 332
109 109
109 221
109 333
110 110
110 222
110 334
111 111
111 223
111 335
112 0
112 208
112 304
113 1
113 209
113 305
114 2
114 210
114 306
115 3
115 211
115 307
116 4
116 212
116 308
117 5
117 213
117 309
118 6
118 214
118 310
119 7
119 215
119 311
120 8
120 216
120 312
121 9
121 217
121 313
122 10
122 218
122 314
123 11
123 219
123 315
124 12
124 220
124 316
125 13
125 221
125 317
126 14
126 222
126 318
127 15
127 223
127 319
128 16
128 112
128 320
129 17
129 113
129 321
130 18
130 114
130 322
131 19
131 115
131 323
132 20
132 116
132 324
133 21
133 117
133 325
134 22
134 118
134 326
135 23
135 119
135 327
136 24
136 120
136 328
137 25
137 121
137 329
138 26
138 122
138 330
139 27
139 123
139 331
140 28
140 124
140 332
141 29
141 125
141 333
142 30
142 126
142 334
143 31
143 127
143 335
144 32
144 128
144 224
145 33
145 129
145 225
146 34
146 130
146 226
147 35
147 131
147 227
148 36
148 132
148 228
149 37
149 133
149 229
150 38
150 134
150 230
151 39
151 135
151 231
152 40
152 136
152 232
153 41
153 137
153 233
154 42
154 138
154 234
155 43
155 139
155 235
156 44
156 140
156 236
157 45
157 141
157 237
158 46
158 142
158 238
159 47
159 143
159 239
160 48
160 144
160 240
161 49
161 145
161 241
162 50
162 146
162 242
163 51
163 147
163 243
164 52
164 148
164 244
165 53
165 149
165 245
166 54
166 150
166 246
167 55
167 151
167 247
168 56
168 152
168 248
169 57
169 153
169 249
170 58
170 154
170 250
171 59
171 155
171 251
172 60
172 156
172 252
173 61
173 157
173 253
174 62
174 158
174 254
175 63
175 159
175 255
176 64
176 160
176 256
177 65
177 161
177 257
178 66
178 162
178 258
179 67
179 163
179 259
180 68
180 164
180 260
181 69
181 165
181 261
182 70
182 166
182 262
183 71
183 167
183 263
184 72
184 168
184 264
185 73
185 169
185 265
186 74
186 170
186 266
187 75
187 171
187 267
188 76
188 172
188 268
189 77
189 173
189 269
190 78
190 174
190 270
191 79
191 175
191 271
192 80
192 176
192 272
193 81
193 177
193 273
194 82
194 178
194 274
195 83
195 179
195 275
196 84
196 180
196 276
197 85
197 181
197 277
198 86
198 182
198 278
199 87
199 183
199 279
200 88
200 184
200 280
201 89
201 185
201 281
202 90
202 186
202 282
203 91
203 187
203 283
204 92
204 188
204 284
205 93
205 189
205 285
206 94
206 190
206 286
207 95
207 191
207 287
208 96
208 192
208 288
209 97
209 193
209 289
210 98
210 194
210 290
211 99
211 195
211 291
212 100
212 196
212 292
213 101
213 197
213 293
214 102
214 198
214 294
215 103
215 199
215 295
216 104
216 200
216 296
217 105
217 201
217 297
218 106
218 202
218 298
219 107
219 203
219 299
220 108
220 204
220 300
221 109
221 205
221 301
222 110
222 206
222 302
223 111
223 207
223 303
224 0
224 192
224 272
225 1
225 193
225 273
226 2
226 194
226 274
227 3
227 195
227 275
228 4
228 196
228 276
229 5
229 197
229 277
230 6
230 198
230 278
231 7
231 199
231 279
232 8
232 200
232 280
233 9
233 201
233 281
234 10
234 202
234 282
235 11
235 203
235 283
236 12
236 204
236 284
237 13
237 205
237 285
238 14
238 206
238 286
239 15
239 207
239 287
240 16
240 208
240 288
241 17
241 209
241 289
242 18
242 210
242 290
243 19
243 211
243 291
244 20
244 212
244 292
245 21
245 213
245 293
246 22
246 214
246 294
247 23
247 215
247 295
248 24
248 216
248 296
249 25
249 217
249 297
250 26
250 218
250 298
251 27
251 219
251 299
252 28
252 220
252 300
253 29
253 221
253 301
254 30
254 222
254 302
255 31
255 223
255 303
256 32
256 112
256 304
257 33
257 113
257 305
258 34
258 114
258 306
259 35
259 115
259 307
260 36
260 116
260 308
261 37
261 117
261 309
262 38
262 118
262 310
263 39
263 119
263 311
264 40
264 120
264 312
265 41
265 121
265 313
266 42
266 122
266 314
267 43
267 123
267 315
268 44
268 124
268 316
269 45
269 125
269 317
270 46
270 126
270 318
271 47
271 127
271 319
272 48
272 128
272 320
273 49
273 129
273 321
274 50
274 130
274 322
275 51
275 131
275 323
276 52
276 132
276 324
277 53
277 133
277 325
278 54
278 134
278 326
279 55
279 135
279 327
280 56
280 136
280 328
281 57
281 137
281 329
282 58
282 138
282 330
283 59
283 139
283 331
284 60
284 140
284 332
285 61
285 141
285 333
286 62
286 142
286 334
287 63
287 143
287 335
288 64
288 144
288 224
289 65
289 145
289 225
290 66
290 146
290 226
291 67
291 147
291 227
292 68
292 148
292 228
293 69
293 149
293 229
294 70
294 150
294 230
295 71
295 151
295 231
296 72
296 152
296 232
297 73
297 153
297 233
298 74
298 154
298 234
299 75
299 155
299 235
300 76
300 156
300 236
301 77
301 157
301 237
302 78
302 158
302 238
303 79
303 159
303 239
304 80
304 160
304 240
305 81
305 161
305 241
306 82
306 162
306 242
307 83
307 163
307 243
308 84
308 164
308 244
309 85
309 165
309 245
310 86
310 166
310 246
311 87
311 167
311 247
312 88
312 168
312 248
313 89
313 169
313 249
314 90
314 170
314 250
315 91
315 171
315 251
316 92
316 172
316 252
317 93
317 173
317 253
318 94
318 174
318 254
319 95
319 175
319 255
320 96
320 176
320 256
321 97
321 177
321 257
322 98
322 178
322 258
323 99
323 179
323 259
324 100
324 180
324 260
325 101
325 181
325 261
326 102
326 182
326 262
327 103
327 183
327 263
328 104
328 184
328 264
329 105
329 185
329 265
330 106
330 186
330 266
331 107
331 187
331 267
332 108
332 188
332 268
333 109
333 189
333 269
334 110
334 190
334 270
335 111
335 191
335 271
336 0
336 176
336 240
337 1
337 177
337 241
338 2
338 178
338 242
339 3
339 179
339 243
340 4
340 180
340 244
341 5
341 181
341 245
342 6
342 182
342 246
343 7
343 183
343 247
344 8
344 184
344 248
345 9
345 185
345 249
346 10
346 186
346 250
347 11
347 187
347 251
348 12
348 188
348 252
349 13
349 189
349 253
350 14
350 190
350 254
351 15
351 191
351 255
352 16
352 192
352 256
353 17
353 193
353 257
354 18
354 194
354 258
355 19
355 195
355 259
356 20
356 196
356 260
357 21
357 197
357 261
358 22
358 198
358 262
359 23
359 199
359 263
360 24
360 200
360 264
361 25
361 201
361 265
362 26
362 202
362 266
363 27
363 203
363 267
364 28
364 204
364 268
365 29
365 205
365 269
366 30
366 206
366 270
367 31
367 207
367 271
368 32
368 208
368 272
369 33
369 209
369 273
370 34
370 210
370 274
371 35
371 211
371 275
372 36
372 212
372 276
373 37
373 213
373 277
374 38
374 214
374 278
375 39
375 215
375 279
376 40
376 216
376 280
377 41
377 217
377 281
378 42
378 218
378 282
379 43
379 219
379 283
380 44
380 220
380 284
381 45
381 221
381 285
382 46
382 222
382 286
383 47
383 223
383 287
384 48
384 112
384 288
385 49
385 113
385 289
386 50
386 114
386 290
387 51
387 115
387 291
388 52
388 116
388 292
389 53
389 117
389 293
390 54
390 118
390 294
391 55
391 119
391 295
392 56
392 120
392 296
393 57
393 121
393 297
394 58
394 122
394 298
395 59
395 123
395 299
396 60
396 124
396 300
397 61
397 125
397 301
398 62
398 126
398 302
399 63
399 127
399 303
400 64
400 128
400 304
401 65
401 129
401 305
402 66
402 130
402 306
403 67
403 131
403 307
404 68
404 132
404 308
405 69
405 133
405 309
406 70
406 134
406 310
407 71
407 135
407 311
408 72
408 136
408 312
409 73
409 137
409 313
410 74
410 138
410 314
411 75
411 139
411 315
412 76
412 140
412 316
413 77
413 141
413 317
414 78
414 142
414 318
415 79
415 143
415 319
416 80
416 144
416 320
417 81
417 145
417 321
418 82
418 146
418 322
419 83
419 147
419 323
420 84
420 148
420 324
421 85
421 149
421 325
422 86
422 150
422 326
423 87
423 151
423 327
424 88
424 152
424 328
425 89
425 153
425 329
426 90
426 154
426 330
427 91
427 155
427 331
428 92
428 156
428 332
429 93
429 157
429 333
430 94
430 158
430 334
431 95
431 159
431 335
432 96
432 160
432 224
433 97
433 161
433 225
434 98
434 162
434 226
435 99
435 163
435 227
436 100
436 164
436 228
437 101
437 165
437 229
438 102
438 166
438 230
439 103
439 167
439 231
440 104
440 168
440 232
441 105
441 169
441 233
442 106
442 170
442 234
443 107
443 171
443 235
444 108
444 172
444 236
445 109
445 173
445 237
446 110
446 174
446 238
447 111
447 175
447 239
448 0
448 160
448 320
449 1
449 161
449 321
450 2
450 162
450 322
451 3
451 163
451 323
452 4
452 164
452 324
453 5
453 165
453 325
454 6
454 166
454 326
455 7
455 167
455 327
456 8
456 168
456 328
457 9
457 169
457 329
458 10
458 170
458 330
459 11
459 171
459 331
460 12
460 172
460 332
461 13
461 173
461 333
462 14
462 174
462 334
463 15
463 175
463 335
464 16
464 176
464 224
465 17
465 177
465 225
466 18
466 178
466 226
467 19
467 179
467 227
468 20
468 180
468 228
469 21
469 181
469 229
470 22
470 182
470 230
471 23
471 183
471 231
472 24
472 184
472 232
473 25
473 185
473 233
474 26
474 186
474 234
475 27
475 187
475 235
476 28
476 188
476 236
477 29
477 189
477 237
478 30
478 190
478 238
479 31
479 191
479 239
480 32
480 192
480 240
481 33
481 193
481 241
482 34
482 194
482 242
483 35
483 195
483 243
484 36
484 196
484 244
485 37
485 197
485 245
486 38
486 198
486 246
487 39
487 199
487 247
488 40
488 200
488 248
489 41
489 201
489 249
490 42
490 202
490 250
491 43
491 203
491 251
492 44
492 204
492 252
493 45
493 205
493 253
494 46
494 206
494 254
495 47
495 207
495 255
496 48
496 208
496 256
497 49
497 209
497 257
498 50
498 210
498 258
499 51
499 211
499 259
500 52
500 212
500 260
501 53
501 213
501 261
502 54
502 214
502 262
503 55
503 215
503 263
504 56
504 216
504 264
505 57
505 217
505 265
506 58
506 218
506 266
507 59
507 219
507 267
508 60
508 220
508 268
509 61
509 221
509 269
510 62
510 222
510 270
511 63
511 223
511 271
512 64
512 112
512 272
513 65
513 113
513 273
514 66
514 114
514 274
515 67
515 115
515 275
516 68
516 116
516 276
517 69
517 117
517 277
518 70
518 118
518 278
519 71
519 119
519 279
520 72
520 120
520 280
521 73
521 121
521 281
522 74
522 122
522 282
523 75
523 123
523 283
524 76
524 124
524 284
525 77
525 125
525 285
526 78
526 126
526 286
527 79
527 127
527 287
528 80
528 128
528 288
529 81
529 129
529 289
530 82
530 130
530 290
531 83
531 131
531 291
532 84
532 132
532 292
533 85
533 133
533 293
534 86
534 134
534 294
535 87
535 135
535 295
536 88
536 136
536 296
537 89
537 137
537 297
538 90
538 138
538 298
539 91
539 139
539 299
540 92
540 140
540 300
541 93
541 141
541 301
542 94
542 142
542 302
543 95
543 143
543 303
544 96
544 144
544 304
545 97
545 145
545 305
546 98
546 146
546 306
547 99
547 147
547 307
548 100
548 148
548 308
549 101
549 149
549 309
550 102
550 150
550 310
551 103
551 151
551 311
552 104
552 152
552 312
553 105
553 153
553 313
554 106
554 154
554 314
555 107
555 155
555 315
556 108
556 156
556 316
557 109
557 157
557 317
558 110
558 158
558 318
559 111
559 159
559 319
560 0
560 144
560 288
561 1
561 145
561 289
562 2
562 146
562 290
563 3
563 147
563 291
564 4
564 148
564 292
565 5
565 149
565 293
566 6
566 150
566 294
567 7
567 151
567 295
568 8
568 152
568 296
569 9
569 153
569 297
570 10
570 154
570 298
571 11
571 155
571 299
572 12
572 156
572 300
573 13
573 157
573 301
574 14
574 158
574 302
575 15
575 159
575 303
576 16
576 160
576 304
577 17
577 161
577 305
578 18
578 162
578 306
579 19
579 163
579 307
580 20
580 164
580 308
581 21
581 165
581 309
582 22
582 166
582 310
583 23
583 167
583 311
584 24
584 168
584 312
585 25
585 169
585 313
586 26
586 170
586 314
587 27
587 171
587 315
588 28
588 172
588 316
589 29
589 173
589 317
590 30
590 174
590 318
591 31
591 175
591 319
592 32
592 176
592 320
593 33
593 177
593 321
594 34
594 178
594 322
595 35
595 179
595 323
596 36
596 180
596 324
597 37
597 181
597 325
598 38
598 182
598 326
599 39
599 183
599 327
600 40
600 184
600 328
601 41
601 185
601 329
602 42
602 186
602 330
603 43
603 187
603 331
604 44
604 188
604 332
605 45
605 189
605 333
606 46
606 190
606 334
607 47
607 191
607 335
608 48
608 192
608 224
609 49
609 193
609 225
610 50
610 194
610 226
611 51
611 195
611 227
612 52
612 196
612 228
613 53
613 197
613 229
614 54
614 198
614 230
615 55
615 199
615 231
616 56
616 200
616 232
617 57
617 201
617 233
618 58
618 202
618 234
619 59
619 203
619 235
620 60
620 204
620 236
621 61
621 205
621 237
622 62
622 206
622 238
623 63
623 207
623 239
624 64
624 208
624 240
625 65
625 209
625 241
626 66
626 210
626 242
627 67
627 211
627 243
628 68
628 212
628 244
629 69
629 213
629 245
630 70
630 214
630 246
631 71
631 215
631 247
632 72
632 216
632 248
633 73
633 217
633 249
634 74
634 218
634 250
635 75
635 219
635 251
636 76
636 220
636 252
637 77
637 221
637 253
638 78
638 222
638 254
639 79
639 223
639 255
640 80
640 112
640 256
641 81
641 113
641 257
642 82
642 114
642 258
643 83
643 115
643 259
644 84
644 116
644 260
645 85
645 117
645 261
646 86
646 118
646 262
647 87
647 119
647 263
648 88
648 120
648 264
649 89
649 121
649 265
650 90
650 122
650 266
651 91
651 123
651 267
652 92
652 124
652 268
653 93
653 125
653 269
654 94
654 126
654 270
655 95
655 127
655 271
656 96
656 128
656 272
657 97
657 129
657 273
658 98
658 130
658 274
659 99
659 131
659 275
660 100
660 132
660 276
661 101
661 133
661 277
662 102
662 134
662 278
663 103
663 135
663 279
664 104
664 136
664 280
665 105
665 137
665 281
666 106
666 138
666 282
667 107
667 139
667 283
668 108
668 140
668 284
669 109
669 141
669 285
670 110
670 142
670 286
671 111
671 143
671 287
