42 21 126
0 0
0 7
0 14
1 1
1 8
1 15
2 2
2 9
2 16
3 3
3 10
3 17
4 4
4 11
4 18
5 5
5 12
5 19
6 6
6 13
6 20
7 0
7 13
7 19
8 1
8 7
8 20
9 2
9 8
9 14
10 3
10 9
10 15
11 4
11 10
11 16
12 5
12 11
12 17
13 6
13 12
13 18
14 0
14 12
14 17
15 1
15 13
15 18
16 2
16 7
16 19
17 3
17 8
17 20
18 4
18 9
18 14
19 5
19 10
19 15
20 6
20 11
20 16
21 0
21 11
21 15
22 1
22 12
22 16
23 2
23 13
23 17
24 3
24 7
24 18
25 4
25 8
25 19
26 5
26 9
26 20
27 6
27 10
27 14
28 0
28 10
28 20
29 1
29 11
29 14
30 2
30 12
30 15
31 3
31 13
31 16
32 4
32 7
32 17
33 5
33 8
33 18
34 6
34 9
34 19
35 0
35 9
35 18
36 1
36 10
36 19
37 2
37 11
37 20
38 3
38 12
38 14
39 4
39 13
39 15
40 5
40 7
40 16
41 6
41 8
41 17
