10752 5376 32256
0 95
0 1963
0 3688
1 36
1 1921
1 3658
2 200
2 2003
2 3743
3 88
3 1978
3 3599
4 1
4 1959
4 3766
5 194
5 1983
5 3741
6 209
6 1808
6 3631
7 15
7 2032
7 3795
8 63
8 1882
8 3763
9 23
9 1930
9 3831
10 145
10 1928
10 3675
11 22
11 2009
11 3746
12 246
12 1962
12 3630
13 68
13 1841
13 3704
14 42
14 1973
14 3672
15 233
15 1986
15 3682
16 84
16 1801
16 3733
17 244
17 2008
17 3768
18 12
18 1835
18 3752
19 29
19 1977
19 3731
20 90
20 2028
20 3800
21 74
21 1951
21 3778
22 53
22 1989
22 3755
23 241
23 2036
23 3745
24 2
24 2000
24 3636
25 168
25 1993
25 3836
26 195
26 1845
26 3598
27 164
27 1823
27 3721
28 203
28 1807
28 3728
29 185
29 1843
29 3665
30 160
30 1800
30 3761
31 102
31 2011
31 3788
32 56
32 1905
32 3729
33 4
33 1974
33 3835
34 48
34 1968
34 3623
35 133
35 2027
35 3684
36 117
36 1960
36 3715
37 32
37 1890
37 3767
38 30
38 1806
38 3611
39 237
39 1865
39 3629
40 65
40 1885
40 3769
41 52
41 1877
41 3790
42 254
42 1945
42 3804
43 212
43 1842
43 3806
44 208
44 1914
44 3789
45 189
45 1792
45 3730
46 156
46 1833
46 3632
47 31
47 1860
47 3700
48 252
48 1943
48 3620
49 178
49 1917
49 3732
50 159
50 1940
50 3724
51 155
51 2019
51 3710
52 127
52 1826
52 3613
53 34
53 1891
53 3650
54 167
54 1899
54 3785
55 19
55 1886
55 3825
56 190
56 1821
56 3799
57 93
57 1870
57 3737
58 154
58 1992
58 3685
59 181
59 1839
59 3779
60 130
60 1942
60 3739
61 242
61 1795
61 3601
62 247
62 1879
62 3604
63 230
63 2004
63 3726
64 225
64 1893
64 3610
65 9
65 1822
65 3588
66 7
66 2042
66 3669
67 107
67 1948
67 3694
68 184
68 1836
68 3756
69 220
69 1866
69 3646
70 125
70 1915
70 3612
71 169
71 1853
71 3660
72 27
72 1873
72 3679
73 37
73 1918
73 3695
74 137
74 2001
74 3656
75 206
75 2002
75 3698
76 183
76 1876
76 3596
77 248
77 2013
77 3820
78 172
78 1947
78 3705
79 174
79 1996
79 3770
80 175
80 1867
80 3633
81 83
81 1794
81 3815
82 161
82 1910
82 3735
83 199
83 1874
83 3803
84 86
84 2005
84 3734
85 179
85 1898
85 3690
86 126
86 1829
86 3713
87 62
87 1864
87 3725
88 224
88 2020
88 3659
89 180
89 1967
89 3762
90 198
90 1927
90 3634
91 147
91 1900
91 3742
92 24
92 1902
92 3817
93 5
93 1881
93 3838
94 165
94 1849
94 3664
95 216
95 1971
95 3744
96 222
96 1907
96 3805
97 251
97 1965
97 3689
98 55
98 1814
98 3635
99 3
99 1939
99 3680
100 115
100 1827
100 3722
101 131
101 1984
101 3839
102 113
102 1818
102 3786
103 101
103 1872
103 3699
104 40
104 1988
104 3796
105 132
105 1908
105 3615
106 0
106 2034
106 3714
107 73
107 1906
107 3594
108 103
108 1883
108 3712
109 186
109 1990
109 3816
110 71
110 2037
110 3647
111 97
111 2024
111 3813
112 50
112 1933
112 3641
113 114
113 1848
113 3781
114 235
114 1957
114 3793
115 243
115 1862
115 3676
116 89
116 1869
116 3624
117 119
117 1859
117 3595
118 229
118 1982
118 3808
119 219
119 1950
119 3605
120 253
120 1856
120 3618
121 51
121 1892
121 3751
122 255
122 1857
122 3687
123 104
123 1924
123 3810
124 26
124 1850
124 3626
125 11
125 1944
125 3780
126 44
126 1831
126 3625
127 46
127 2026
127 3677
128 91
128 1998
128 3673
129 250
129 1985
129 3691
130 120
130 1934
130 3783
131 59
131 1802
131 3801
132 35
132 1837
132 3692
133 228
133 2025
133 3764
134 116
134 1851
134 3602
135 135
135 1812
135 3824
136 215
136 1811
136 3771
137 64
137 2015
137 3826
138 245
138 1868
138 3653
139 192
139 2038
139 3798
140 82
140 2021
140 3637
141 158
141 1904
141 3600
142 70
142 2044
142 3747
143 141
143 1816
143 3686
144 43
144 1941
144 3708
145 182
145 1987
145 3738
146 94
146 2012
146 3775
147 6
147 1916
147 3661
148 202
148 1994
148 3614
149 47
149 1952
149 3723
150 232
150 1895
150 3651
151 240
151 1813
151 3823
152 33
152 1838
152 3758
153 157
153 1956
153 3592
154 166
154 1834
154 3603
155 118
155 1995
155 3749
156 21
156 1798
156 3587
157 110
157 2041
157 3833
158 66
158 1797
158 3648
159 72
159 1912
159 3753
160 249
160 2023
160 3716
161 80
161 2010
161 3627
162 188
162 2046
162 3667
163 87
163 1953
163 3640
164 13
164 1825
164 3606
165 128
165 1809
165 3621
166 92
166 2045
166 3617
167 69
167 1949
167 3717
168 205
168 2006
168 3794
169 149
169 2029
169 3818
170 144
170 1810
170 3832
171 14
171 1975
171 3727
172 218
172 1946
172 3718
173 85
173 2031
173 3584
174 39
174 1919
174 3586
175 122
175 1976
175 3748
176 61
176 1863
176 3683
177 100
177 1929
177 3791
178 121
178 2017
178 3760
179 227
179 2033
179 3678
180 226
180 1846
180 3616
181 111
181 2039
181 3642
182 17
182 1938
182 3774
183 193
183 1832
183 3754
184 148
184 1937
184 3837
185 177
185 1897
185 3662
186 96
186 1966
186 3597
187 213
187 1858
187 3736
188 112
188 1888
188 3697
189 10
189 1799
189 3797
190 201
190 1980
190 3622
191 57
191 1896
191 3719
192 28
192 1803
192 3593
193 211
193 1923
193 3834
194 239
194 1964
194 3652
195 214
195 1815
195 3811
196 153
196 1861
196 3643
197 146
197 1958
197 3787
198 49
198 1972
198 3819
199 98
199 2016
199 3668
200 45
200 1969
200 3809
201 142
201 1926
201 3750
202 173
202 1796
202 3830
203 79
203 2007
203 3670
204 143
204 1901
204 3663
205 176
205 1884
205 3740
206 81
206 1920
206 3702
207 75
207 1819
207 3827
208 129
208 2022
208 3707
209 170
209 1820
209 3590
210 58
210 1854
210 3757
211 231
211 1961
211 3655
212 134
212 1981
212 3776
213 238
213 1935
213 3765
214 41
214 1840
214 3607
215 196
215 1909
215 3792
216 76
216 1880
216 3807
217 18
217 1913
217 3628
218 210
218 1936
218 3828
219 123
219 2035
219 3711
220 67
220 1955
220 3644
221 38
221 2018
221 3773
222 138
222 1894
222 3657
223 234
223 1991
223 3654
224 106
224 1931
224 3671
225 139
225 1855
225 3802
226 236
226 1970
226 3649
227 105
227 1979
227 3666
228 8
228 1999
228 3821
229 197
229 1922
229 3609
230 20
230 2047
230 3591
231 109
231 2014
231 3589
232 140
232 1828
232 3638
233 108
233 1805
233 3701
234 223
234 1997
234 3703
235 77
235 1804
235 3777
236 25
236 1844
236 3812
237 54
237 1793
237 3619
238 204
238 1847
238 3709
239 191
239 1817
239 3720
240 162
240 1903
240 3822
241 171
241 1824
241 3639
242 99
242 1852
242 3772
243 187
243 1830
243 3645
244 151
244 1878
244 3784
245 136
245 1954
245 3693
246 152
246 1875
246 3759
247 124
247 1911
247 3782
248 78
248 1925
248 3706
249 221
249 2043
249 3681
250 217
250 1889
250 3696
251 163
251 2040
251 3585
252 16
252 2030
252 3829
253 207
253 1932
253 3674
254 60
254 1887
254 3608
255 150
255 1871
255 3814
256 288
256 2099
256 3996
257 260
257 2059
257 4021
258 442
258 2277
258 3966
259 383
259 2066
259 4050
260 467
260 2250
260 3984
261 364
261 2075
261 3938
262 392
262 2081
262 3941
263 349
263 2294
263 4052
264 277
264 2198
264 3950
265 492
265 2272
265 4094
266 267
266 2226
266 3919
267 296
267 2052
267 3849
268 334
268 2231
268 4029
269 419
269 2227
269 4047
270 429
270 2141
270 3842
271 422
271 2156
271 3879
272 362
272 2295
272 3878
273 507
273 2291
273 4060
274 503
274 2171
274 4066
275 490
275 2206
275 3900
276 347
276 2154
276 4051
277 351
277 2192
277 4020
278 387
278 2223
278 3963
279 417
279 2267
279 3959
280 414
280 2219
280 3956
281 294
281 2109
281 4077
282 350
282 2142
282 4078
283 308
283 2124
283 4005
284 291
284 2271
284 4069
285 363
285 2186
285 3897
286 496
286 2053
286 4031
287 303
287 2077
287 4073
288 445
288 2095
288 3889
289 468
289 2213
289 4007
290 502
290 2233
290 3936
291 320
291 2284
291 3910
292 499
292 2125
292 3866
293 280
293 2121
293 3997
294 409
294 2119
294 3885
295 506
295 2087
295 4085
296 379
296 2263
296 3884
297 480
297 2105
297 3846
298 366
298 2216
298 4022
299 323
299 2146
299 3855
300 273
300 2276
300 3987
301 425
301 2264
301 4076
302 257
302 2210
302 3953
303 377
303 2201
303 3840
304 444
304 2074
304 4056
305 301
305 2056
305 3894
306 384
306 2238
306 3887
307 302
307 2246
307 3998
308 402
308 2155
308 3945
309 434
309 2164
309 3975
310 343
310 2218
310 3972
311 401
311 2063
311 3926
312 298
312 2113
312 3909
313 287
313 2165
313 3875
314 435
314 2243
314 3964
315 265
315 2257
315 3980
316 500
316 2278
316 4081
317 380
317 2096
317 3880
318 337
318 2065
318 3882
319 286
319 2237
319 3947
320 293
320 2057
320 4053
321 464
321 2182
321 3918
322 279
322 2301
322 4036
323 465
323 2131
323 4019
324 373
324 2148
324 4044
325 389
325 2212
325 4083
326 418
326 2070
326 4046
327 466
327 2280
327 3968
328 295
328 2085
328 3905
329 258
329 2285
329 3916
330 489
330 2202
330 3898
331 261
331 2260
331 4064
332 436
332 2290
332 4003
333 338
333 2147
333 3979
334 365
334 2289
334 3868
335 341
335 2150
335 3993
336 367
336 2126
336 3865
337 397
337 2145
337 4000
338 453
338 2249
338 3902
339 275
339 2207
339 3990
340 486
340 2240
340 4023
341 508
341 2050
341 4028
342 372
342 2101
342 3934
343 332
343 2116
343 4092
344 315
344 2089
344 3935
345 269
345 2181
345 3925
346 511
346 2179
346 3854
347 494
347 2196
347 3978
348 382
348 2061
348 3911
349 348
349 2162
349 4032
350 458
350 2173
350 4035
351 433
351 2054
351 4090
352 266
352 2296
352 3899
353 455
353 2269
353 3944
354 304
354 2143
354 4070
355 456
355 2137
355 3974
356 393
356 2160
356 3969
357 314
357 2128
357 4039
358 462
358 2166
358 3907
359 271
359 2093
359 3859
360 452
360 2169
360 3860
361 375
361 2279
361 3955
362 268
362 2205
362 4071
363 264
363 2217
363 4093
364 483
364 2244
364 3895
365 360
365 2102
365 4089
366 440
366 2172
366 4017
367 478
367 2086
367 3954
368 326
368 2106
368 4067
369 299
369 2082
369 3906
370 307
370 2266
370 3995
371 386
371 2222
371 3973
372 318
372 2239
372 3920
373 460
373 2115
373 3929
374 427
374 2195
374 4040
375 321
375 2091
375 3863
376 340
376 2302
376 3852
377 475
377 2088
377 4075
378 276
378 2258
378 4008
379 336
379 2167
379 3872
380 376
380 2185
380 3981
381 501
381 2299
381 4084
382 476
382 2076
382 4012
383 306
383 2132
383 3896
384 405
384 2193
384 3982
385 441
385 2110
385 4065
386 359
386 2178
386 3923
387 356
387 2072
387 3870
388 399
388 2130
388 3912
389 447
389 2062
389 3931
390 333
390 2259
390 4042
391 282
391 2103
391 4068
392 407
392 2261
392 4062
393 446
393 2107
393 4037
394 426
394 2114
394 3913
395 274
395 2080
395 3967
396 495
396 2049
396 3876
397 493
397 2144
397 4079
398 358
398 2191
398 4034
399 305
399 2242
399 3952
400 421
400 2083
400 3989
401 413
401 2188
401 4006
402 491
402 2251
402 3946
403 278
403 2253
403 3857
404 319
404 2292
404 3994
405 313
405 2252
405 4041
406 270
406 2071
406 4087
407 272
407 2220
407 3847
408 423
408 2170
408 4010
409 335
409 2273
409 4026
410 309
410 2211
410 3977
411 353
411 2118
411 4018
412 370
412 2180
412 3922
413 398
413 2194
413 3862
414 325
414 2058
414 4061
415 504
415 2134
415 3892
416 283
416 2224
416 4086
417 416
417 2236
417 3841
418 404
418 2255
418 3942
419 339
419 2175
419 3845
420 403
420 2197
420 3948
421 461
421 2098
421 4025
422 406
422 2281
422 3961
423 451
423 2187
423 3921
424 448
424 2286
424 3928
425 259
425 2068
425 3940
426 437
426 2203
426 3927
427 473
427 2138
427 4072
428 331
428 2230
428 4015
429 310
429 2084
429 4002
430 497
430 2225
430 4013
431 412
431 2204
431 3957
432 262
432 2214
432 3971
433 463
433 2161
433 3908
434 430
434 2208
434 3939
435 378
435 2274
435 4004
436 482
436 2108
436 3915
437 498
437 2168
437 3856
438 408
438 2055
438 3877
439 328
439 2158
439 3962
440 415
440 2247
440 3933
441 484
441 2060
441 4059
442 411
442 2139
442 3844
443 371
443 2229
443 3850
444 327
444 2300
444 4009
445 424
445 2184
445 3983
446 374
446 2293
446 3888
447 297
447 2104
447 3867
448 443
448 2097
448 3965
449 284
449 2287
449 3901
450 449
450 2221
450 3917
451 396
451 2189
451 3991
452 345
452 2051
452 4082
453 292
453 2190
453 3903
454 369
454 2064
454 4063
455 479
455 2199
455 3951
456 357
456 2135
456 4043
457 469
457 2127
457 3914
458 317
458 2151
458 3871
459 316
459 2275
459 4080
460 439
460 2241
460 3851
461 395
461 2159
461 3904
462 285
462 2209
462 4016
463 474
463 2120
463 4033
464 454
464 2235
464 4058
465 388
465 2078
465 4074
466 381
466 2079
466 3848
467 324
467 2067
467 3864
468 352
468 2152
468 4048
469 329
469 2265
469 4027
470 300
470 2234
470 3937
471 322
471 2256
471 4024
472 485
472 2303
472 3881
473 431
473 2112
473 4054
474 472
474 2200
474 3858
475 487
475 2232
475 4091
476 355
476 2149
476 4038
477 263
477 2245
477 3874
478 342
478 2228
478 4057
479 256
479 2176
479 3891
480 410
480 2288
480 3932
481 394
481 2048
481 3893
482 481
482 2262
482 4030
483 354
483 2094
483 3992
484 281
484 2153
484 4001
485 450
485 2157
485 3976
486 368
486 2092
486 3924
487 312
487 2117
487 3843
488 457
488 2183
488 3960
489 390
489 2282
489 3883
490 509
490 2174
490 4014
491 361
491 2122
491 3958
492 344
492 2073
492 3930
493 311
493 2136
493 3943
494 488
494 2069
494 4055
495 346
495 2111
495 3861
496 459
496 2177
496 3873
497 470
497 2248
497 3886
498 505
498 2100
498 3949
499 477
499 2215
499 3988
500 289
500 2129
500 3985
501 330
501 2297
501 3853
502 438
502 2268
502 3970
503 428
503 2140
503 4088
504 510
504 2283
504 3890
505 420
505 2133
505 4049
506 471
506 2298
506 3986
507 432
507 2254
507 3999
508 400
508 2090
508 3869
509 391
509 2270
509 4095
510 385
510 2123
510 4011
511 290
511 2163
511 4045
512 569
512 2321
512 4240
513 765
513 2308
513 4303
514 580
514 2322
514 4115
515 660
515 2424
515 4307
516 622
516 2504
516 4157
517 693
517 2359
517 4113
518 625
518 2401
518 4177
519 745
519 2390
519 4175
520 540
520 2416
520 4311
521 544
521 2346
521 4193
522 522
522 2307
522 4233
523 549
523 2432
523 4205
524 646
524 2406
524 4215
525 595
525 2442
525 4239
526 590
526 2530
526 4202
527 542
527 2482
527 4211
528 636
528 2544
528 4299
529 613
529 2512
529 4224
530 637
530 2317
530 4182
531 528
531 2435
531 4256
532 691
532 2324
532 4169
533 605
533 2554
533 4253
534 576
534 2366
534 4124
535 566
535 2394
535 4247
536 643
536 2428
536 4166
537 669
537 2336
537 4121
538 682
538 2384
538 4343
539 538
539 2419
539 4221
540 763
540 2374
540 4295
541 662
541 2445
541 4334
542 701
542 2325
542 4335
543 556
543 2459
543 4098
544 632
544 2371
544 4142
545 541
545 2452
545 4317
546 752
546 2476
546 4141
547 518
547 2410
547 4312
548 671
548 2480
548 4290
549 585
549 2539
549 4107
550 539
550 2506
550 4339
551 638
551 2355
551 4192
552 629
552 2360
552 4315
553 630
553 2375
553 4231
554 560
554 2351
554 4206
555 606
555 2382
555 4160
556 762
556 2420
556 4128
557 742
557 2463
557 4229
558 666
558 2472
558 4338
559 766
559 2415
559 4136
560 635
560 2478
560 4168
561 529
561 2516
561 4129
562 527
562 2331
562 4174
563 581
563 2409
563 4147
564 756
564 2533
564 4241
565 578
565 2484
565 4314
566 748
566 2323
566 4146
567 757
567 2334
567 4271
568 740
568 2326
568 4350
569 737
569 2546
569 4170
570 524
570 2411
570 4297
571 724
571 2507
571 4183
572 521
572 2433
572 4162
573 516
573 2412
573 4286
574 639
574 2414
574 4125
575 631
575 2525
575 4139
576 708
576 2494
576 4276
577 531
577 2437
577 4200
578 644
578 2529
578 4346
579 608
579 2367
579 4291
580 557
580 2396
580 4337
581 749
581 2413
581 4244
582 692
582 2350
582 4298
583 754
583 2541
583 4268
584 755
584 2426
584 4167
585 687
585 2537
585 4213
586 702
586 2555
586 4101
587 698
587 2450
587 4252
588 641
588 2380
588 4228
589 663
589 2535
589 4340
590 588
590 2469
590 4259
591 718
591 2509
591 4209
592 571
592 2460
592 4293
593 700
593 2370
593 4316
594 661
594 2310
594 4217
595 612
595 2538
595 4341
596 677
596 2470
596 4230
597 559
597 2515
597 4220
598 680
598 2358
598 4278
599 753
599 2440
599 4345
600 602
600 2339
600 4138
601 678
601 2493
601 4212
602 713
602 2327
602 4127
603 672
603 2528
603 4197
604 674
604 2405
604 4319
605 697
605 2378
605 4267
606 604
606 2461
606 4347
607 565
607 2439
607 4163
608 731
608 2315
608 4282
609 614
609 2392
609 4305
610 652
610 2386
610 4225
611 517
611 2483
611 4196
612 689
612 2548
612 4145
613 553
613 2464
613 4148
614 647
614 2362
614 4187
615 546
615 2534
615 4273
616 543
616 2449
616 4308
617 741
617 2318
617 4280
618 648
618 2475
618 4258
619 750
619 2496
619 4226
620 551
620 2454
620 4348
621 733
621 2477
621 4277
622 667
622 2466
622 4216
623 654
623 2314
623 4336
624 525
624 2492
624 4189
625 645
625 2471
625 4272
626 744
626 2316
626 4300
627 615
627 2448
627 4351
628 640
628 2434
628 4266
629 726
629 2453
629 4318
630 550
630 2365
630 4257
631 513
631 2388
631 4161
632 601
632 2398
632 4159
633 526
633 2557
633 4199
634 618
634 2391
634 4134
635 594
635 2348
635 4330
636 621
636 2404
636 4144
637 725
637 2320
637 4137
638 573
638 2519
638 4349
639 728
639 2357
639 4178
640 738
640 2438
640 4251
641 515
641 2502
641 4292
642 596
642 2372
642 4149
643 715
643 2407
643 4329
644 623
644 2491
644 4188
645 535
645 2354
645 4130
646 537
646 2457
646 4143
647 704
647 2312
647 4164
648 589
648 2456
648 4116
649 739
649 2511
649 4110
650 710
650 2333
650 4106
651 767
651 2430
651 4123
652 653
652 2338
652 4242
653 587
653 2436
653 4185
654 664
654 2387
654 4203
655 514
655 2425
655 4262
656 620
656 2536
656 4344
657 523
657 2458
657 4327
658 727
658 2495
658 4158
659 730
659 2422
659 4288
660 696
660 2545
660 4218
661 564
661 2309
661 4245
662 512
662 2446
662 4246
663 721
663 2341
663 4122
664 552
664 2498
664 4152
665 743
665 2304
665 4208
666 570
666 2455
666 4260
667 619
667 2369
667 4117
668 709
668 2481
668 4214
669 668
669 2451
669 4281
670 582
670 2518
670 4135
671 627
671 2552
671 4279
672 761
672 2377
672 4306
673 562
673 2489
673 4296
674 558
674 2550
674 4275
675 746
675 2389
675 4222
676 665
676 2418
676 4323
677 563
677 2510
677 4248
678 699
678 2527
678 4198
679 719
679 2344
679 4186
680 711
680 2431
680 4321
681 520
681 2551
681 4264
682 714
682 2381
682 4181
683 694
683 2543
683 4283
684 579
684 2508
684 4333
685 759
685 2497
685 4154
686 747
686 2485
686 4120
687 597
687 2376
687 4263
688 695
688 2408
688 4108
689 626
689 2521
689 4109
690 532
690 2397
690 4111
691 609
691 2500
691 4261
692 705
692 2553
692 4210
693 657
693 2479
693 4324
694 593
694 2349
694 4309
695 599
695 2524
695 4287
696 554
696 2337
696 4310
697 598
697 2501
697 4194
698 683
698 2305
698 4179
699 574
699 2402
699 4227
700 607
700 2499
700 4331
701 732
701 2363
701 4131
702 717
702 2332
702 4255
703 611
703 2444
703 4190
704 712
704 2522
704 4105
705 707
705 2329
705 4219
706 736
706 2467
706 4207
707 681
707 2513
707 4223
708 572
708 2468
708 4265
709 656
709 2385
709 4119
710 649
710 2505
710 4322
711 642
711 2403
711 4284
712 547
712 2488
712 4270
713 603
713 2558
713 4184
714 616
714 2313
714 4250
715 675
715 2473
715 4171
716 519
716 2490
716 4102
717 536
717 2393
717 4195
718 703
718 2347
718 4126
719 679
719 2487
719 4165
720 555
720 2542
720 4234
721 676
721 2559
721 4243
722 586
722 2356
722 4328
723 760
723 2383
723 4173
724 729
724 2373
724 4238
725 670
725 2531
725 4232
726 686
726 2443
726 4325
727 545
727 2523
727 4096
728 734
728 2343
728 4237
729 548
729 2400
729 4104
730 534
730 2517
730 4313
731 688
731 2503
731 4132
732 617
732 2441
732 4326
733 650
733 2429
733 4176
734 764
734 2306
734 4156
735 577
735 2395
735 4294
736 624
736 2547
736 4289
737 633
737 2340
737 4332
738 723
738 2330
738 4155
739 533
739 2421
739 4100
740 600
740 2549
740 4172
741 610
741 2474
741 4103
742 735
742 2447
742 4249
743 634
743 2540
743 4133
744 685
744 2364
744 4097
745 628
745 2465
745 4254
746 706
746 2514
746 4204
747 658
747 2486
747 4201
748 591
748 2368
748 4180
749 716
749 2328
749 4140
750 592
750 2526
750 4304
751 758
751 2399
751 4285
752 575
752 2352
752 4320
753 722
753 2423
753 4153
754 720
754 2361
754 4150
755 684
755 2342
755 4302
756 567
756 2335
756 4269
757 530
757 2462
757 4118
758 751
758 2311
758 4274
759 561
759 2417
759 4342
760 659
760 2379
760 4112
761 673
761 2520
761 4236
762 584
762 2353
762 4191
763 655
763 2345
763 4099
764 651
764 2319
764 4301
765 568
765 2532
765 4235
766 583
766 2556
766 4151
767 690
767 2427
767 4114
768 990
768 2727
768 4508
769 927
769 2792
769 4523
770 978
770 2685
770 4569
771 924
771 2565
771 4354
772 930
772 2784
772 4542
773 832
773 2634
773 4485
774 999
774 2753
774 4547
775 985
775 2710
775 4528
776 837
776 2733
776 4461
777 941
777 2615
777 4477
778 882
778 2797
778 4509
779 994
779 2785
779 4373
780 836
780 2613
780 4453
781 895
781 2761
781 4378
782 984
782 2599
782 4534
783 959
783 2791
783 4355
784 800
784 2746
784 4353
785 831
785 2588
785 4594
786 780
786 2598
786 4565
787 824
787 2638
787 4430
788 986
788 2609
788 4405
789 1010
789 2600
789 4472
790 964
790 2790
790 4537
791 929
791 2586
791 4582
792 928
792 2730
792 4396
793 923
793 2789
793 4446
794 965
794 2748
794 4520
795 851
795 2657
795 4554
796 918
796 2782
796 4493
797 845
797 2719
797 4440
798 842
798 2604
798 4377
799 869
799 2594
799 4452
800 982
800 2652
800 4365
801 883
801 2692
801 4454
802 1008
802 2759
802 4596
803 774
803 2693
803 4584
804 1003
804 2674
804 4495
805 970
805 2571
805 4473
806 903
806 2623
806 4425
807 1009
807 2793
807 4515
808 806
808 2633
808 4371
809 822
809 2726
809 4480
810 815
810 2587
810 4516
811 797
811 2570
811 4586
812 828
812 2614
812 4605
813 958
813 2636
813 4604
814 1018
814 2794
814 4395
815 779
815 2783
815 4364
816 972
816 2803
816 4436
817 855
817 2732
817 4476
818 995
818 2561
818 4478
819 889
819 2745
819 4479
820 858
820 2564
820 4500
821 971
821 2585
821 4598
822 813
822 2626
822 4468
823 966
823 2744
823 4413
824 1004
824 2670
824 4463
825 935
825 2635
825 4469
826 894
826 2651
826 4543
827 886
827 2713
827 4459
828 805
828 2637
828 4498
829 921
829 2701
829 4558
830 931
830 2612
830 4494
831 914
831 2686
831 4435
832 785
832 2712
832 4471
833 794
833 2724
833 4580
834 936
834 2787
834 4437
835 811
835 2595
835 4548
836 926
836 2576
836 4448
837 887
837 2619
837 4570
838 1015
838 2579
838 4426
839 993
839 2800
839 4406
840 1013
840 2702
840 4525
841 802
841 2577
841 4389
842 940
842 2568
842 4540
843 793
843 2580
843 4531
844 808
844 2624
844 4400
845 801
845 2573
845 4591
846 898
846 2735
846 4590
847 783
847 2678
847 4445
848 776
848 2640
848 4420
849 943
849 2814
849 4462
850 963
850 2583
850 4434
851 881
851 2641
851 4388
852 835
852 2768
852 4606
853 906
853 2643
853 4422
854 773
854 2628
854 4466
855 788
855 2639
855 4510
856 833
856 2766
856 4499
857 789
857 2611
857 4457
858 1006
858 2656
858 4418
859 933
859 2683
859 4379
860 956
860 2569
860 4507
861 1005
861 2709
861 4381
862 843
862 2621
862 4393
863 938
863 2572
863 4444
864 1001
864 2815
864 4358
865 967
865 2764
865 4597
866 977
866 2760
866 4411
867 841
867 2717
867 4385
868 771
868 2669
868 4578
869 988
869 2801
869 4511
870 1020
870 2632
870 4409
871 880
871 2629
871 4367
872 877
872 2575
872 4522
873 962
873 2731
873 4470
874 957
874 2738
874 4428
875 910
875 2743
875 4474
876 878
876 2699
876 4415
877 840
877 2673
877 4519
878 981
878 2781
878 4382
879 790
879 2756
879 4363
880 817
880 2813
880 4401
881 820
881 2663
881 4579
882 1012
882 2696
882 4429
883 980
883 2774
883 4544
884 810
884 2650
884 4376
885 857
885 2671
885 4583
886 909
886 2610
886 4417
887 860
887 2654
887 4375
888 897
888 2679
888 4492
889 791
889 2708
889 4501
890 847
890 2705
890 4491
891 821
891 2786
891 4553
892 902
892 2691
892 4427
893 961
893 2711
893 4359
894 854
894 2665
894 4423
895 960
895 2631
895 4564
896 834
896 2603
896 4390
897 951
897 2725
897 4442
898 901
898 2780
898 4407
899 973
899 2647
899 4574
900 839
900 2728
900 4496
901 1014
901 2703
901 4488
902 1017
902 2661
902 4588
903 770
903 2704
903 4599
904 952
904 2765
904 4360
905 969
905 2757
905 4356
906 904
906 2747
906 4398
907 885
907 2715
907 4602
908 893
908 2655
908 4535
909 1016
909 2667
909 4438
910 915
910 2606
910 4566
911 784
911 2597
911 4559
912 850
912 2675
912 4503
913 778
913 2622
913 4539
914 922
914 2684
914 4424
915 852
915 2720
915 4483
916 772
916 2698
916 4526
917 997
917 2648
917 4370
918 942
918 2672
918 4551
919 812
919 2589
919 4603
920 856
920 2812
920 4384
921 818
921 2750
921 4512
922 799
922 2681
922 4404
923 865
923 2662
923 4572
924 816
924 2779
924 4416
925 905
925 2808
925 4369
926 937
926 2802
926 4403
927 884
927 2706
927 4465
928 974
928 2676
928 4392
929 870
929 2763
929 4366
930 892
930 2618
930 4561
931 827
931 2716
931 4408
932 991
932 2752
932 4505
933 992
933 2630
933 4575
934 809
934 2627
934 4391
935 925
935 2805
935 4593
936 955
936 2646
936 4481
937 920
937 2653
937 4368
938 949
938 2810
938 4414
939 954
939 2578
939 4567
940 848
940 2602
940 4506
941 912
941 2608
941 4352
942 781
942 2616
942 4546
943 795
943 2737
943 4549
944 932
944 2584
944 4502
945 804
945 2581
945 4475
946 866
946 2758
946 4589
947 900
947 2777
947 4402
948 891
948 2700
948 4533
949 876
949 2721
949 4443
950 787
950 2749
950 4541
951 1019
951 2659
951 4482
952 907
952 2775
952 4362
953 864
953 2607
953 4576
954 825
954 2620
954 4467
955 819
955 2660
955 4592
956 782
956 2796
956 4560
957 807
957 2601
957 4600
958 983
958 2563
958 4514
959 948
959 2677
959 4412
960 786
960 2562
960 4456
961 908
961 2755
961 4527
962 899
962 2742
962 4458
963 919
963 2729
963 4518
964 945
964 2795
964 4419
965 911
965 2617
965 4536
966 872
966 2680
966 4487
967 814
967 2625
967 4431
968 913
968 2566
968 4447
969 777
969 2645
969 4387
970 863
970 2682
970 4532
971 1023
971 2664
971 4450
972 1002
972 2592
972 4451
973 838
973 2694
973 4587
974 896
974 2809
974 4421
975 1000
975 2811
975 4484
976 853
976 2714
976 4552
977 953
977 2776
977 4374
978 996
978 2697
978 4550
979 775
979 2799
979 4545
980 823
980 2593
980 4386
981 888
981 2770
981 4372
982 846
982 2574
982 4439
983 826
983 2778
983 4449
984 989
984 2644
984 4486
985 1022
985 2658
985 4557
986 947
986 2591
986 4538
987 830
987 2582
987 4517
988 768
988 2788
988 4585
989 796
989 2771
989 4555
990 867
990 2642
990 4497
991 916
991 2695
991 4460
992 890
992 2769
992 4573
993 798
993 2718
993 4607
994 987
994 2739
994 4513
995 868
995 2690
995 4581
996 1011
996 2689
996 4410
997 998
997 2649
997 4504
998 829
998 2707
998 4601
999 875
999 2806
999 4568
1000 939
1000 2807
1000 4455
1001 944
1001 2668
1001 4490
1002 1021
1002 2773
1002 4577
1003 859
1003 2723
1003 4524
1004 873
1004 2734
1004 4394
1005 769
1005 2605
1005 4432
1006 976
1006 2751
1006 4595
1007 1007
1007 2596
1007 4562
1008 917
1008 2741
1008 4399
1009 879
1009 2590
1009 4563
1010 861
1010 2767
1010 4571
1011 871
1011 2804
1011 4441
1012 862
1012 2666
1012 4433
1013 803
1013 2772
1013 4489
1014 950
1014 2798
1014 4383
1015 968
1015 2754
1015 4397
1016 792
1016 2762
1016 4529
1017 979
1017 2740
1017 4361
1018 946
1018 2567
1018 4380
1019 975
1019 2688
1019 4357
1020 849
1020 2736
1020 4530
1021 844
1021 2687
1021 4464
1022 874
1022 2560
1022 4521
1023 934
1023 2722
1023 4556
1024 1236
1024 2911
1024 4803
1025 1183
1025 3026
1025 4841
1026 1259
1026 2869
1026 4740
1027 1069
1027 2952
1027 4731
1028 1082
1028 2962
1028 4751
1029 1070
1029 3017
1029 4783
1030 1073
1030 2945
1030 4648
1031 1121
1031 2826
1031 4697
1032 1105
1032 2939
1032 4640
1033 1166
1033 2981
1033 4691
1034 1102
1034 3016
1034 4852
1035 1222
1035 2881
1035 4826
1036 1067
1036 2820
1036 4685
1037 1106
1037 2830
1037 4627
1038 1039
1038 2850
1038 4755
1039 1206
1039 2865
1039 4675
1040 1221
1040 2954
1040 4655
1041 1123
1041 2841
1041 4656
1042 1145
1042 2961
1042 4800
1043 1142
1043 2975
1043 4813
1044 1116
1044 2866
1044 4779
1045 1196
1045 3025
1045 4733
1046 1264
1046 2909
1046 4805
1047 1270
1047 2847
1047 4809
1048 1147
1048 3060
1048 4621
1049 1055
1049 2971
1049 4765
1050 1064
1050 2880
1050 4840
1051 1198
1051 3066
1051 4763
1052 1137
1052 3027
1052 4816
1053 1262
1053 3047
1053 4799
1054 1056
1054 2859
1054 4703
1055 1172
1055 3056
1055 4804
1056 1118
1056 2926
1056 4747
1057 1076
1057 2983
1057 4847
1058 1168
1058 3059
1058 4732
1059 1182
1059 2882
1059 4628
1060 1146
1060 2920
1060 4701
1061 1103
1061 2934
1061 4663
1062 1029
1062 2960
1062 4694
1063 1177
1063 2889
1063 4821
1064 1026
1064 3046
1064 4764
1065 1275
1065 2838
1065 4652
1066 1080
1066 3028
1066 4613
1067 1277
1067 3006
1067 4711
1068 1165
1068 3011
1068 4695
1069 1154
1069 3020
1069 4858
1070 1058
1070 2979
1070 4749
1071 1226
1071 2955
1071 4850
1072 1094
1072 2940
1072 4846
1073 1263
1073 2977
1073 4722
1074 1148
1074 2867
1074 4817
1075 1239
1075 2915
1075 4667
1076 1030
1076 2974
1076 4672
1077 1050
1077 3061
1077 4665
1078 1090
1078 2853
1078 4693
1079 1138
1079 2990
1079 4832
1080 1265
1080 2919
1080 4660
1081 1119
1081 3018
1081 4724
1082 1074
1082 3040
1082 4706
1083 1075
1083 3023
1083 4754
1084 1224
1084 2901
1084 4615
1085 1027
1085 2908
1085 4683
1086 1037
1086 3021
1086 4741
1087 1124
1087 2964
1087 4770
1088 1052
1088 2836
1088 4641
1089 1201
1089 2938
1089 4798
1090 1157
1090 2967
1090 4769
1091 1234
1091 2921
1091 4708
1092 1068
1092 2996
1092 4718
1093 1117
1093 2855
1093 4761
1094 1125
1094 2825
1094 4827
1095 1256
1095 2929
1095 4851
1096 1273
1096 2893
1096 4833
1097 1028
1097 2999
1097 4713
1098 1049
1098 3052
1098 4844
1099 1242
1099 2871
1099 4637
1100 1162
1100 2874
1100 4687
1101 1253
1101 2879
1101 4698
1102 1189
1102 2949
1102 4746
1103 1044
1103 2854
1103 4820
1104 1133
1104 2894
1104 4710
1105 1192
1105 2817
1105 4734
1106 1151
1106 2886
1106 4822
1107 1190
1107 2987
1107 4624
1108 1087
1108 3029
1108 4723
1109 1227
1109 2968
1109 4760
1110 1093
1110 2932
1110 4664
1111 1136
1111 2877
1111 4715
1112 1095
1112 3022
1112 4696
1113 1053
1113 3003
1113 4855
1114 1153
1114 2831
1114 4608
1115 1065
1115 2819
1115 4673
1116 1229
1116 2862
1116 4772
1117 1175
1117 3034
1117 4654
1118 1247
1118 2845
1118 4785
1119 1203
1119 2998
1119 4636
1120 1042
1120 3009
1120 4642
1121 1272
1121 3041
1121 4679
1122 1155
1122 2902
1122 4818
1123 1231
1123 2928
1123 4651
1124 1104
1124 2951
1124 4659
1125 1120
1125 3071
1125 4757
1126 1128
1126 2905
1126 4744
1127 1181
1127 2895
1127 4632
1128 1244
1128 3014
1128 4625
1129 1274
1129 3058
1129 4610
1130 1245
1130 2914
1130 4635
1131 1219
1131 3054
1131 4807
1132 1031
1132 3050
1132 4836
1133 1174
1133 2985
1133 4819
1134 1212
1134 3012
1134 4843
1135 1163
1135 2878
1135 4842
1136 1141
1136 2997
1136 4775
1137 1251
1137 3010
1137 4639
1138 1217
1138 2947
1138 4728
1139 1215
1139 2959
1139 4729
1140 1278
1140 2900
1140 4829
1141 1266
1141 3045
1141 4759
1142 1235
1142 2857
1142 4743
1143 1096
1143 2963
1143 4808
1144 1178
1144 2858
1144 4773
1145 1098
1145 3039
1145 4645
1146 1088
1146 2883
1146 4838
1147 1191
1147 2898
1147 4792
1148 1066
1148 3013
1148 4810
1149 1084
1149 2936
1149 4719
1150 1047
1150 2986
1150 4684
1151 1059
1151 2973
1151 4721
1152 1140
1152 2833
1152 4797
1153 1115
1153 3001
1153 4730
1154 1176
1154 2922
1154 4767
1155 1170
1155 2941
1155 4726
1156 1024
1156 2912
1156 4856
1157 1205
1157 2992
1157 4787
1158 1032
1158 3044
1158 4811
1159 1040
1159 2923
1159 4644
1160 1271
1160 3032
1160 4653
1161 1269
1161 2870
1161 4638
1162 1199
1162 2829
1162 4712
1163 1279
1163 3069
1163 4612
1164 1131
1164 2897
1164 4674
1165 1110
1165 2842
1165 4861
1166 1092
1166 2876
1166 4705
1167 1255
1167 2868
1167 4814
1168 1089
1168 2903
1168 4671
1169 1036
1169 2840
1169 4801
1170 1112
1170 3064
1170 4860
1171 1246
1171 2872
1171 4626
1172 1220
1172 2848
1172 4686
1173 1249
1173 2980
1173 4739
1174 1202
1174 2965
1174 4704
1175 1099
1175 2860
1175 4824
1176 1107
1176 3019
1176 4830
1177 1208
1177 2931
1177 4794
1178 1132
1178 2917
1178 4630
1179 1081
1179 2891
1179 4609
1180 1100
1180 2861
1180 4619
1181 1197
1181 3065
1181 4862
1182 1200
1182 3038
1182 4784
1183 1160
1183 3062
1183 4646
1184 1135
1184 2828
1184 4776
1185 1194
1185 2942
1185 4812
1186 1063
1186 2913
1186 4735
1187 1034
1187 3070
1187 4788
1188 1045
1188 2822
1188 4702
1189 1038
1189 3049
1189 4781
1190 1061
1190 2888
1190 4831
1191 1267
1191 2978
1191 4758
1192 1240
1192 2906
1192 4662
1193 1207
1193 2957
1193 4771
1194 1228
1194 2943
1194 4796
1195 1077
1195 2873
1195 4802
1196 1033
1196 2935
1196 4649
1197 1186
1197 2856
1197 4857
1198 1078
1198 2956
1198 4795
1199 1035
1199 3031
1199 4614
1200 1113
1200 3067
1200 4617
1201 1254
1201 3000
1201 4611
1202 1173
1202 2982
1202 4657
1203 1238
1203 2916
1203 4700
1204 1122
1204 2969
1204 4666
1205 1187
1205 3008
1205 4780
1206 1097
1206 2849
1206 4756
1207 1048
1207 3030
1207 4782
1208 1158
1208 2885
1208 4835
1209 1085
1209 2835
1209 4629
1210 1144
1210 3035
1210 4854
1211 1167
1211 3063
1211 4714
1212 1079
1212 3042
1212 4825
1213 1193
1213 2823
1213 4737
1214 1250
1214 3051
1214 4643
1215 1195
1215 2839
1215 4716
1216 1139
1216 2994
1216 4661
1217 1214
1217 3015
1217 4633
1218 1237
1218 2863
1218 4623
1219 1225
1219 2837
1219 4750
1220 1232
1220 2821
1220 4738
1221 1043
1221 2832
1221 4676
1222 1083
1222 2892
1222 4689
1223 1046
1223 2925
1223 4634
1224 1241
1224 2972
1224 4778
1225 1114
1225 3005
1225 4859
1226 1086
1226 2834
1226 4834
1227 1126
1227 2991
1227 4688
1228 1233
1228 2827
1228 4709
1229 1152
1229 2852
1229 4650
1230 1060
1230 2816
1230 4793
1231 1185
1231 2896
1231 4815
1232 1184
1232 2984
1232 4849
1233 1169
1233 2824
1233 4681
1234 1161
1234 3055
1234 4837
1235 1179
1235 3053
1235 4616
1236 1230
1236 2950
1236 4622
1237 1071
1237 2948
1237 4682
1238 1150
1238 2937
1238 4658
1239 1188
1239 2966
1239 4707
1240 1130
1240 3043
1240 4791
1241 1101
1241 2976
1241 4690
1242 1204
1242 2890
1242 4670
1243 1211
1243 2944
1243 4766
1244 1054
1244 3024
1244 4699
1245 1223
1245 2970
1245 4839
1246 1072
1246 2924
1246 4678
1247 1268
1247 2844
1247 4774
1248 1210
1248 2910
1248 4669
1249 1109
1249 2927
1249 4789
1250 1025
1250 2864
1250 4853
1251 1171
1251 2918
1251 4806
1252 1261
1252 2988
1252 4745
1253 1216
1253 2851
1253 4647
1254 1041
1254 3037
1254 4736
1255 1156
1255 3057
1255 4762
1256 1129
1256 3048
1256 4677
1257 1159
1257 2995
1257 4717
1258 1062
1258 2887
1258 4777
1259 1257
1259 3036
1259 4768
1260 1243
1260 2843
1260 4748
1261 1164
1261 2933
1261 4786
1262 1127
1262 2989
1262 4725
1263 1143
1263 2818
1263 4668
1264 1108
1264 2899
1264 4848
1265 1276
1265 2884
1265 4752
1266 1180
1266 2904
1266 4727
1267 1209
1267 3007
1267 4845
1268 1111
1268 2930
1268 4823
1269 1134
1269 3068
1269 4631
1270 1057
1270 2907
1270 4720
1271 1248
1271 3004
1271 4680
1272 1252
1272 3002
1272 4790
1273 1258
1273 2953
1273 4618
1274 1091
1274 2875
1274 4753
1275 1260
1275 2946
1275 4742
1276 1149
1276 2846
1276 4692
1277 1213
1277 3033
1277 4863
1278 1051
1278 2958
1278 4828
1279 1218
1279 2993
1279 4620
1280 1525
1280 3211
1280 5053
1281 1452
1281 3128
1281 4925
1282 1413
1282 3073
1282 5018
1283 1294
1283 3244
1283 4867
1284 1529
1284 3294
1284 5048
1285 1477
1285 3193
1285 4932
1286 1503
1286 3252
1286 5003
1287 1358
1287 3208
1287 4993
1288 1297
1288 3272
1288 5071
1289 1355
1289 3115
1289 4971
1290 1495
1290 3086
1290 5030
1291 1460
1291 3119
1291 5007
1292 1515
1292 3326
1292 5099
1293 1309
1293 3203
1293 4901
1294 1304
1294 3223
1294 4998
1295 1434
1295 3304
1295 4934
1296 1443
1296 3156
1296 5103
1297 1462
1297 3160
1297 5004
1298 1426
1298 3207
1298 5119
1299 1453
1299 3201
1299 5050
1300 1300
1300 3170
1300 5102
1301 1290
1301 3307
1301 4873
1302 1506
1302 3261
1302 4995
1303 1528
1303 3216
1303 5097
1304 1373
1304 3274
1304 5094
1305 1488
1305 3239
1305 4980
1306 1467
1306 3134
1306 5060
1307 1485
1307 3296
1307 5014
1308 1353
1308 3231
1308 4912
1309 1283
1309 3081
1309 5096
1310 1364
1310 3241
1310 5045
1311 1517
1311 3269
1311 4967
1312 1397
1312 3298
1312 5034
1313 1424
1313 3092
1313 4894
1314 1496
1314 3126
1314 4899
1315 1464
1315 3131
1315 5098
1316 1407
1316 3074
1316 4958
1317 1441
1317 3164
1317 5074
1318 1307
1318 3279
1318 5108
1319 1469
1319 3148
1319 4885
1320 1285
1320 3236
1320 4956
1321 1507
1321 3113
1321 4864
1322 1458
1322 3200
1322 4963
1323 1483
1323 3172
1323 4951
1324 1403
1324 3108
1324 4962
1325 1284
1325 3238
1325 5039
1326 1324
1326 3270
1326 5001
1327 1310
1327 3285
1327 4915
1328 1486
1328 3155
1328 5066
1329 1533
1329 3183
1329 4955
1330 1414
1330 3112
1330 4889
1331 1438
1331 3146
1331 5107
1332 1514
1332 3141
1332 4974
1333 1382
1333 3095
1333 4948
1334 1317
1334 3313
1334 5000
1335 1393
1335 3225
1335 4985
1336 1519
1336 3185
1336 5043
1337 1313
1337 3129
1337 5047
1338 1448
1338 3253
1338 5110
1339 1480
1339 3149
1339 4890
1340 1405
1340 3240
1340 5083
1341 1354
1341 3153
1341 5070
1342 1479
1342 3312
1342 5027
1343 1472
1343 3311
1343 5092
1344 1295
1344 3158
1344 4868
1345 1369
1345 3118
1345 5116
1346 1487
1346 3090
1346 4946
1347 1292
1347 3300
1347 4977
1348 1349
1348 3169
1348 4944
1349 1442
1349 3079
1349 4952
1350 1425
1350 3293
1350 5112
1351 1372
1351 3107
1351 5024
1352 1491
1352 3180
1352 4943
1353 1356
1353 3087
1353 5063
1354 1291
1354 3188
1354 5040
1355 1430
1355 3195
1355 4933
1356 1492
1356 3152
1356 4949
1357 1520
1357 3271
1357 5046
1358 1465
1358 3212
1358 5084
1359 1286
1359 3316
1359 4923
1360 1402
1360 3151
1360 4938
1361 1339
1361 3281
1361 5113
1362 1499
1362 3243
1362 4893
1363 1399
1363 3114
1363 4964
1364 1444
1364 3266
1364 5105
1365 1535
1365 3084
1365 5021
1366 1342
1366 3121
1366 4996
1367 1532
1367 3222
1367 5062
1368 1459
1368 3206
1368 4917
1369 1423
1369 3167
1369 4968
1370 1416
1370 3327
1370 4975
1371 1380
1371 3187
1371 4999
1372 1447
1372 3137
1372 4913
1373 1518
1373 3133
1373 5008
1374 1475
1374 3284
1374 4991
1375 1457
1375 3278
1375 4979
1376 1302
1376 3125
1376 5100
1377 1524
1377 3221
1377 4929
1378 1374
1378 3143
1378 5082
1379 1454
1379 3075
1379 4959
1380 1340
1380 3286
1380 4900
1381 1389
1381 3135
1381 5081
1382 1376
1382 3142
1382 5005
1383 1498
1383 3120
1383 4982
1384 1523
1384 3209
1384 5114
1385 1346
1385 3297
1385 5038
1386 1323
1386 3165
1386 4928
1387 1409
1387 3179
1387 5049
1388 1391
1388 3117
1388 4965
1389 1312
1389 3317
1389 5104
1390 1468
1390 3104
1390 4916
1391 1357
1391 3233
1391 4884
1392 1455
1392 3132
1392 4876
1393 1421
1393 3217
1393 5025
1394 1365
1394 3257
1394 5078
1395 1362
1395 3254
1395 4981
1396 1308
1396 3324
1396 5089
1397 1350
1397 3144
1397 5080
1398 1481
1398 3309
1398 5118
1399 1301
1399 3166
1399 4880
1400 1378
1400 3280
1400 4940
1401 1288
1401 3322
1401 5088
1402 1318
1402 3111
1402 4895
1403 1325
1403 3189
1403 4941
1404 1489
1404 3192
1404 5022
1405 1461
1405 3078
1405 5029
1406 1282
1406 3161
1406 4883
1407 1497
1407 3123
1407 5031
1408 1449
1408 3101
1408 4969
1409 1296
1409 3080
1409 4960
1410 1366
1410 3177
1410 5017
1411 1337
1411 3088
1411 4892
1412 1315
1412 3229
1412 5036
1413 1451
1413 3303
1413 4869
1414 1446
1414 3103
1414 4878
1415 1445
1415 3258
1415 4986
1416 1299
1416 3097
1416 5051
1417 1429
1417 3139
1417 4909
1418 1419
1418 3116
1418 4947
1419 1316
1419 3265
1419 4927
1420 1306
1420 3232
1420 5085
1421 1396
1421 3178
1421 5117
1422 1482
1422 3138
1422 4865
1423 1377
1423 3100
1423 5056
1424 1427
1424 3194
1424 4945
1425 1478
1425 3196
1425 5079
1426 1390
1426 3230
1426 4871
1427 1493
1427 3235
1427 4887
1428 1388
1428 3110
1428 5069
1429 1473
1429 3140
1429 4922
1430 1326
1430 3106
1430 5068
1431 1484
1431 3182
1431 5093
1432 1361
1432 3262
1432 5072
1433 1319
1433 3197
1433 4877
1434 1509
1434 3276
1434 5077
1435 1345
1435 3191
1435 4954
1436 1381
1436 3145
1436 5020
1437 1335
1437 3136
1437 4936
1438 1418
1438 3199
1438 4896
1439 1370
1439 3089
1439 5095
1440 1400
1440 3175
1440 4907
1441 1387
1441 3176
1441 4902
1442 1351
1442 3098
1442 5057
1443 1500
1443 3173
1443 4904
1444 1408
1444 3321
1444 4930
1445 1505
1445 3248
1445 4888
1446 1471
1446 3246
1446 4992
1447 1360
1447 3105
1447 4874
1448 1367
1448 3289
1448 4978
1449 1311
1449 3275
1449 4918
1450 1417
1450 3147
1450 5101
1451 1513
1451 3226
1451 5023
1452 1494
1452 3198
1452 4908
1453 1435
1453 3263
1453 4935
1454 1531
1454 3291
1454 5061
1455 1526
1455 3277
1455 4939
1456 1436
1456 3077
1456 4906
1457 1516
1457 3247
1457 4987
1458 1534
1458 3109
1458 4882
1459 1433
1459 3094
1459 5006
1460 1386
1460 3255
1460 5090
1461 1289
1461 3130
1461 5028
1462 1521
1462 3245
1462 5002
1463 1336
1463 3157
1463 4897
1464 1359
1464 3287
1464 5076
1465 1530
1465 3218
1465 4910
1466 1352
1466 3228
1466 5067
1467 1410
1467 3224
1467 4924
1468 1412
1468 3093
1468 4898
1469 1329
1469 3210
1469 5032
1470 1504
1470 3288
1470 5037
1471 1440
1471 3083
1471 5065
1472 1511
1472 3082
1472 4976
1473 1314
1473 3295
1473 4920
1474 1411
1474 3096
1474 4891
1475 1305
1475 3292
1475 4872
1476 1280
1476 3259
1476 5109
1477 1379
1477 3124
1477 4973
1478 1456
1478 3171
1478 4994
1479 1383
1479 3290
1479 4997
1480 1437
1480 3085
1480 4870
1481 1394
1481 3174
1481 5016
1482 1320
1482 3325
1482 4961
1483 1287
1483 3162
1483 5012
1484 1338
1484 3205
1484 5073
1485 1392
1485 3234
1485 4866
1486 1375
1486 3099
1486 5026
1487 1420
1487 3184
1487 4886
1488 1439
1488 3186
1488 4919
1489 1474
1489 3305
1489 4972
1490 1510
1490 3127
1490 5033
1491 1343
1491 3314
1491 4937
1492 1432
1492 3072
1492 5042
1493 1328
1493 3202
1493 4914
1494 1281
1494 3308
1494 5115
1495 1385
1495 3076
1495 4905
1496 1321
1496 3150
1496 5035
1497 1431
1497 3319
1497 5059
1498 1293
1498 3318
1498 5054
1499 1398
1499 3256
1499 5019
1500 1422
1500 3260
1500 5009
1501 1322
1501 3181
1501 4989
1502 1330
1502 3190
1502 4984
1503 1401
1503 3251
1503 5015
1504 1470
1504 3215
1504 4931
1505 1501
1505 3273
1505 4970
1506 1332
1506 3249
1506 5064
1507 1476
1507 3091
1507 5010
1508 1406
1508 3168
1508 5106
1509 1502
1509 3154
1509 5075
1510 1450
1510 3320
1510 5058
1511 1363
1511 3283
1511 5052
1512 1331
1512 3237
1512 4966
1513 1344
1513 3242
1513 4903
1514 1508
1514 3268
1514 4942
1515 1490
1515 3163
1515 5111
1516 1463
1516 3282
1516 5086
1517 1415
1517 3301
1517 5087
1518 1368
1518 3219
1518 4953
1519 1298
1519 3306
1519 4881
1520 1348
1520 3122
1520 5044
1521 1384
1521 3220
1521 5041
1522 1334
1522 3310
1522 4921
1523 1527
1523 3214
1523 5091
1524 1428
1524 3264
1524 4990
1525 1466
1525 3204
1525 5011
1526 1512
1526 3323
1526 4988
1527 1522
1527 3315
1527 4911
1528 1404
1528 3102
1528 4926
1529 1371
1529 3227
1529 4879
1530 1303
1530 3302
1530 5013
1531 1395
1531 3267
1531 4983
1532 1327
1532 3299
1532 5055
1533 1341
1533 3213
1533 4957
1534 1347
1534 3159
1534 4950
1535 1333
1535 3250
1535 4875
1536 1781
1536 3422
1536 5124
1537 1694
1537 3351
1537 5257
1538 1559
1538 3336
1538 5283
1539 1646
1539 3389
1539 5267
1540 1724
1540 3456
1540 5242
1541 1675
1541 3577
1541 5270
1542 1696
1542 3508
1542 5356
1543 1736
1543 3546
1543 5145
1544 1761
1544 3348
1544 5362
1545 1715
1545 3520
1545 5187
1546 1543
1546 3450
1546 5230
1547 1595
1547 3522
1547 5265
1548 1658
1548 3527
1548 5264
1549 1635
1549 3466
1549 5180
1550 1737
1550 3337
1550 5255
1551 1556
1551 3557
1551 5263
1552 1602
1552 3495
1552 5366
1553 1577
1553 3516
1553 5139
1554 1578
1554 3514
1554 5163
1555 1541
1555 3335
1555 5144
1556 1689
1556 3573
1556 5205
1557 1557
1557 3543
1557 5136
1558 1555
1558 3436
1558 5199
1559 1711
1559 3328
1559 5299
1560 1733
1560 3504
1560 5329
1561 1648
1561 3453
1561 5364
1562 1611
1562 3488
1562 5361
1563 1643
1563 3344
1563 5151
1564 1659
1564 3463
1564 5211
1565 1546
1565 3451
1565 5260
1566 1739
1566 3419
1566 5215
1567 1681
1567 3432
1567 5184
1568 1754
1568 3534
1568 5203
1569 1647
1569 3429
1569 5311
1570 1784
1570 3440
1570 5233
1571 1719
1571 3462
1571 5272
1572 1774
1572 3394
1572 5138
1573 1603
1573 3369
1573 5288
1574 1639
1574 3405
1574 5171
1575 1637
1575 3417
1575 5249
1576 1684
1576 3431
1576 5200
1577 1662
1577 3569
1577 5375
1578 1709
1578 3356
1578 5252
1579 1631
1579 3375
1579 5278
1580 1593
1580 3544
1580 5281
1581 1620
1581 3460
1581 5339
1582 1713
1582 3399
1582 5135
1583 1650
1583 3445
1583 5126
1584 1741
1584 3411
1584 5343
1585 1609
1585 3553
1585 5307
1586 1552
1586 3413
1586 5346
1587 1787
1587 3482
1587 5226
1588 1653
1588 3331
1588 5259
1589 1760
1589 3485
1589 5296
1590 1772
1590 3583
1590 5262
1591 1723
1591 3355
1591 5182
1592 1771
1592 3540
1592 5292
1593 1785
1593 3365
1593 5225
1594 1672
1594 3560
1594 5317
1595 1725
1595 3397
1595 5209
1596 1584
1596 3499
1596 5352
1597 1661
1597 3579
1597 5197
1598 1758
1598 3506
1598 5330
1599 1605
1599 3476
1599 5335
1600 1735
1600 3403
1600 5218
1601 1744
1601 3565
1601 5159
1602 1537
1602 3353
1602 5302
1603 1656
1603 3521
1603 5304
1604 1703
1604 3556
1604 5321
1605 1567
1605 3383
1605 5246
1606 1540
1606 3361
1606 5193
1607 1732
1607 3563
1607 5170
1608 1770
1608 3559
1608 5251
1609 1606
1609 3523
1609 5140
1610 1581
1610 3547
1610 5195
1611 1773
1611 3469
1611 5334
1612 1734
1612 3393
1612 5235
1613 1592
1613 3444
1613 5239
1614 1664
1614 3481
1614 5315
1615 1676
1615 3528
1615 5306
1616 1716
1616 3398
1616 5355
1617 1768
1617 3568
1617 5153
1618 1636
1618 3461
1618 5191
1619 1569
1619 3391
1619 5276
1620 1630
1620 3572
1620 5243
1621 1640
1621 3370
1621 5358
1622 1677
1622 3367
1622 5269
1623 1666
1623 3468
1623 5367
1624 1576
1624 3345
1624 5253
1625 1542
1625 3364
1625 5282
1626 1745
1626 3352
1626 5341
1627 1748
1627 3382
1627 5286
1628 1765
1628 3552
1628 5141
1629 1613
1629 3435
1629 5169
1630 1766
1630 3373
1630 5348
1631 1652
1631 3420
1631 5219
1632 1568
1632 3437
1632 5284
1633 1588
1633 3491
1633 5204
1634 1791
1634 3512
1634 5127
1635 1654
1635 3448
1635 5349
1636 1714
1636 3561
1636 5160
1637 1680
1637 3478
1637 5158
1638 1690
1638 3415
1638 5291
1639 1688
1639 3459
1639 5155
1640 1614
1640 3421
1640 5213
1641 1756
1641 3401
1641 5371
1642 1665
1642 3371
1642 5222
1643 1786
1643 3342
1643 5238
1644 1575
1644 3410
1644 5148
1645 1740
1645 3580
1645 5217
1646 1657
1646 3474
1646 5165
1647 1668
1647 3542
1647 5125
1648 1720
1648 3407
1648 5313
1649 1634
1649 3479
1649 5130
1650 1788
1650 3378
1650 5268
1651 1747
1651 3381
1651 5194
1652 1695
1652 3334
1652 5368
1653 1549
1653 3330
1653 5128
1654 1667
1654 3442
1654 5210
1655 1563
1655 3505
1655 5354
1656 1678
1656 3486
1656 5152
1657 1727
1657 3533
1657 5134
1658 1686
1658 3576
1658 5129
1659 1717
1659 3487
1659 5370
1660 1560
1660 3471
1660 5331
1661 1566
1661 3412
1661 5298
1662 1645
1662 3376
1662 5250
1663 1673
1663 3532
1663 5177
1664 1778
1664 3574
1664 5365
1665 1738
1665 3503
1665 5301
1666 1561
1666 3457
1666 5333
1667 1627
1667 3454
1667 5294
1668 1730
1668 3416
1668 5285
1669 1587
1669 3578
1669 5156
1670 1601
1670 3392
1670 5231
1671 1585
1671 3434
1671 5166
1672 1777
1672 3500
1672 5147
1673 1548
1673 3425
1673 5360
1674 1582
1674 3558
1674 5280
1675 1701
1675 3526
1675 5266
1676 1722
1676 3493
1676 5168
1677 1663
1677 3347
1677 5216
1678 1692
1678 3575
1678 5357
1679 1536
1679 3492
1679 5314
1680 1752
1680 3550
1680 5337
1681 1553
1681 3390
1681 5244
1682 1731
1682 3380
1682 5201
1683 1687
1683 3484
1683 5221
1684 1604
1684 3455
1684 5297
1685 1547
1685 3473
1685 5312
1686 1572
1686 3519
1686 5176
1687 1655
1687 3524
1687 5202
1688 1554
1688 3507
1688 5183
1689 1746
1689 3562
1689 5351
1690 1599
1690 3531
1690 5232
1691 1642
1691 3480
1691 5303
1692 1670
1692 3360
1692 5181
1693 1586
1693 3530
1693 5327
1694 1708
1694 3566
1694 5186
1695 1598
1695 3350
1695 5274
1696 1649
1696 3340
1696 5173
1697 1641
1697 3400
1697 5322
1698 1767
1698 3545
1698 5350
1699 1729
1699 3525
1699 5295
1700 1697
1700 3426
1700 5279
1701 1751
1701 3517
1701 5188
1702 1615
1702 3582
1702 5190
1703 1612
1703 3518
1703 5332
1704 1757
1704 3509
1704 5234
1705 1710
1705 3428
1705 5290
1706 1638
1706 3511
1706 5189
1707 1565
1707 3529
1707 5369
1708 1700
1708 3452
1708 5353
1709 1705
1709 3538
1709 5289
1710 1644
1710 3549
1710 5228
1711 1579
1711 3372
1711 5363
1712 1573
1712 3368
1712 5248
1713 1619
1713 3329
1713 5310
1714 1679
1714 3438
1714 5308
1715 1600
1715 3571
1715 5198
1716 1707
1716 3384
1716 5300
1717 1712
1717 3433
1717 5309
1718 1632
1718 3464
1718 5149
1719 1610
1719 3357
1719 5154
1720 1790
1720 3497
1720 5273
1721 1698
1721 3490
1721 5293
1722 1583
1722 3541
1722 5133
1723 1750
1723 3470
1723 5227
1724 1590
1724 3430
1724 5212
1725 1551
1725 3564
1725 5325
1726 1589
1726 3343
1726 5258
1727 1783
1727 3359
1727 5196
1728 1683
1728 3404
1728 5345
1729 1769
1729 3570
1729 5162
1730 1669
1730 3441
1730 5344
1731 1671
1731 3475
1731 5185
1732 1628
1732 3536
1732 5120
1733 1755
1733 3446
1733 5220
1734 1718
1734 3379
1734 5328
1735 1780
1735 3358
1735 5172
1736 1564
1736 3537
1736 5179
1737 1706
1737 3477
1737 5318
1738 1726
1738 3567
1738 5131
1739 1550
1739 3501
1739 5142
1740 1626
1740 3406
1740 5287
1741 1674
1741 3377
1741 5336
1742 1618
1742 3489
1742 5323
1743 1764
1743 3341
1743 5207
1744 1699
1744 3439
1744 5178
1745 1693
1745 3554
1745 5223
1746 1538
1746 3374
1746 5359
1747 1570
1747 3510
1747 5237
1748 1544
1748 3465
1748 5192
1749 1624
1749 3338
1749 5374
1750 1691
1750 3515
1750 5229
1751 1685
1751 3387
1751 5161
1752 1743
1752 3539
1752 5347
1753 1562
1753 3349
1753 5137
1754 1775
1754 3366
1754 5319
1755 1616
1755 3386
1755 5305
1756 1742
1756 3513
1756 5245
1757 1779
1757 3472
1757 5277
1758 1702
1758 3388
1758 5236
1759 1625
1759 3535
1759 5254
1760 1597
1760 3496
1760 5324
1761 1633
1761 3363
1761 5241
1762 1623
1762 3354
1762 5373
1763 1753
1763 3449
1763 5146
1764 1749
1764 3581
1764 5122
1765 1776
1765 3333
1765 5167
1766 1682
1766 3498
1766 5214
1767 1660
1767 3402
1767 5224
1768 1789
1768 3339
1768 5175
1769 1721
1769 3395
1769 5340
1770 1607
1770 3502
1770 5316
1771 1763
1771 3494
1771 5164
1772 1617
1772 3548
1772 5256
1773 1580
1773 3427
1773 5372
1774 1759
1774 3409
1774 5123
1775 1728
1775 3423
1775 5174
1776 1591
1776 3555
1776 5132
1777 1782
1777 3414
1777 5206
1778 1571
1778 3424
1778 5326
1779 1629
1779 3467
1779 5320
1780 1539
1780 3362
1780 5208
1781 1651
1781 3418
1781 5275
1782 1596
1782 3385
1782 5342
1783 1574
1783 3447
1783 5143
1784 1558
1784 3408
1784 5338
1785 1762
1785 3396
1785 5271
1786 1621
1786 3332
1786 5261
1787 1622
1787 3551
1787 5157
1788 1608
1788 3483
1788 5240
1789 1594
1789 3443
1789 5247
1790 1704
1790 3458
1790 5150
1791 1545
1791 3346
1791 5121
1792 241
1792 3383
1792 5076
1793 123
1793 3430
1793 5002
1794 155
1794 3374
1794 4893
1795 84
1795 3569
1795 5107
1796 21
1796 3369
1796 4907
1797 136
1797 3564
1797 4894
1798 152
1798 3347
1798 4967
1799 215
1799 3511
1799 4899
1800 47
1800 3427
1800 5027
1801 55
1801 3494
1801 4979
1802 254
1802 3480
1802 5083
1803 178
1803 3581
1803 4998
1804 30
1804 3362
1804 4978
1805 10
1805 3522
1805 5005
1806 36
1806 3528
1806 4900
1807 49
1807 3526
1807 5050
1808 149
1808 3519
1808 4957
1809 37
1809 3334
1809 4876
1810 61
1810 3580
1810 5084
1811 69
1811 3535
1811 5066
1812 189
1812 3468
1812 5041
1813 154
1813 3339
1813 4968
1814 251
1814 3442
1814 4920
1815 151
1815 3496
1815 4901
1816 7
1816 3472
1816 4996
1817 236
1817 3488
1817 5023
1818 224
1818 3439
1818 5063
1819 45
1819 3359
1819 4911
1820 13
1820 3390
1820 4934
1821 228
1821 3579
1821 4997
1822 87
1822 3543
1822 5000
1823 76
1823 3532
1823 4891
1824 58
1824 3525
1824 4873
1825 66
1825 3487
1825 5009
1826 223
1826 3371
1826 4926
1827 194
1827 3575
1827 4908
1828 134
1828 3479
1828 5022
1829 75
1829 3563
1829 4937
1830 57
1830 3568
1830 5095
1831 77
1831 3443
1831 5015
1832 113
1832 3400
1832 4963
1833 22
1833 3493
1833 5048
1834 97
1834 3437
1834 4959
1835 56
1835 3571
1835 5047
1836 93
1836 3547
1836 4865
1837 231
1837 3403
1837 4925
1838 232
1838 3477
1838 4983
1839 72
1839 3414
1839 5036
1840 163
1840 3507
1840 4994
1841 67
1841 3446
1841 4906
1842 143
1842 3551
1842 4946
1843 70
1843 3416
1843 5055
1844 227
1844 3452
1844 5077
1845 183
1845 3572
1845 5064
1846 39
1846 3554
1846 4970
1847 44
1847 3405
1847 4917
1848 217
1848 3557
1848 4910
1849 187
1849 3340
1849 4919
1850 38
1850 3367
1850 4912
1851 184
1851 3406
1851 4947
1852 116
1852 3533
1852 4939
1853 31
1853 3380
1853 4923
1854 90
1854 3491
1854 5101
1855 131
1855 3434
1855 5008
1856 135
1856 3413
1856 4991
1857 158
1857 3483
1857 5116
1858 229
1858 3335
1858 5070
1859 96
1859 3506
1859 4964
1860 26
1860 3573
1860 4916
1861 78
1861 3440
1861 4924
1862 132
1862 3458
1862 5082
1863 29
1863 3503
1863 4951
1864 121
1864 3516
1864 4958
1865 156
1865 3565
1865 4885
1866 112
1866 3447
1866 5087
1867 190
1867 3409
1867 4915
1868 65
1868 3358
1868 5088
1869 198
1869 3365
1869 4867
1870 100
1870 3407
1870 4944
1871 80
1871 3388
1871 4897
1872 168
1872 3509
1872 5019
1873 182
1873 3418
1873 4883
1874 173
1874 3422
1874 4889
1875 81
1875 3382
1875 5059
1876 195
1876 3423
1876 4898
1877 146
1877 3460
1877 4993
1878 165
1878 3328
1878 5062
1879 117
1879 3534
1879 4935
1880 17
1880 3381
1880 4943
1881 150
1881 3517
1881 4864
1882 88
1882 3431
1882 5105
1883 225
1883 3467
1883 5065
1884 202
1884 3451
1884 5003
1885 244
1885 3523
1885 4948
1886 179
1886 3453
1886 5098
1887 220
1887 3336
1887 5053
1888 14
1888 3492
1888 4886
1889 111
1889 3560
1889 5028
1890 192
1890 3329
1890 4962
1891 50
1891 3396
1891 4941
1892 48
1892 3348
1892 4956
1893 28
1893 3344
1893 4913
1894 200
1894 3429
1894 5115
1895 181
1895 3410
1895 4960
1896 20
1896 3455
1896 4905
1897 18
1897 3333
1897 5113
1898 247
1898 3539
1898 5090
1899 119
1899 3355
1899 5081
1900 213
1900 3478
1900 4942
1901 175
1901 3364
1901 5030
1902 124
1902 3501
1902 4874
1903 34
1903 3421
1903 4871
1904 133
1904 3466
1904 5006
1905 171
1905 3463
1905 4966
1906 211
1906 3583
1906 5046
1907 51
1907 3357
1907 4895
1908 108
1908 3338
1908 4922
1909 180
1909 3476
1909 4954
1910 103
1910 3332
1910 4884
1911 162
1911 3500
1911 5099
1912 208
1912 3436
1912 5112
1913 92
1913 3454
1913 4961
1914 145
1914 3352
1914 5044
1915 199
1915 3553
1915 5060
1916 226
1916 3530
1916 5034
1917 52
1917 3536
1917 4980
1918 255
1918 3376
1918 4981
1919 185
1919 3387
1919 4888
1920 32
1920 3566
1920 4931
1921 71
1921 3464
1921 4870
1922 242
1922 3515
1922 5068
1923 41
1923 3542
1923 4921
1924 169
1924 3567
1924 4881
1925 128
1925 3346
1925 4877
1926 60
1926 3481
1926 5072
1927 1
1927 3438
1927 5091
1928 89
1928 3471
1928 5017
1929 94
1929 3373
1929 4973
1930 203
1930 3462
1930 5104
1931 176
1931 3555
1931 4986
1932 239
1932 3559
1932 4928
1933 118
1933 3548
1933 4882
1934 160
1934 3562
1934 4949
1935 166
1935 3404
1935 5075
1936 12
1936 3513
1936 4890
1937 144
1937 3428
1937 5109
1938 4
1938 3378
1938 5014
1939 212
1939 3360
1939 4892
1940 139
1940 3426
1940 5078
1941 106
1941 3537
1941 5057
1942 237
1942 3456
1942 5011
1943 53
1943 3482
1943 5119
1944 27
1944 3531
1944 5032
1945 42
1945 3361
1945 4976
1946 19
1946 3419
1946 5052
1947 248
1947 3512
1947 5029
1948 222
1948 3561
1948 5108
1949 245
1949 3342
1949 5045
1950 16
1950 3432
1950 5061
1951 153
1951 3331
1951 4927
1952 193
1952 3363
1952 4875
1953 3
1953 3445
1953 5074
1954 130
1954 3475
1954 4950
1955 73
1955 3461
1955 4904
1956 240
1956 3368
1956 5118
1957 9
1957 3524
1957 5086
1958 249
1958 3345
1958 4930
1959 114
1959 3495
1959 4975
1960 23
1960 3389
1960 4995
1961 33
1961 3375
1961 5106
1962 218
1962 3577
1962 4938
1963 186
1963 3337
1963 4969
1964 246
1964 3412
1964 5007
1965 188
1965 3538
1965 4879
1966 137
1966 3424
1966 5010
1967 54
1967 3417
1967 5021
1968 142
1968 3550
1968 4989
1969 46
1969 3356
1969 5038
1970 98
1970 3425
1970 4982
1971 107
1971 3546
1971 4955
1972 243
1972 3408
1972 5097
1973 140
1973 3343
1973 5024
1974 206
1974 3489
1974 4868
1975 64
1975 3570
1975 4974
1976 147
1976 3448
1976 5037
1977 15
1977 3490
1977 5051
1978 209
1978 3415
1978 5080
1979 177
1979 3349
1979 4999
1980 214
1980 3508
1980 4896
1981 74
1981 3465
1981 5079
1982 197
1982 3469
1982 4936
1983 141
1983 3330
1983 4869
1984 126
1984 3441
1984 4880
1985 216
1985 3401
1985 5054
1986 43
1986 3520
1986 5110
1987 159
1987 3498
1987 5073
1988 148
1988 3527
1988 5013
1989 125
1989 3392
1989 4866
1990 115
1990 3420
1990 4953
1991 170
1991 3402
1991 5031
1992 91
1992 3377
1992 4872
1993 174
1993 3384
1993 5096
1994 235
1994 3398
1994 5103
1995 40
1995 3505
1995 5071
1996 105
1996 3433
1996 5043
1997 221
1997 3502
1997 5049
1998 82
1998 3474
1998 5025
1999 157
1999 3459
1999 4887
2000 104
2000 3351
2000 5092
2001 83
2001 3394
2001 5100
2002 207
2002 3521
2002 4952
2003 25
2003 3372
2003 4878
2004 79
2004 3485
2004 5018
2005 233
2005 3497
2005 5102
2006 59
2006 3397
2006 4987
2007 2
2007 3379
2007 5117
2008 122
2008 3395
2008 5004
2009 253
2009 3385
2009 4914
2010 167
2010 3499
2010 4940
2011 5
2011 3435
2011 5069
2012 219
2012 3341
2012 4971
2013 99
2013 3399
2013 4972
2014 138
2014 3529
2014 5042
2015 62
2015 3549
2015 5085
2016 109
2016 3393
2016 5089
2017 101
2017 3470
2017 4985
2018 172
2018 3518
2018 5020
2019 191
2019 3576
2019 4977
2020 234
2020 3510
2020 5111
2021 85
2021 3386
2021 4965
2022 196
2022 3504
2022 5001
2023 204
2023 3558
2023 4933
2024 129
2024 3556
2024 5114
2025 201
2025 3574
2025 5094
2026 11
2026 3366
2026 4918
2027 252
2027 3486
2027 5033
2028 161
2028 3350
2028 4990
2029 68
2029 3545
2029 5093
2030 63
2030 3354
2030 5067
2031 250
2031 3582
2031 4929
2032 35
2032 3541
2032 4932
2033 205
2033 3444
2033 4984
2034 24
2034 3449
2034 5040
2035 238
2035 3450
2035 4945
2036 6
2036 3578
2036 5035
2037 102
2037 3370
2037 5056
2038 210
2038 3514
2038 5012
2039 86
2039 3544
2039 4992
2040 0
2040 3473
2040 4903
2041 120
2041 3552
2041 4909
2042 164
2042 3540
2042 5026
2043 110
2043 3411
2043 4988
2044 95
2044 3457
2044 5039
2045 230
2045 3391
2045 5058
2046 8
2046 3353
2046 5016
2047 127
2047 3484
2047 4902
2048 357
2048 1794
2048 5232
2049 353
2049 1829
2049 5153
2050 257
2050 1968
2050 5182
2051 271
2051 1900
2051 5207
2052 433
2052 2041
2052 5311
2053 270
2053 1937
2053 5130
2054 331
2054 1890
2054 5321
2055 335
2055 1814
2055 5354
2056 482
2056 1869
2056 5147
2057 332
2057 2014
2057 5292
2058 387
2058 1896
2058 5205
2059 356
2059 1879
2059 5165
2060 390
2060 2045
2060 5304
2061 432
2061 1858
2061 5257
2062 360
2062 1815
2062 5155
2063 283
2063 1886
2063 5361
2064 399
2064 1842
2064 5144
2065 485
2065 2011
2065 5316
2066 489
2066 1855
2066 5253
2067 462
2067 1880
2067 5203
2068 319
2068 1792
2068 5173
2069 508
2069 2006
2069 5262
2070 494
2070 1925
2070 5131
2071 493
2071 1824
2071 5227
2072 486
2072 1938
2072 5247
2073 309
2073 1828
2073 5265
2074 321
2074 1831
2074 5322
2075 268
2075 1895
2075 5238
2076 369
2076 1812
2076 5349
2077 429
2077 1982
2077 5278
2078 349
2078 1878
2078 5355
2079 453
2079 1997
2079 5148
2080 468
2080 2016
2080 5347
2081 301
2081 1874
2081 5348
2082 273
2082 1989
2082 5167
2083 339
2083 1863
2083 5242
2084 416
2084 1852
2084 5360
2085 409
2085 1887
2085 5172
2086 264
2086 1882
2086 5136
2087 464
2087 1958
2087 5221
2088 411
2088 1881
2088 5196
2089 426
2089 1905
2089 5150
2090 450
2090 1885
2090 5212
2091 294
2091 1946
2091 5164
2092 477
2092 1899
2092 5341
2093 304
2093 2047
2093 5146
2094 495
2094 1922
2094 5204
2095 506
2095 2012
2095 5330
2096 463
2096 1804
2096 5209
2097 351
2097 1921
2097 5235
2098 465
2098 2029
2098 5134
2099 265
2099 1918
2099 5303
2100 496
2100 1945
2100 5190
2101 263
2101 1848
2101 5375
2102 497
2102 1822
2102 5252
2103 379
2103 1961
2103 5162
2104 318
2104 1995
2104 5259
2105 380
2105 1933
2105 5140
2106 436
2106 1975
2106 5365
2107 509
2107 1860
2107 5215
2108 441
2108 1849
2108 5342
2109 471
2109 1913
2109 5245
2110 342
2110 1953
2110 5185
2111 297
2111 1950
2111 5163
2112 317
2112 1820
2112 5324
2113 466
2113 1805
2113 5237
2114 325
2114 1872
2114 5287
2115 350
2115 1871
2115 5199
2116 260
2116 1934
2116 5352
2117 388
2117 2034
2117 5243
2118 287
2118 2035
2118 5323
2119 507
2119 1932
2119 5328
2120 483
2120 1809
2120 5263
2121 467
2121 1963
2121 5178
2122 412
2122 1920
2122 5363
2123 384
2123 1807
2123 5301
2124 402
2124 1865
2124 5272
2125 346
2125 1819
2125 5189
2126 498
2126 1841
2126 5234
2127 269
2127 1923
2127 5327
2128 284
2128 1917
2128 5142
2129 306
2129 1803
2129 5145
2130 479
2130 1800
2130 5315
2131 330
2131 2046
2131 5210
2132 472
2132 2040
2132 5250
2133 386
2133 1801
2133 5286
2134 272
2134 1911
2134 5158
2135 341
2135 1864
2135 5281
2136 430
2136 1875
2136 5359
2137 414
2137 1948
2137 5372
2138 289
2138 1843
2138 5325
2139 285
2139 2005
2139 5186
2140 333
2140 1906
2140 5169
2141 370
2141 1902
2141 5135
2142 439
2142 1795
2142 5260
2143 499
2143 1935
2143 5222
2144 451
2144 1947
2144 5194
2145 469
2145 2002
2145 5293
2146 470
2146 2033
2146 5289
2147 320
2147 2001
2147 5181
2148 449
2148 1955
2148 5138
2149 417
2149 1810
2149 5125
2150 503
2150 1988
2150 5170
2151 460
2151 1910
2151 5335
2152 358
2152 2042
2152 5268
2153 362
2153 1929
2153 5141
2154 397
2154 1991
2154 5290
2155 281
2155 1802
2155 5296
2156 434
2156 1892
2156 5275
2157 488
2157 1967
2157 5339
2158 403
2158 1944
2158 5317
2159 408
2159 2010
2159 5276
2160 391
2160 1959
2160 5310
2161 475
2161 1907
2161 5334
2162 348
2162 1930
2162 5326
2163 398
2163 1916
2163 5248
2164 500
2164 2013
2164 5320
2165 405
2165 1857
2165 5160
2166 447
2166 1854
2166 5201
2167 383
2167 1818
2167 5356
2168 314
2168 1941
2168 5228
2169 344
2169 1844
2169 5187
2170 334
2170 1901
2170 5251
2171 376
2171 1973
2171 5291
2172 258
2172 1978
2172 5340
2173 395
2173 1838
2173 5217
2174 425
2174 2021
2174 5195
2175 481
2175 1912
2175 5244
2176 377
2176 2000
2176 5308
2177 329
2177 1908
2177 5246
2178 359
2178 1830
2178 5350
2179 510
2179 1868
2179 5295
2180 312
2180 1931
2180 5200
2181 420
2181 1949
2181 5314
2182 381
2182 1806
2182 5129
2183 418
2183 1888
2183 5337
2184 407
2184 2044
2184 5373
2185 393
2185 1915
2185 5294
2186 279
2186 2022
2186 5351
2187 280
2187 1942
2187 5171
2188 474
2188 1823
2188 5233
2189 445
2189 1985
2189 5305
2190 458
2190 2009
2190 5357
2191 367
2191 1994
2191 5143
2192 338
2192 1939
2192 5318
2193 278
2193 1990
2193 5224
2194 501
2194 2025
2194 5374
2195 267
2195 1826
2195 5161
2196 435
2196 1986
2196 5274
2197 456
2197 1827
2197 5174
2198 343
2198 2018
2198 5266
2199 261
2199 1972
2199 5132
2200 505
2200 1965
2200 5300
2201 424
2201 1957
2201 5273
2202 382
2202 2030
2202 5369
2203 511
2203 1853
2203 5152
2204 363
2204 1952
2204 5280
2205 290
2205 1873
2205 5288
2206 303
2206 1928
2206 5177
2207 457
2207 1870
2207 5122
2208 266
2208 1877
2208 5264
2209 401
2209 1981
2209 5254
2210 448
2210 1977
2210 5353
2211 491
2211 1893
2211 5223
2212 410
2212 1927
2212 5166
2213 324
2213 1884
2213 5279
2214 392
2214 1980
2214 5368
2215 423
2215 1851
2215 5258
2216 371
2216 1894
2216 5282
2217 476
2217 1861
2217 5270
2218 378
2218 2004
2218 5180
2219 275
2219 2039
2219 5332
2220 502
2220 1940
2220 5151
2221 327
2221 1999
2221 5240
2222 422
2222 1808
2222 5156
2223 374
2223 1862
2223 5206
2224 328
2224 2028
2224 5202
2225 308
2225 1966
2225 5139
2226 480
2226 1797
2226 5168
2227 293
2227 1914
2227 5198
2228 352
2228 1909
2228 5197
2229 444
2229 2038
2229 5176
2230 311
2230 2019
2230 5229
2231 437
2231 1859
2231 5183
2232 473
2232 1960
2232 5344
2233 364
2233 1889
2233 5299
2234 296
2234 1796
2234 5255
2235 326
2235 1971
2235 5239
2236 323
2236 1867
2236 5367
2237 455
2237 1983
2237 5225
2238 389
2238 1837
2238 5277
2239 484
2239 1979
2239 5306
2240 431
2240 1951
2240 5319
2241 365
2241 2036
2241 5159
2242 295
2242 2026
2242 5211
2243 322
2243 1956
2243 5128
2244 478
2244 1845
2244 5285
2245 315
2245 2043
2245 5126
2246 419
2246 1798
2246 5343
2247 406
2247 1962
2247 5346
2248 492
2248 1936
2248 5219
2249 404
2249 1799
2249 5120
2250 277
2250 1834
2250 5157
2251 291
2251 1839
2251 5269
2252 292
2252 1883
2252 5345
2253 372
2253 1811
2253 5371
2254 337
2254 2031
2254 5179
2255 340
2255 1813
2255 5193
2256 298
2256 1943
2256 5267
2257 347
2257 2003
2257 5230
2258 305
2258 1850
2258 5297
2259 490
2259 1847
2259 5249
2260 452
2260 1840
2260 5175
2261 259
2261 2024
2261 5216
2262 361
2262 1998
2262 5137
2263 310
2263 1926
2263 5333
2264 385
2264 2032
2264 5312
2265 400
2265 1835
2265 5220
2266 354
2266 1825
2266 5338
2267 366
2267 1976
2267 5236
2268 316
2268 1904
2268 5121
2269 336
2269 2015
2269 5213
2270 504
2270 1846
2270 5336
2271 299
2271 1836
2271 5358
2272 421
2272 1903
2272 5123
2273 427
2273 1833
2273 5184
2274 282
2274 1954
2274 5256
2275 313
2275 1924
2275 5307
2276 302
2276 1996
2276 5214
2277 446
2277 1987
2277 5133
2278 345
2278 1816
2278 5127
2279 443
2279 1817
2279 5208
2280 461
2280 1974
2280 5149
2281 454
2281 1969
2281 5329
2282 355
2282 1821
2282 5302
2283 276
2283 1993
2283 5364
2284 256
2284 1866
2284 5366
2285 487
2285 1992
2285 5309
2286 442
2286 1984
2286 5231
2287 428
2287 1876
2287 5331
2288 300
2288 1832
2288 5271
2289 394
2289 2017
2289 5124
2290 459
2290 2007
2290 5154
2291 415
2291 1793
2291 5226
2292 440
2292 1919
2292 5191
2293 262
2293 1898
2293 5261
2294 375
2294 1897
2294 5298
2295 307
2295 2023
2295 5313
2296 396
2296 1964
2296 5218
2297 286
2297 2020
2297 5284
2298 438
2298 2008
2298 5188
2299 368
2299 1856
2299 5362
2300 288
2300 2037
2300 5370
2301 274
2301 1970
2301 5241
2302 413
2302 2027
2302 5192
2303 373
2303 1891
2303 5283
2304 739
2304 2164
2304 3713
2305 549
2305 2290
2305 3681
2306 582
2306 2172
2306 3604
2307 591
2307 2081
2307 3825
2308 615
2308 2157
2308 3600
2309 572
2309 2196
2309 3836
2310 605
2310 2231
2310 3741
2311 527
2311 2051
2311 3783
2312 593
2312 2219
2312 3706
2313 699
2313 2137
2313 3682
2314 720
2314 2198
2314 3792
2315 696
2315 2059
2315 3839
2316 678
2316 2239
2316 3769
2317 659
2317 2106
2317 3739
2318 639
2318 2073
2318 3763
2319 677
2319 2100
2319 3592
2320 632
2320 2262
2320 3738
2321 573
2321 2084
2321 3659
2322 748
2322 2158
2322 3804
2323 664
2323 2075
2323 3718
2324 732
2324 2293
2324 3630
2325 535
2325 2063
2325 3677
2326 552
2326 2200
2326 3830
2327 609
2327 2160
2327 3663
2328 706
2328 2134
2328 3717
2329 583
2329 2176
2329 3704
2330 607
2330 2145
2330 3667
2331 555
2331 2069
2331 3673
2332 716
2332 2187
2332 3774
2333 665
2333 2054
2333 3675
2334 738
2334 2136
2334 3740
2335 586
2335 2285
2335 3736
2336 539
2336 2303
2336 3596
2337 629
2337 2169
2337 3822
2338 614
2338 2278
2338 3614
2339 536
2339 2269
2339 3734
2340 613
2340 2131
2340 3773
2341 645
2341 2135
2341 3612
2342 702
2342 2133
2342 3803
2343 578
2343 2132
2343 3645
2344 620
2344 2094
2344 3754
2345 550
2345 2080
2345 3786
2346 674
2346 2053
2346 3743
2347 596
2347 2190
2347 3695
2348 608
2348 2203
2348 3643
2349 556
2349 2228
2349 3766
2350 654
2350 2264
2350 3626
2351 594
2351 2191
2351 3641
2352 625
2352 2148
2352 3790
2353 675
2353 2235
2353 3620
2354 567
2354 2091
2354 3733
2355 574
2355 2223
2355 3705
2356 719
2356 2108
2356 3607
2357 528
2357 2067
2357 3590
2358 757
2358 2095
2358 3609
2359 737
2359 2128
2359 3601
2360 637
2360 2245
2360 3832
2361 538
2361 2206
2361 3827
2362 647
2362 2101
2362 3715
2363 676
2363 2189
2363 3679
2364 590
2364 2194
2364 3680
2365 627
2365 2111
2365 3709
2366 602
2366 2139
2366 3782
2367 680
2367 2280
2367 3689
2368 749
2368 2121
2368 3798
2369 514
2369 2126
2369 3649
2370 708
2370 2279
2370 3595
2371 667
2371 2089
2371 3664
2372 636
2372 2153
2372 3775
2373 619
2373 2247
2373 3726
2374 731
2374 2142
2374 3838
2375 532
2375 2282
2375 3660
2376 540
2376 2171
2376 3653
2377 534
2377 2226
2377 3594
2378 597
2378 2248
2378 3759
2379 513
2379 2250
2379 3764
2380 669
2380 2078
2380 3813
2381 516
2381 2301
2381 3635
2382 754
2382 2147
2382 3737
2383 601
2383 2295
2383 3810
2384 633
2384 2110
2384 3615
2385 709
2385 2218
2385 3750
2386 595
2386 2115
2386 3837
2387 557
2387 2178
2387 3744
2388 740
2388 2098
2388 3729
2389 693
2389 2215
2389 3654
2390 571
2390 2118
2390 3793
2391 683
2391 2083
2391 3728
2392 521
2392 2277
2392 3800
2393 742
2393 2130
2393 3767
2394 551
2394 2185
2394 3700
2395 542
2395 2202
2395 3584
2396 566
2396 2049
2396 3809
2397 760
2397 2237
2397 3799
2398 526
2398 2129
2398 3698
2399 724
2399 2090
2399 3818
2400 726
2400 2180
2400 3688
2401 533
2401 2170
2401 3788
2402 717
2402 2224
2402 3638
2403 733
2403 2144
2403 3702
2404 743
2404 2168
2404 3833
2405 701
2405 2103
2405 3697
2406 638
2406 2125
2406 3670
2407 704
2407 2201
2407 3724
2408 570
2408 2161
2408 3814
2409 643
2409 2272
2409 3720
2410 767
2410 2076
2410 3647
2411 750
2411 2149
2411 3821
2412 703
2412 2267
2412 3817
2413 559
2413 2074
2413 3694
2414 561
2414 2271
2414 3656
2415 546
2415 2086
2415 3683
2416 718
2416 2234
2416 3835
2417 751
2417 2286
2417 3721
2418 688
2418 2216
2418 3691
2419 692
2419 2064
2419 3597
2420 712
2420 2261
2420 3777
2421 650
2421 2166
2421 3710
2422 682
2422 2273
2422 3756
2423 617
2423 2241
2423 3636
2424 588
2424 2072
2424 3617
2425 729
2425 2209
2425 3776
2426 746
2426 2212
2426 3611
2427 518
2427 2240
2427 3627
2428 569
2428 2236
2428 3625
2429 685
2429 2298
2429 3807
2430 728
2430 2297
2430 3753
2431 713
2431 2175
2431 3637
2432 537
2432 2122
2432 3725
2433 690
2433 2266
2433 3661
2434 653
2434 2210
2434 3802
2435 541
2435 2291
2435 3730
2436 689
2436 2284
2436 3761
2437 663
2437 2093
2437 3748
2438 644
2438 2127
2438 3831
2439 525
2439 2281
2439 3605
2440 756
2440 2299
2440 3640
2441 764
2441 2289
2441 3686
2442 512
2442 2117
2442 3770
2443 577
2443 2287
2443 3719
2444 672
2444 2092
2444 3826
2445 673
2445 2057
2445 3652
2446 725
2446 2082
2446 3644
2447 565
2447 2182
2447 3599
2448 681
2448 2070
2448 3593
2449 553
2449 2230
2449 3651
2450 735
2450 2097
2450 3801
2451 523
2451 2119
2451 3816
2452 612
2452 2195
2452 3631
2453 598
2453 2246
2453 3834
2454 714
2454 2197
2454 3693
2455 517
2455 2283
2455 3685
2456 727
2456 2079
2456 3619
2457 711
2457 2259
2457 3674
2458 721
2458 2052
2458 3757
2459 744
2459 2184
2459 3778
2460 752
2460 2253
2460 3829
2461 745
2461 2249
2461 3784
2462 758
2462 2155
2462 3606
2463 755
2463 2162
2463 3696
2464 626
2464 2141
2464 3758
2465 603
2465 2260
2465 3658
2466 666
2466 2238
2466 3655
2467 592
2467 2258
2467 3820
2468 684
2468 2154
2468 3692
2469 575
2469 2257
2469 3642
2470 599
2470 2270
2470 3676
2471 694
2471 2167
2471 3684
2472 661
2472 2288
2472 3666
2473 628
2473 2123
2473 3591
2474 576
2474 2071
2474 3657
2475 611
2475 2233
2475 3707
2476 581
2476 2188
2476 3815
2477 686
2477 2096
2477 3650
2478 524
2478 2265
2478 3588
2479 763
2479 2274
2479 3669
2480 741
2480 2179
2480 3794
2481 610
2481 2268
2481 3768
2482 568
2482 2181
2482 3727
2483 736
2483 2204
2483 3703
2484 545
2484 2294
2484 3622
2485 648
2485 2232
2485 3672
2486 564
2486 2116
2486 3623
2487 652
2487 2140
2487 3787
2488 761
2488 2048
2488 3603
2489 679
2489 2109
2489 3808
2490 710
2490 2066
2490 3699
2491 656
2491 2255
2491 3762
2492 762
2492 2061
2492 3671
2493 715
2493 2120
2493 3621
2494 691
2494 2217
2494 3628
2495 640
2495 2055
2495 3716
2496 658
2496 2252
2496 3589
2497 623
2497 2112
2497 3678
2498 531
2498 2087
2498 3714
2499 587
2499 2242
2499 3811
2500 759
2500 2227
2500 3634
2501 634
2501 2062
2501 3791
2502 765
2502 2296
2502 3795
2503 660
2503 2165
2503 3722
2504 585
2504 2104
2504 3806
2505 600
2505 2159
2505 3755
2506 734
2506 2143
2506 3771
2507 558
2507 2056
2507 3745
2508 562
2508 2099
2508 3780
2509 624
2509 2085
2509 3797
2510 618
2510 2124
2510 3785
2511 687
2511 2275
2511 3765
2512 630
2512 2163
2512 3662
2513 519
2513 2183
2513 3665
2514 622
2514 2088
2514 3779
2515 657
2515 2068
2515 3735
2516 698
2516 2225
2516 3616
2517 530
2517 2146
2517 3610
2518 705
2518 2276
2518 3587
2519 700
2519 2256
2519 3731
2520 695
2520 2186
2520 3747
2521 554
2521 2214
2521 3752
2522 722
2522 2199
2522 3828
2523 606
2523 2065
2523 3805
2524 529
2524 2177
2524 3639
2525 646
2525 2174
2525 3746
2526 560
2526 2102
2526 3687
2527 730
2527 2113
2527 3772
2528 635
2528 2263
2528 3648
2529 621
2529 2302
2529 3823
2530 543
2530 2138
2530 3749
2531 671
2531 2193
2531 3646
2532 631
2532 2105
2532 3732
2533 668
2533 2114
2533 3708
2534 616
2534 2060
2534 3585
2535 651
2535 2151
2535 3618
2536 641
2536 2221
2536 3789
2537 753
2537 2207
2537 3690
2538 642
2538 2150
2538 3602
2539 520
2539 2244
2539 3668
2540 604
2540 2173
2540 3819
2541 580
2541 2213
2541 3608
2542 515
2542 2254
2542 3751
2543 649
2543 2300
2543 3712
2544 723
2544 2205
2544 3812
2545 707
2545 2220
2545 3760
2546 579
2546 2152
2546 3629
2547 747
2547 2208
2547 3613
2548 548
2548 2292
2548 3742
2549 697
2549 2058
2549 3781
2550 584
2550 2050
2550 3723
2551 662
2551 2251
2551 3586
2552 522
2552 2222
2552 3824
2553 766
2553 2192
2553 3711
2554 655
2554 2211
2554 3624
2555 670
2555 2107
2555 3632
2556 563
2556 2229
2556 3796
2557 547
2557 2077
2557 3598
2558 544
2558 2156
2558 3633
2559 589
2559 2243
2559 3701
2560 775
2560 2507
2560 3998
2561 838
2561 2382
2561 4006
2562 935
2562 2354
2562 3973
2563 879
2563 2504
2563 3933
2564 804
2564 2483
2564 3847
2565 937
2565 2353
2565 4089
2566 768
2566 2368
2566 4071
2567 810
2567 2530
2567 3939
2568 988
2568 2515
2568 4066
2569 870
2569 2422
2569 3866
2570 890
2570 2556
2570 3997
2571 860
2571 2363
2571 3927
2572 987
2572 2481
2572 4036
2573 784
2573 2365
2573 3890
2574 910
2574 2308
2574 3898
2575 1019
2575 2501
2575 4030
2576 818
2576 2522
2576 3984
2577 878
2577 2489
2577 3969
2578 856
2578 2519
2578 3985
2579 1022
2579 2451
2579 3954
2580 924
2580 2424
2580 4037
2581 883
2581 2373
2581 4041
2582 1013
2582 2540
2582 4068
2583 871
2583 2554
2583 3993
2584 1010
2584 2370
2584 4079
2585 972
2585 2387
2585 4031
2586 867
2586 2419
2586 3932
2587 797
2587 2410
2587 4050
2588 966
2588 2511
2588 3923
2589 861
2589 2544
2589 3869
2590 798
2590 2491
2590 3971
2591 816
2591 2389
2591 4032
2592 990
2592 2541
2592 4040
2593 864
2593 2415
2593 3872
2594 993
2594 2480
2594 3880
2595 984
2595 2463
2595 3885
2596 922
2596 2490
2596 3859
2597 965
2597 2471
2597 4029
2598 887
2598 2542
2598 4087
2599 786
2599 2404
2599 3931
2600 969
2600 2348
2600 3867
2601 852
2601 2446
2601 4078
2602 956
2602 2342
2602 3909
2603 947
2603 2448
2603 3957
2604 920
2604 2538
2604 3879
2605 1021
2605 2367
2605 4042
2606 944
2606 2482
2606 3842
2607 835
2607 2409
2607 4046
2608 808
2608 2325
2608 3907
2609 877
2609 2498
2609 3895
2610 774
2610 2469
2610 3886
2611 803
2611 2537
2611 3929
2612 842
2612 2449
2612 3990
2613 831
2613 2341
2613 4035
2614 970
2614 2533
2614 3992
2615 801
2615 2360
2615 3974
2616 813
2616 2536
2616 3928
2617 811
2617 2384
2617 3888
2618 953
2618 2329
2618 3918
2619 846
2619 2408
2619 3968
2620 884
2620 2307
2620 3902
2621 843
2621 2543
2621 3856
2622 880
2622 2555
2622 3942
2623 919
2623 2315
2623 4020
2624 939
2624 2428
2624 3911
2625 941
2625 2393
2625 3906
2626 854
2626 2314
2626 4044
2627 872
2627 2427
2627 4052
2628 789
2628 2505
2628 3970
2629 943
2629 2306
2629 4013
2630 918
2630 2430
2630 3904
2631 926
2631 2523
2631 4081
2632 921
2632 2497
2632 4067
2633 998
2633 2349
2633 3924
2634 819
2634 2550
2634 3964
2635 997
2635 2374
2635 4062
2636 796
2636 2337
2636 4059
2637 994
2637 2465
2637 4016
2638 875
2638 2346
2638 4019
2639 833
2639 2336
2639 3995
2640 932
2640 2509
2640 4086
2641 963
2641 2321
2641 4095
2642 902
2642 2440
2642 4083
2643 848
2643 2371
2643 4047
2644 1009
2644 2316
2644 4070
2645 1011
2645 2444
2645 3941
2646 820
2646 2524
2646 3871
2647 899
2647 2378
2647 4023
2648 985
2648 2350
2648 3934
2649 832
2649 2529
2649 3857
2650 976
2650 2397
2650 3950
2651 982
2651 2343
2651 3877
2652 776
2652 2478
2652 3953
2653 876
2653 2521
2653 4001
2654 934
2654 2455
2654 4043
2655 898
2655 2551
2655 3858
2656 916
2656 2496
2656 4092
2657 995
2657 2525
2657 3938
2658 996
2658 2390
2658 4055
2659 1017
2659 2322
2659 3982
2660 781
2660 2470
2660 4026
2661 951
2661 2309
2661 4085
2662 782
2662 2385
2662 3865
2663 954
2663 2557
2663 4012
2664 873
2664 2518
2664 3916
2665 957
2665 2369
2665 4002
2666 962
2666 2396
2666 3966
2667 845
2667 2499
2667 4076
2668 857
2668 2333
2668 3944
2669 783
2669 2320
2669 3920
2670 814
2670 2528
2670 4073
2671 1012
2671 2338
2671 4053
2672 950
2672 2420
2672 3903
2673 991
2673 2319
2673 4080
2674 830
2674 2474
2674 3884
2675 805
2675 2475
2675 3861
2676 874
2676 2506
2676 4018
2677 847
2677 2362
2677 3914
2678 1016
2678 2392
2678 3965
2679 862
2679 2485
2679 3873
2680 900
2680 2403
2680 3940
2681 815
2681 2413
2681 4088
2682 967
2682 2418
2682 3883
2683 773
2683 2468
2683 4004
2684 940
2684 2456
2684 4010
2685 1023
2685 2467
2685 4033
2686 971
2686 2394
2686 3908
2687 809
2687 2310
2687 4011
2688 812
2688 2466
2688 3991
2689 974
2689 2443
2689 3851
2690 980
2690 2358
2690 4017
2691 863
2691 2332
2691 3972
2692 888
2692 2426
2692 3930
2693 791
2693 2406
2693 3876
2694 826
2694 2535
2694 3979
2695 853
2695 2355
2695 3949
2696 1020
2696 2459
2696 3882
2697 1015
2697 2479
2697 3977
2698 958
2698 2445
2698 3961
2699 788
2699 2492
2699 3975
2700 981
2700 2361
2700 4008
2701 986
2701 2438
2701 3921
2702 894
2702 2429
2702 3891
2703 769
2703 2534
2703 4051
2704 778
2704 2549
2704 3855
2705 840
2705 2502
2705 3910
2706 961
2706 2381
2706 4007
2707 824
2707 2546
2707 3900
2708 825
2708 2495
2708 3875
2709 866
2709 2510
2709 3963
2710 792
2710 2423
2710 3905
2711 925
2711 2375
2711 4034
2712 931
2712 2326
2712 4063
2713 952
2713 2334
2713 4061
2714 787
2714 2547
2714 3870
2715 800
2715 2526
2715 3994
2716 817
2716 2344
2716 4009
2717 897
2717 2514
2717 3951
2718 895
2718 2386
2718 3854
2719 959
2719 2452
2719 4090
2720 917
2720 2339
2720 3967
2721 882
2721 2532
2721 4003
2722 772
2722 2407
2722 3887
2723 886
2723 2330
2723 3988
2724 793
2724 2441
2724 3956
2725 979
2725 2318
2725 4093
2726 946
2726 2380
2726 4074
2727 1002
2727 2558
2727 3860
2728 829
2728 2411
2728 4056
2729 929
2729 2383
2729 3981
2730 949
2730 2327
2730 4060
2731 933
2731 2391
2731 3893
2732 851
2732 2359
2732 3937
2733 923
2733 2323
2733 4027
2734 1004
2734 2421
2734 3894
2735 992
2735 2548
2735 3853
2736 834
2736 2357
2736 4028
2737 945
2737 2395
2737 3996
2738 839
2738 2340
2738 3844
2739 807
2739 2450
2739 3848
2740 821
2740 2437
2740 3936
2741 799
2741 2401
2741 3962
2742 911
2742 2477
2742 3912
2743 936
2743 2539
2743 4054
2744 822
2744 2462
2744 3863
2745 909
2745 2488
2745 3935
2746 930
2746 2503
2746 3983
2747 823
2747 2416
2747 3843
2748 802
2748 2476
2748 3852
2749 855
2749 2376
2749 3987
2750 908
2750 2356
2750 3999
2751 869
2751 2436
2751 3897
2752 989
2752 2432
2752 3901
2753 948
2753 2545
2753 4064
2754 907
2754 2372
2754 4094
2755 1007
2755 2331
2755 3946
2756 777
2756 2552
2756 3959
2757 927
2757 2317
2757 4024
2758 850
2758 2364
2758 3913
2759 892
2759 2494
2759 4077
2760 828
2760 2513
2760 4005
2761 881
2761 2352
2761 4082
2762 841
2762 2425
2762 3948
2763 912
2763 2457
2763 3889
2764 914
2764 2531
2764 3878
2765 893
2765 2405
2765 3952
2766 906
2766 2351
2766 3960
2767 913
2767 2311
2767 3947
2768 896
2768 2324
2768 3945
2769 1008
2769 2312
2769 3841
2770 1005
2770 2484
2770 4049
2771 794
2771 2335
2771 3958
2772 790
2772 2447
2772 3849
2773 889
2773 2500
2773 4015
2774 983
2774 2345
2774 3874
2775 844
2775 2454
2775 4069
2776 904
2776 2472
2776 4000
2777 960
2777 2377
2777 3922
2778 1014
2778 2458
2778 3955
2779 865
2779 2516
2779 3864
2780 1003
2780 2473
2780 4075
2781 849
2781 2414
2781 4065
2782 928
2782 2527
2782 4022
2783 975
2783 2439
2783 4039
2784 978
2784 2313
2784 3976
2785 942
2785 2400
2785 4025
2786 1006
2786 2453
2786 3925
2787 827
2787 2388
2787 3846
2788 903
2788 2379
2788 3915
2789 999
2789 2304
2789 4072
2790 795
2790 2417
2790 3986
2791 868
2791 2305
2791 3896
2792 858
2792 2435
2792 3881
2793 915
2793 2442
2793 3943
2794 1001
2794 2508
2794 4091
2795 891
2795 2402
2795 4038
2796 977
2796 2487
2796 3845
2797 1000
2797 2399
2797 3989
2798 837
2798 2559
2798 4057
2799 771
2799 2512
2799 4084
2800 806
2800 2460
2800 3919
2801 901
2801 2493
2801 4014
2802 964
2802 2461
2802 3980
2803 836
2803 2520
2803 3926
2804 770
2804 2398
2804 3899
2805 955
2805 2366
2805 4045
2806 1018
2806 2347
2806 3892
2807 859
2807 2412
2807 3862
2808 968
2808 2517
2808 3978
2809 973
2809 2486
2809 3868
2810 938
2810 2328
2810 4048
2811 779
2811 2464
2811 3840
2812 885
2812 2433
2812 4021
2813 780
2813 2553
2813 3917
2814 905
2814 2431
2814 3850
2815 785
2815 2434
2815 4058
2816 1225
2816 2748
2816 4222
2817 1228
2817 2677
2817 4184
2818 1030
2818 2765
2818 4199
2819 1191
2819 2696
2819 4187
2820 1113
2820 2803
2820 4147
2821 1278
2821 2610
2821 4252
2822 1274
2822 2595
2822 4214
2823 1165
2823 2733
2823 4312
2824 1184
2824 2658
2824 4281
2825 1232
2825 2701
2825 4153
2826 1258
2826 2660
2826 4109
2827 1077
2827 2700
2827 4317
2828 1183
2828 2779
2828 4169
2829 1211
2829 2713
2829 4267
2830 1176
2830 2589
2830 4121
2831 1257
2831 2664
2831 4277
2832 1091
2832 2561
2832 4098
2833 1120
2833 2783
2833 4207
2834 1221
2834 2697
2834 4244
2835 1182
2835 2743
2835 4311
2836 1081
2836 2648
2836 4143
2837 1173
2837 2632
2837 4251
2838 1171
2838 2695
2838 4294
2839 1076
2839 2801
2839 4116
2840 1160
2840 2799
2840 4149
2841 1133
2841 2659
2841 4198
2842 1026
2842 2586
2842 4128
2843 1199
2843 2629
2843 4282
2844 1272
2844 2750
2844 4224
2845 1252
2845 2791
2845 4100
2846 1161
2846 2798
2846 4177
2847 1200
2847 2761
2847 4234
2848 1155
2848 2679
2848 4335
2849 1092
2849 2723
2849 4275
2850 1083
2850 2669
2850 4232
2851 1072
2851 2676
2851 4295
2852 1243
2852 2618
2852 4226
2853 1129
2853 2668
2853 4200
2854 1130
2854 2712
2854 4181
2855 1031
2855 2774
2855 4122
2856 1027
2856 2563
2856 4276
2857 1028
2857 2815
2857 4314
2858 1116
2858 2588
2858 4183
2859 1170
2859 2805
2859 4246
2860 1068
2860 2627
2860 4106
2861 1148
2861 2782
2861 4171
2862 1240
2862 2704
2862 4334
2863 1084
2863 2685
2863 4210
2864 1109
2864 2670
2864 4257
2865 1103
2865 2570
2865 4156
2866 1216
2866 2565
2866 4229
2867 1117
2867 2683
2867 4298
2868 1110
2868 2790
2868 4272
2869 1175
2869 2652
2869 4293
2870 1111
2870 2796
2870 4139
2871 1265
2871 2687
2871 4219
2872 1138
2872 2691
2872 4320
2873 1060
2873 2597
2873 4280
2874 1139
2874 2608
2874 4331
2875 1118
2875 2585
2875 4296
2876 1059
2876 2614
2876 4136
2877 1112
2877 2789
2877 4165
2878 1136
2878 2773
2878 4142
2879 1049
2879 2736
2879 4102
2880 1194
2880 2776
2880 4141
2881 1089
2881 2573
2881 4193
2882 1208
2882 2753
2882 4289
2883 1253
2883 2599
2883 4127
2884 1126
2884 2771
2884 4194
2885 1094
2885 2605
2885 4160
2886 1050
2886 2769
2886 4223
2887 1025
2887 2800
2887 4157
2888 1034
2888 2674
2888 4220
2889 1115
2889 2577
2889 4202
2890 1108
2890 2807
2890 4206
2891 1079
2891 2591
2891 4211
2892 1185
2892 2566
2892 4107
2893 1042
2893 2755
2893 4186
2894 1070
2894 2707
2894 4324
2895 1276
2895 2611
2895 4236
2896 1047
2896 2742
2896 4125
2897 1102
2897 2744
2897 4114
2898 1249
2898 2734
2898 4247
2899 1122
2899 2584
2899 4258
2900 1224
2900 2772
2900 4146
2901 1215
2901 2709
2901 4196
2902 1267
2902 2747
2902 4101
2903 1036
2903 2587
2903 4345
2904 1166
2904 2784
2904 4299
2905 1067
2905 2770
2905 4273
2906 1134
2906 2792
2906 4284
2907 1066
2907 2777
2907 4188
2908 1162
2908 2810
2908 4266
2909 1061
2909 2731
2909 4313
2910 1192
2910 2728
2910 4327
2911 1144
2911 2785
2911 4325
2912 1186
2912 2717
2912 4285
2913 1163
2913 2781
2913 4308
2914 1198
2914 2637
2914 4111
2915 1235
2915 2806
2915 4329
2916 1055
2916 2780
2916 4344
2917 1202
2917 2638
2917 4168
2918 1263
2918 2656
2918 4307
2919 1237
2919 2631
2919 4180
2920 1152
2920 2745
2920 4347
2921 1044
2921 2760
2921 4269
2922 1242
2922 2619
2922 4288
2923 1254
2923 2675
2923 4204
2924 1212
2924 2661
2924 4155
2925 1124
2925 2694
2925 4283
2926 1150
2926 2672
2926 4338
2927 1223
2927 2778
2927 4315
2928 1193
2928 2625
2928 4260
2929 1107
2929 2590
2929 4110
2930 1187
2930 2689
2930 4271
2931 1149
2931 2787
2931 4195
2932 1159
2932 2571
2932 4300
2933 1093
2933 2758
2933 4306
2934 1142
2934 2630
2934 4259
2935 1101
2935 2721
2935 4233
2936 1197
2936 2593
2936 4205
2937 1141
2937 2812
2937 4279
2938 1146
2938 2655
2938 4174
2939 1195
2939 2724
2939 4350
2940 1074
2940 2602
2940 4349
2941 1137
2941 2653
2941 4263
2942 1273
2942 2706
2942 4221
2943 1269
2943 2621
2943 4217
2944 1266
2944 2711
2944 4104
2945 1247
2945 2572
2945 4097
2946 1174
2946 2726
2946 4161
2947 1151
2947 2775
2947 4137
2948 1180
2948 2735
2948 4243
2949 1157
2949 2757
2949 4096
2950 1239
2950 2703
2950 4133
2951 1156
2951 2730
2951 4218
2952 1039
2952 2752
2952 4120
2953 1071
2953 2688
2953 4341
2954 1260
2954 2684
2954 4112
2955 1214
2955 2811
2955 4343
2956 1264
2956 2698
2956 4351
2957 1052
2957 2609
2957 4340
2958 1075
2958 2649
2958 4339
2959 1168
2959 2756
2959 4242
2960 1062
2960 2716
2960 4265
2961 1054
2961 2594
2961 4342
2962 1032
2962 2651
2962 4337
2963 1158
2963 2612
2963 4286
2964 1145
2964 2603
2964 4274
2965 1256
2965 2575
2965 4215
2966 1119
2966 2686
2966 4190
2967 1131
2967 2749
2967 4129
2968 1227
2968 2788
2968 4103
2969 1087
2969 2650
2969 4175
2970 1099
2970 2804
2970 4235
2971 1114
2971 2754
2971 4123
2972 1219
2972 2582
2972 4201
2973 1261
2973 2729
2973 4166
2974 1172
2974 2576
2974 4287
2975 1073
2975 2604
2975 4192
2976 1164
2976 2617
2976 4150
2977 1210
2977 2562
2977 4328
2978 1196
2978 2725
2978 4262
2979 1241
2979 2795
2979 4159
2980 1127
2980 2564
2980 4297
2981 1207
2981 2583
2981 4268
2982 1063
2982 2678
2982 4158
2983 1206
2983 2628
2983 4131
2984 1236
2984 2641
2984 4231
2985 1125
2985 2718
2985 4119
2986 1226
2986 2738
2986 4189
2987 1056
2987 2680
2987 4117
2988 1270
2988 2814
2988 4309
2989 1178
2989 2580
2989 4336
2990 1058
2990 2705
2990 4240
2991 1262
2991 2720
2991 4319
2992 1104
2992 2739
2992 4154
2993 1128
2993 2645
2993 4152
2994 1082
2994 2620
2994 4225
2995 1255
2995 2600
2995 4248
2996 1064
2996 2606
2996 4245
2997 1100
2997 2732
2997 4108
2998 1203
2998 2592
2998 4318
2999 1205
2999 2579
2999 4099
3000 1135
3000 2644
3000 4237
3001 1177
3001 2702
3001 4144
3002 1033
3002 2809
3002 4173
3003 1251
3003 2622
3003 4197
3004 1096
3004 2715
3004 4115
3005 1078
3005 2643
3005 4138
3006 1167
3006 2794
3006 4292
3007 1188
3007 2616
3007 4213
3008 1245
3008 2710
3008 4151
3009 1271
3009 2681
3009 4140
3010 1230
3010 2762
3010 4176
3011 1085
3011 2626
3011 4105
3012 1048
3012 2635
3012 4191
3013 1248
3013 2722
3013 4310
3014 1140
3014 2607
3014 4302
3015 1189
3015 2737
3015 4278
3016 1098
3016 2727
3016 4238
3017 1147
3017 2615
3017 4118
3018 1234
3018 2692
3018 4301
3019 1268
3019 2560
3019 4132
3020 1088
3020 2567
3020 4216
3021 1244
3021 2639
3021 4230
3022 1169
3022 2596
3022 4162
3023 1035
3023 2578
3023 4203
3024 1154
3024 2741
3024 4164
3025 1097
3025 2633
3025 4228
3026 1217
3026 2624
3026 4321
3027 1259
3027 2647
3027 4322
3028 1038
3028 2764
3028 4332
3029 1220
3029 2657
3029 4255
3030 1231
3030 2746
3030 4326
3031 1233
3031 2808
3031 4254
3032 1065
3032 2654
3032 4130
3033 1222
3033 2568
3033 4305
3034 1238
3034 2581
3034 4239
3035 1181
3035 2767
3035 4250
3036 1246
3036 2640
3036 4227
3037 1080
3037 2623
3037 4185
3038 1090
3038 2666
3038 4208
3039 1037
3039 2601
3039 4346
3040 1213
3040 2793
3040 4264
3041 1051
3041 2673
3041 4163
3042 1218
3042 2813
3042 4126
3043 1053
3043 2786
3043 4148
3044 1086
3044 2768
3044 4303
3045 1040
3045 2766
3045 4172
3046 1132
3046 2574
3046 4113
3047 1029
3047 2708
3047 4348
3048 1106
3048 2690
3048 4209
3049 1179
3049 2751
3049 4134
3050 1204
3050 2634
3050 4212
3051 1250
3051 2667
3051 4182
3052 1095
3052 2663
3052 4135
3053 1190
3053 2671
3053 4124
3054 1277
3054 2759
3054 4261
3055 1057
3055 2693
3055 4256
3056 1143
3056 2642
3056 4249
3057 1153
3057 2699
3057 4316
3058 1041
3058 2665
3058 4241
3059 1201
3059 2646
3059 4178
3060 1105
3060 2802
3060 4170
3061 1229
3061 2613
3061 4304
3062 1279
3062 2719
3062 4330
3063 1123
3063 2740
3063 4290
3064 1045
3064 2569
3064 4270
3065 1121
3065 2662
3065 4333
3066 1209
3066 2763
3066 4323
3067 1043
3067 2598
3067 4167
3068 1069
3068 2636
3068 4179
3069 1275
3069 2714
3069 4291
3070 1046
3070 2682
3070 4253
3071 1024
3071 2797
3071 4145
3072 1291
3072 2952
3072 4566
3073 1286
3073 3049
3073 4498
3074 1447
3074 3026
3074 4371
3075 1328
3075 2946
3075 4452
3076 1283
3076 3053
3076 4556
3077 1385
3077 2968
3077 4392
3078 1409
3078 2943
3078 4574
3079 1473
3079 2870
3079 4470
3080 1341
3080 2980
3080 4538
3081 1362
3081 2988
3081 4408
3082 1344
3082 3036
3082 4469
3083 1315
3083 2878
3083 4467
3084 1429
3084 2978
3084 4414
3085 1491
3085 3041
3085 4578
3086 1434
3086 2934
3086 4369
3087 1357
3087 2906
3087 4407
3088 1312
3088 2836
3088 4471
3089 1514
3089 2859
3089 4413
3090 1511
3090 2821
3090 4388
3091 1378
3091 3007
3091 4394
3092 1411
3092 3000
3092 4587
3093 1509
3093 2982
3093 4443
3094 1296
3094 2855
3094 4589
3095 1480
3095 2992
3095 4457
3096 1469
3096 2879
3096 4439
3097 1502
3097 3005
3097 4477
3098 1376
3098 3052
3098 4545
3099 1350
3099 3045
3099 4466
3100 1384
3100 2857
3100 4444
3101 1388
3101 3065
3101 4605
3102 1482
3102 3069
3102 4604
3103 1432
3103 2869
3103 4557
3104 1508
3104 2862
3104 4447
3105 1464
3105 2880
3105 4596
3106 1466
3106 2917
3106 4389
3107 1496
3107 2950
3107 4448
3108 1517
3108 2890
3108 4478
3109 1442
3109 2894
3109 4576
3110 1321
3110 2928
3110 4396
3111 1534
3111 2989
3111 4575
3112 1472
3112 2961
3112 4527
3113 1405
3113 2889
3113 4435
3114 1528
3114 3039
3114 4581
3115 1391
3115 2860
3115 4391
3116 1363
3116 2872
3116 4459
3117 1345
3117 3051
3117 4548
3118 1339
3118 2834
3118 4514
3119 1487
3119 2947
3119 4433
3120 1372
3120 2959
3120 4361
3121 1422
3121 3022
3121 4463
3122 1527
3122 2912
3122 4573
3123 1366
3123 2986
3123 4453
3124 1397
3124 2949
3124 4541
3125 1414
3125 2904
3125 4529
3126 1410
3126 2991
3126 4558
3127 1444
3127 2957
3127 4484
3128 1352
3128 2867
3128 4512
3129 1319
3129 2955
3129 4381
3130 1338
3130 2913
3130 4418
3131 1415
3131 2843
3131 4362
3132 1404
3132 3056
3132 4491
3133 1519
3133 3037
3133 4441
3134 1523
3134 3060
3134 4427
3135 1365
3135 3029
3135 4489
3136 1326
3136 3034
3136 4509
3137 1416
3137 2996
3137 4565
3138 1529
3138 3059
3138 4567
3139 1506
3139 2854
3139 4420
3140 1370
3140 3057
3140 4533
3141 1520
3141 3071
3141 4462
3142 1456
3142 2997
3142 4378
3143 1346
3143 2891
3143 4513
3144 1364
3144 3025
3144 4552
3145 1524
3145 2984
3145 4402
3146 1351
3146 2837
3146 4398
3147 1396
3147 2884
3147 4563
3148 1470
3148 2979
3148 4373
3149 1311
3149 2833
3149 4510
3150 1383
3150 2841
3150 4598
3151 1280
3151 2820
3151 4480
3152 1455
3152 2856
3152 4446
3153 1510
3153 3015
3153 4577
3154 1306
3154 2816
3154 4386
3155 1441
3155 2887
3155 4363
3156 1373
3156 2995
3156 4551
3157 1292
3157 3063
3157 4593
3158 1285
3158 2897
3158 4500
3159 1314
3159 2930
3159 4431
3160 1516
3160 2858
3160 4537
3161 1440
3161 3010
3161 4594
3162 1382
3162 2960
3162 4375
3163 1532
3163 3002
3163 4503
3164 1343
3164 3012
3164 4601
3165 1335
3165 2964
3165 4599
3166 1327
3166 3001
3166 4542
3167 1289
3167 2976
3167 4432
3168 1403
3168 3055
3168 4600
3169 1452
3169 3013
3169 4536
3170 1492
3170 2826
3170 4370
3171 1458
3171 3058
3171 4434
3172 1303
3172 3027
3172 4530
3173 1507
3173 3038
3173 4415
3174 1457
3174 2824
3174 4374
3175 1478
3175 3067
3175 4521
3176 1443
3176 2945
3176 4367
3177 1282
3177 3011
3177 4518
3178 1394
3178 2944
3178 4586
3179 1356
3179 3064
3179 4397
3180 1495
3180 2910
3180 4550
3181 1465
3181 3028
3181 4535
3182 1313
3182 3042
3182 4561
3183 1449
3183 2868
3183 4603
3184 1399
3184 2962
3184 4401
3185 1349
3185 2916
3185 4583
3186 1476
3186 2876
3186 4511
3187 1448
3187 2852
3187 4365
3188 1367
3188 2966
3188 4405
3189 1498
3189 2839
3189 4387
3190 1486
3190 3066
3190 4422
3191 1438
3191 2993
3191 4356
3192 1392
3192 2974
3192 4502
3193 1419
3193 2838
3193 4451
3194 1299
3194 2908
3194 4540
3195 1463
3195 2902
3195 4570
3196 1375
3196 2935
3196 4549
3197 1430
3197 3008
3197 4425
3198 1504
3198 2873
3198 4504
3199 1287
3199 3020
3199 4465
3200 1369
3200 3023
3200 4440
3201 1475
3201 2963
3201 4416
3202 1426
3202 2840
3202 4417
3203 1525
3203 2985
3203 4409
3204 1301
3204 2864
3204 4507
3205 1427
3205 2918
3205 4534
3206 1316
3206 2900
3206 4430
3207 1336
3207 2931
3207 4580
3208 1439
3208 3061
3208 4359
3209 1325
3209 2969
3209 4516
3210 1501
3210 2971
3210 4419
3211 1460
3211 3068
3211 4481
3212 1332
3212 2885
3212 4403
3213 1408
3213 2861
3213 4568
3214 1489
3214 2951
3214 4353
3215 1481
3215 2845
3215 4569
3216 1435
3216 3009
3216 4483
3217 1488
3217 3047
3217 4473
3218 1324
3218 2847
3218 4555
3219 1320
3219 3054
3219 4493
3220 1461
3220 3016
3220 4384
3221 1322
3221 2896
3221 4460
3222 1518
3222 2901
3222 4357
3223 1445
3223 2899
3223 4517
3224 1294
3224 2933
3224 4585
3225 1483
3225 3004
3225 4406
3226 1406
3226 2954
3226 4382
3227 1380
3227 2825
3227 4592
3228 1493
3228 2925
3228 4495
3229 1453
3229 2981
3229 4456
3230 1298
3230 2853
3230 4411
3231 1446
3231 2865
3231 4428
3232 1281
3232 2877
3232 4579
3233 1318
3233 2907
3233 4404
3234 1354
3234 3070
3234 4379
3235 1526
3235 2830
3235 4366
3236 1485
3236 3043
3236 4506
3237 1304
3237 2942
3237 4424
3238 1484
3238 2939
3238 4474
3239 1381
3239 2866
3239 4520
3240 1329
3240 2965
3240 4595
3241 1407
3241 3050
3241 4454
3242 1521
3242 2863
3242 4487
3243 1358
3243 2973
3243 4543
3244 1479
3244 2936
3244 4488
3245 1284
3245 3035
3245 4490
3246 1497
3246 3017
3246 4525
3247 1368
3247 2848
3247 4464
3248 1418
3248 3048
3248 4564
3249 1333
3249 2987
3249 4588
3250 1499
3250 2850
3250 4572
3251 1459
3251 2941
3251 4475
3252 1377
3252 2829
3252 4582
3253 1295
3253 2832
3253 4591
3254 1401
3254 2911
3254 4472
3255 1477
3255 2849
3255 4461
3256 1305
3256 2914
3256 4505
3257 1515
3257 2977
3257 4368
3258 1331
3258 2881
3258 4492
3259 1462
3259 2831
3259 4526
3260 1490
3260 2924
3260 4494
3261 1454
3261 3021
3261 4400
3262 1389
3262 2893
3262 4597
3263 1512
3263 2983
3263 4554
3264 1361
3264 3003
3264 4423
3265 1290
3265 2883
3265 4553
3266 1395
3266 2844
3266 4458
3267 1359
3267 2874
3267 4524
3268 1317
3268 3014
3268 4528
3269 1353
3269 3032
3269 4531
3270 1347
3270 2920
3270 4437
3271 1513
3271 3018
3271 4515
3272 1393
3272 2823
3272 4445
3273 1402
3273 2909
3273 4438
3274 1533
3274 2871
3274 4383
3275 1360
3275 3006
3275 4355
3276 1337
3276 2903
3276 4358
3277 1424
3277 2937
3277 4546
3278 1390
3278 2956
3278 4590
3279 1308
3279 2835
3279 4559
3280 1451
3280 2895
3280 4522
3281 1400
3281 2994
3281 4385
3282 1420
3282 2851
3282 4426
3283 1468
3283 2818
3283 4562
3284 1374
3284 2932
3284 4380
3285 1500
3285 3030
3285 4354
3286 1531
3286 2919
3286 4479
3287 1437
3287 2888
3287 4399
3288 1300
3288 3024
3288 4501
3289 1413
3289 2898
3289 4519
3290 1334
3290 2998
3290 4539
3291 1371
3291 2938
3291 4442
3292 1387
3292 2940
3292 4560
3293 1340
3293 2923
3293 4523
3294 1471
3294 2842
3294 4532
3295 1431
3295 2875
3295 4602
3296 1323
3296 3040
3296 4410
3297 1297
3297 2967
3297 4499
3298 1503
3298 2846
3298 4486
3299 1342
3299 2915
3299 4395
3300 1467
3300 2927
3300 4372
3301 1423
3301 2948
3301 4436
3302 1386
3302 3046
3302 4607
3303 1355
3303 3044
3303 4376
3304 1474
3304 2822
3304 4485
3305 1421
3305 2958
3305 4352
3306 1522
3306 3033
3306 4468
3307 1505
3307 2953
3307 4429
3308 1348
3308 2926
3308 4390
3309 1307
3309 3019
3309 4364
3310 1428
3310 2970
3310 4449
3311 1330
3311 3031
3311 4393
3312 1379
3312 2827
3312 4606
3313 1535
3313 2972
3313 4455
3314 1417
3314 2819
3314 4377
3315 1450
3315 2817
3315 4412
3316 1302
3316 2990
3316 4508
3317 1436
3317 2975
3317 4476
3318 1412
3318 3062
3318 4544
3319 1398
3319 2921
3319 4497
3320 1310
3320 2929
3320 4482
3321 1530
3321 2886
3321 4450
3322 1494
3322 2922
3322 4360
3323 1425
3323 2999
3323 4571
3324 1309
3324 2828
3324 4496
3325 1288
3325 2892
3325 4584
3326 1433
3326 2882
3326 4421
3327 1293
3327 2905
3327 4547
3328 1606
3328 3288
3328 4642
3329 1623
3329 3301
3329 4744
3330 1672
3330 3112
3330 4648
3331 1674
3331 3192
3331 4833
3332 1671
3332 3246
3332 4770
3333 1662
3333 3269
3333 4765
3334 1615
3334 3165
3334 4838
3335 1680
3335 3225
3335 4850
3336 1639
3336 3114
3336 4778
3337 1588
3337 3278
3337 4617
3338 1695
3338 3195
3338 4610
3339 1711
3339 3175
3339 4792
3340 1626
3340 3245
3340 4780
3341 1685
3341 3263
3341 4756
3342 1668
3342 3320
3342 4678
3343 1710
3343 3259
3343 4858
3344 1742
3344 3194
3344 4715
3345 1650
3345 3188
3345 4690
3346 1630
3346 3121
3346 4737
3347 1580
3347 3126
3347 4747
3348 1709
3348 3173
3348 4807
3349 1676
3349 3131
3349 4680
3350 1700
3350 3282
3350 4783
3351 1552
3351 3174
3351 4786
3352 1663
3352 3117
3352 4767
3353 1702
3353 3302
3353 4808
3354 1716
3354 3089
3354 4672
3355 1540
3355 3256
3355 4628
3356 1718
3356 3109
3356 4839
3357 1649
3357 3326
3357 4654
3358 1561
3358 3229
3358 4761
3359 1788
3359 3274
3359 4676
3360 1583
3360 3283
3360 4760
3361 1785
3361 3275
3361 4647
3362 1599
3362 3107
3362 4817
3363 1635
3363 3190
3363 4671
3364 1584
3364 3157
3364 4645
3365 1633
3365 3140
3365 4653
3366 1567
3366 3149
3366 4709
3367 1637
3367 3186
3367 4698
3368 1627
3368 3277
3368 4813
3369 1732
3369 3305
3369 4735
3370 1562
3370 3193
3370 4755
3371 1751
3371 3155
3371 4818
3372 1603
3372 3304
3372 4824
3373 1536
3373 3222
3373 4754
3374 1670
3374 3080
3374 4806
3375 1781
3375 3221
3375 4723
3376 1647
3376 3205
3376 4711
3377 1737
3377 3098
3377 4802
3378 1782
3378 3113
3378 4728
3379 1735
3379 3084
3379 4793
3380 1726
3380 3252
3380 4845
3381 1684
3381 3293
3381 4646
3382 1643
3382 3279
3382 4714
3383 1686
3383 3087
3383 4721
3384 1750
3384 3260
3384 4703
3385 1708
3385 3177
3385 4840
3386 1636
3386 3180
3386 4726
3387 1675
3387 3196
3387 4852
3388 1722
3388 3201
3388 4853
3389 1777
3389 3208
3389 4702
3390 1762
3390 3100
3390 4750
3391 1731
3391 3102
3391 4861
3392 1607
3392 3146
3392 4636
3393 1741
3393 3119
3393 4795
3394 1694
3394 3295
3394 4848
3395 1749
3395 3148
3395 4799
3396 1724
3396 3308
3396 4829
3397 1554
3397 3200
3397 4659
3398 1736
3398 3169
3398 4749
3399 1725
3399 3262
3399 4851
3400 1770
3400 3248
3400 4752
3401 1775
3401 3164
3401 4724
3402 1791
3402 3238
3402 4649
3403 1786
3403 3249
3403 4764
3404 1713
3404 3198
3404 4846
3405 1538
3405 3094
3405 4612
3406 1733
3406 3216
3406 4729
3407 1573
3407 3292
3407 4618
3408 1719
3408 3101
3408 4677
3409 1734
3409 3313
3409 4835
3410 1640
3410 3253
3410 4650
3411 1765
3411 3178
3411 4757
3412 1723
3412 3104
3412 4860
3413 1555
3413 3145
3413 4830
3414 1773
3414 3270
3414 4686
3415 1692
3415 3312
3415 4743
3416 1698
3416 3136
3416 4771
3417 1617
3417 3234
3417 4843
3418 1669
3418 3233
3418 4847
3419 1790
3419 3321
3419 4791
3420 1789
3420 3099
3420 4753
3421 1764
3421 3254
3421 4705
3422 1602
3422 3124
3422 4781
3423 1678
3423 3162
3423 4812
3424 1591
3424 3231
3424 4668
3425 1548
3425 3127
3425 4722
3426 1629
3426 3075
3426 4707
3427 1753
3427 3090
3427 4751
3428 1705
3428 3236
3428 4816
3429 1673
3429 3324
3429 4832
3430 1652
3430 3088
3430 4673
3431 1575
3431 3315
3431 4775
3432 1697
3432 3115
3432 4731
3433 1556
3433 3255
3433 4732
3434 1568
3434 3106
3434 4733
3435 1774
3435 3241
3435 4854
3436 1729
3436 3306
3436 4849
3437 1759
3437 3251
3437 4638
3438 1644
3438 3268
3438 4730
3439 1655
3439 3323
3439 4651
3440 1622
3440 3154
3440 4787
3441 1658
3441 3135
3441 4700
3442 1761
3442 3118
3442 4823
3443 1760
3443 3210
3443 4692
3444 1654
3444 3318
3444 4785
3445 1551
3445 3235
3445 4614
3446 1690
3446 3111
3446 4716
3447 1739
3447 3243
3447 4633
3448 1559
3448 3239
3448 4615
3449 1549
3449 3172
3449 4629
3450 1563
3450 3244
3450 4608
3451 1581
3451 3280
3451 4669
3452 1660
3452 3286
3452 4684
3453 1619
3453 3213
3453 4834
3454 1769
3454 3130
3454 4720
3455 1571
3455 3168
3455 4759
3456 1558
3456 3072
3456 4819
3457 1772
3457 3232
3457 4667
3458 1704
3458 3199
3458 4643
3459 1546
3459 3203
3459 4683
3460 1577
3460 3250
3460 4624
3461 1715
3461 3327
3461 4699
3462 1609
3462 3223
3462 4718
3463 1605
3463 3141
3463 4862
3464 1755
3464 3137
3464 4855
3465 1579
3465 3078
3465 4738
3466 1542
3466 3319
3466 4827
3467 1656
3467 3290
3467 4742
3468 1691
3468 3125
3468 4804
3469 1752
3469 3152
3469 4713
3470 1730
3470 3271
3470 4685
3471 1689
3471 3242
3471 4666
3472 1665
3472 3219
3472 4779
3473 1744
3473 3143
3473 4660
3474 1592
3474 3132
3474 4695
3475 1653
3475 3082
3475 4796
3476 1601
3476 3307
3476 4741
3477 1681
3477 3204
3477 4656
3478 1550
3478 3108
3478 4635
3479 1757
3479 3287
3479 4789
3480 1784
3480 3081
3480 4627
3481 1683
3481 3191
3481 4736
3482 1621
3482 3171
3482 4797
3483 1768
3483 3160
3483 4777
3484 1625
3484 3224
3484 4800
3485 1745
3485 3139
3485 4688
3486 1648
3486 3267
3486 4815
3487 1771
3487 3091
3487 4856
3488 1570
3488 3297
3488 4619
3489 1560
3489 3179
3489 4809
3490 1783
3490 3247
3490 4863
3491 1746
3491 3128
3491 4639
3492 1703
3492 3120
3492 4774
3493 1721
3493 3163
3493 4710
3494 1701
3494 3209
3494 4644
3495 1779
3495 3159
3495 4623
3496 1756
3496 3300
3496 4641
3497 1754
3497 3291
3497 4693
3498 1657
3498 3294
3498 4794
3499 1537
3499 3316
3499 4801
3500 1646
3500 3265
3500 4739
3501 1618
3501 3240
3501 4782
3502 1543
3502 3166
3502 4859
3503 1642
3503 3211
3503 4769
3504 1585
3504 3298
3504 4611
3505 1611
3505 3151
3505 4821
3506 1645
3506 3095
3506 4766
3507 1667
3507 3085
3507 4788
3508 1687
3508 3110
3508 4701
3509 1631
3509 3161
3509 4822
3510 1664
3510 3096
3510 4784
3511 1598
3511 3212
3511 4727
3512 1679
3512 3073
3512 4682
3513 1541
3513 3189
3513 4620
3514 1638
3514 3258
3514 4626
3515 1553
3515 3074
3515 4768
3516 1727
3516 3226
3516 4706
3517 1628
3517 3299
3517 4694
3518 1666
3518 3105
3518 4665
3519 1743
3519 3311
3519 4637
3520 1557
3520 3289
3520 4704
3521 1586
3521 3093
3521 4825
3522 1576
3522 3122
3522 4655
3523 1651
3523 3142
3523 4798
3524 1693
3524 3129
3524 4828
3525 1569
3525 3184
3525 4712
3526 1634
3526 3314
3526 4790
3527 1564
3527 3217
3527 4810
3528 1565
3528 3264
3528 4725
3529 1600
3529 3187
3529 4663
3530 1738
3530 3220
3530 4758
3531 1589
3531 3150
3531 4661
3532 1566
3532 3325
3532 4622
3533 1767
3533 3218
3533 4640
3534 1787
3534 3183
3534 4609
3535 1547
3535 3214
3535 4844
3536 1604
3536 3228
3536 4616
3537 1624
3537 3133
3537 4691
3538 1616
3538 3153
3538 4763
3539 1707
3539 3322
3539 4662
3540 1596
3540 3181
3540 4697
3541 1712
3541 3077
3541 4836
3542 1594
3542 3170
3542 4740
3543 1595
3543 3273
3543 4745
3544 1582
3544 3257
3544 4841
3545 1590
3545 3227
3545 4842
3546 1717
3546 3116
3546 4772
3547 1714
3547 3138
3547 4679
3548 1612
3548 3261
3548 4776
3549 1641
3549 3176
3549 4681
3550 1574
3550 3097
3550 4811
3551 1544
3551 3276
3551 4820
3552 1632
3552 3207
3552 4696
3553 1659
3553 3147
3553 4734
3554 1776
3554 3083
3554 4625
3555 1682
3555 3144
3555 4803
3556 1578
3556 3309
3556 4675
3557 1706
3557 3158
3557 4689
3558 1780
3558 3303
3558 4631
3559 1572
3559 3185
3559 4658
3560 1766
3560 3285
3560 4826
3561 1661
3561 3103
3561 4814
3562 1758
3562 3079
3562 4613
3563 1699
3563 3237
3563 4652
3564 1539
3564 3086
3564 4630
3565 1593
3565 3167
3565 4687
3566 1728
3566 3197
3566 4670
3567 1610
3567 3281
3567 4719
3568 1608
3568 3272
3568 4805
3569 1620
3569 3123
3569 4634
3570 1613
3570 3230
3570 4632
3571 1597
3571 3156
3571 4717
3572 1545
3572 3092
3572 4837
3573 1587
3573 3310
3573 4657
3574 1747
3574 3317
3574 4674
3575 1778
3575 3182
3575 4762
3576 1740
3576 3266
3576 4746
3577 1677
3577 3202
3577 4773
3578 1720
3578 3296
3578 4708
3579 1614
3579 3215
3579 4831
3580 1688
3580 3076
3580 4857
3581 1696
3581 3134
3581 4748
3582 1763
3582 3206
3582 4664
3583 1748
3583 3284
3583 4621
3584 171
3584 3253
3584 4528
3585 109
3585 3155
3585 4400
3586 200
3586 3306
3586 4356
3587 120
3587 3246
3587 4493
3588 208
3588 3216
3588 4514
3589 231
3589 3132
3589 4529
3590 23
3590 3077
3590 4414
3591 154
3591 3319
3591 4352
3592 166
3592 3121
3592 4484
3593 96
3593 3188
3593 4546
3594 5
3594 3091
3594 4492
3595 36
3595 3127
3595 4598
3596 95
3596 3104
3596 4544
3597 14
3597 3189
3597 4551
3598 175
3598 3084
3598 4393
3599 252
3599 3160
3599 4488
3600 250
3600 3128
3600 4371
3601 178
3601 3148
3601 4595
3602 82
3602 3131
3602 4402
3603 234
3603 3200
3603 4535
3604 117
3604 3129
3604 4453
3605 61
3605 3256
3605 4579
3606 226
3606 3167
3606 4404
3607 244
3607 3111
3607 4520
3608 11
3608 3097
3608 4446
3609 163
3609 3278
3609 4508
3610 53
3610 3179
3610 4583
3611 254
3611 3114
3611 4497
3612 130
3612 3242
3612 4575
3613 110
3613 3108
3613 4510
3614 54
3614 3176
3614 4480
3615 123
3615 3135
3615 4409
3616 60
3616 3308
3616 4445
3617 199
3617 3195
3617 4354
3618 230
3618 3103
3618 4599
3619 132
3619 3299
3619 4570
3620 190
3620 3213
3620 4559
3621 3
3621 3251
3621 4582
3622 62
3622 3088
3622 4373
3623 165
3623 3075
3623 4600
3624 103
3624 3325
3624 4442
3625 150
3625 3222
3625 4573
3626 162
3626 3177
3626 4394
3627 243
3627 3094
3627 4475
3628 29
3628 3300
3628 4386
3629 128
3629 3285
3629 4565
3630 112
3630 3209
3630 4550
3631 30
3631 3218
3631 4585
3632 203
3632 3280
3632 4592
3633 108
3633 3145
3633 4365
3634 169
3634 3206
3634 4403
3635 127
3635 3315
3635 4449
3636 32
3636 3093
3636 4539
3637 1
3637 3247
3637 4547
3638 239
3638 3180
3638 4395
3639 42
3639 3324
3639 4379
3640 246
3640 3269
3640 4468
3641 216
3641 3212
3641 4358
3642 140
3642 3284
3642 4413
3643 105
3643 3298
3643 4401
3644 211
3644 3266
3644 4561
3645 104
3645 3079
3645 4487
3646 72
3646 3123
3646 4584
3647 238
3647 3255
3647 4501
3648 67
3648 3273
3648 4355
3649 7
3649 3257
3649 4494
3650 152
3650 3106
3650 4481
3651 99
3651 3311
3651 4362
3652 48
3652 3302
3652 4530
3653 28
3653 3301
3653 4368
3654 75
3654 3152
3654 4589
3655 126
3655 3173
3655 4519
3656 160
3656 3277
3656 4555
3657 70
3657 3321
3657 4581
3658 189
3658 3279
3658 4396
3659 84
3659 3270
3659 4370
3660 25
3660 3163
3660 4463
3661 87
3661 3164
3661 4557
3662 86
3662 3318
3662 4380
3663 148
3663 3169
3663 4410
3664 16
3664 3158
3664 4390
3665 210
3665 3124
3665 4429
3666 46
3666 3281
3666 4455
3667 185
3667 3174
3667 4470
3668 184
3668 3326
3668 4594
3669 65
3669 3202
3669 4392
3670 78
3670 3248
3670 4462
3671 79
3671 3236
3671 4454
3672 168
3672 3138
3672 4398
3673 240
3673 3115
3673 4382
3674 107
3674 3136
3674 4391
3675 18
3675 3265
3675 4486
3676 19
3676 3154
3676 4587
3677 229
3677 3078
3677 4412
3678 223
3678 3292
3678 4387
3679 115
3679 3243
3679 4385
3680 38
3680 3316
3680 4572
3681 205
3681 3287
3681 4424
3682 94
3682 3267
3682 4460
3683 242
3683 3317
3683 4378
3684 97
3684 3220
3684 4476
3685 207
3685 3259
3685 4527
3686 236
3686 3208
3686 4515
3687 71
3687 3286
3687 4540
3688 135
3688 3291
3688 4496
3689 218
3689 3072
3689 4464
3690 245
3690 3149
3690 4590
3691 170
3691 3283
3691 4471
3692 101
3692 3229
3692 4554
3693 146
3693 3254
3693 4433
3694 68
3694 3087
3694 4602
3695 64
3695 3102
3695 4411
3696 153
3696 3245
3696 4466
3697 44
3697 3161
3697 4473
3698 179
3698 3232
3698 4436
3699 100
3699 3214
3699 4469
3700 106
3700 3166
3700 4580
3701 204
3701 3198
3701 4521
3702 249
3702 3272
3702 4372
3703 74
3703 3157
3703 4502
3704 35
3704 3293
3704 4553
3705 232
3705 3323
3705 4482
3706 27
3706 3151
3706 4359
3707 196
3707 3230
3707 4596
3708 20
3708 3239
3708 4407
3709 26
3709 3237
3709 4415
3710 220
3710 3261
3710 4499
3711 24
3711 3249
3711 4525
3712 172
3712 3143
3712 4456
3713 121
3713 3120
3713 4533
3714 133
3714 3182
3714 4485
3715 4
3715 3297
3715 4545
3716 159
3716 3238
3716 4452
3717 192
3717 3262
3717 4389
3718 147
3718 3086
3718 4427
3719 122
3719 3184
3719 4437
3720 114
3720 3226
3720 4438
3721 39
3721 3201
3721 4419
3722 58
3722 3221
3722 4574
3723 93
3723 3294
3723 4516
3724 206
3724 3092
3724 4457
3725 155
3725 3165
3725 4483
3726 77
3726 3081
3726 4568
3727 83
3727 3162
3727 4357
3728 81
3728 3196
3728 4467
3729 56
3729 3133
3729 4505
3730 233
3730 3309
3730 4447
3731 195
3731 3223
3731 4421
3732 224
3732 3234
3732 4420
3733 37
3733 3130
3733 4430
3734 219
3734 3096
3734 4569
3735 225
3735 3322
3735 4441
3736 201
3736 3119
3736 4548
3737 191
3737 3190
3737 4374
3738 92
3738 3109
3738 4586
3739 176
3739 3181
3739 4443
3740 10
3740 3147
3740 4417
3741 183
3741 3175
3741 4450
3742 237
3742 3117
3742 4434
3743 57
3743 3240
3743 4490
3744 144
3744 3107
3744 4369
3745 119
3745 3113
3745 4377
3746 52
3746 3258
3746 4431
3747 158
3747 3314
3747 4576
3748 43
3748 3224
3748 4511
3749 6
3749 3204
3749 4593
3750 51
3750 3260
3750 4440
3751 149
3751 3199
3751 4567
3752 45
3752 3105
3752 4478
3753 241
3753 3083
3753 4518
3754 88
3754 3146
3754 4353
3755 0
3755 3125
3755 4536
3756 9
3756 3172
3756 4534
3757 193
3757 3122
3757 4571
3758 13
3758 3276
3758 4367
3759 90
3759 3211
3759 4474
3760 63
3760 3233
3760 4566
3761 198
3761 3290
3761 4384
3762 91
3762 3139
3762 4552
3763 73
3763 3192
3763 4588
3764 215
3764 3141
3764 4532
3765 182
3765 3186
3765 4375
3766 69
3766 3197
3766 4388
3767 174
3767 3090
3767 4495
3768 143
3768 3268
3768 4458
3769 89
3769 3150
3769 4425
3770 85
3770 3264
3770 4439
3771 66
3771 3159
3771 4477
3772 15
3772 3205
3772 4578
3773 98
3773 3183
3773 4549
3774 125
3774 3142
3774 4405
3775 40
3775 3178
3775 4397
3776 138
3776 3098
3776 4428
3777 156
3777 3310
3777 4479
3778 49
3778 3156
3778 4606
3779 137
3779 3227
3779 4491
3780 76
3780 3275
3780 4383
3781 116
3781 3320
3781 4542
3782 248
3782 3296
3782 4498
3783 188
3783 3305
3783 4541
3784 187
3784 3295
3784 4597
3785 12
3785 3235
3785 4607
3786 134
3786 3170
3786 4513
3787 202
3787 3134
3787 4531
3788 180
3788 3100
3788 4577
3789 34
3789 3231
3789 4489
3790 33
3790 3215
3790 4423
3791 227
3791 3194
3791 4591
3792 186
3792 3207
3792 4472
3793 194
3793 3191
3793 4448
3794 41
3794 3082
3794 4364
3795 55
3795 3073
3795 4556
3796 118
3796 3080
3796 4360
3797 212
3797 3126
3797 4504
3798 255
3798 3203
3798 4564
3799 217
3799 3137
3799 4537
3800 222
3800 3095
3800 4604
3801 161
3801 3263
3801 4461
3802 213
3802 3101
3802 4509
3803 8
3803 3085
3803 4465
3804 2
3804 3289
3804 4406
3805 80
3805 3282
3805 4444
3806 31
3806 3074
3806 4605
3807 157
3807 3307
3807 4512
3808 59
3808 3110
3808 4526
3809 221
3809 3274
3809 4538
3810 124
3810 3250
3810 4376
3811 136
3811 3144
3811 4416
3812 102
3812 3187
3812 4435
3813 164
3813 3171
3813 4451
3814 22
3814 3241
3814 4426
3815 141
3815 3244
3815 4366
3816 145
3816 3313
3816 4459
3817 181
3817 3217
3817 4500
3818 251
3818 3225
3818 4399
3819 173
3819 3219
3819 4506
3820 21
3820 3076
3820 4603
3821 17
3821 3193
3821 4523
3822 177
3822 3252
3822 4522
3823 253
3823 3271
3823 4562
3824 129
3824 3168
3824 4517
3825 113
3825 3312
3825 4563
3826 139
3826 3288
3826 4363
3827 142
3827 3303
3827 4503
3828 209
3828 3089
3828 4560
3829 111
3829 3228
3829 4408
3830 228
3830 3153
3830 4381
3831 47
3831 3118
3831 4524
3832 131
3832 3140
3832 4601
3833 235
3833 3304
3833 4507
3834 167
3834 3099
3834 4432
3835 151
3835 3116
3835 4422
3836 197
3836 3112
3836 4418
3837 247
3837 3210
3837 4558
3838 50
3838 3327
3838 4543
3839 214
3839 3185
3839 4361
3840 363
3840 3365
3840 4733
3841 491
3841 3348
3841 4704
3842 310
3842 3334
3842 4675
3843 469
3843 3386
3843 4701
3844 309
3844 3551
3844 4630
3845 394
3845 3359
3845 4741
3846 481
3846 3421
3846 4813
3847 262
3847 3494
3847 4647
3848 298
3848 3555
3848 4768
3849 332
3849 3456
3849 4690
3850 399
3850 3513
3850 4700
3851 297
3851 3486
3851 4653
3852 320
3852 3388
3852 4735
3853 368
3853 3368
3853 4845
3854 279
3854 3430
3854 4726
3855 460
3855 3423
3855 4640
3856 351
3856 3478
3856 4641
3857 483
3857 3481
3857 4816
3858 289
3858 3492
3858 4710
3859 341
3859 3374
3859 4778
3860 329
3860 3522
3860 4632
3861 389
3861 3525
3861 4671
3862 376
3862 3453
3862 4698
3863 426
3863 3485
3863 4840
3864 414
3864 3477
3864 4767
3865 432
3865 3493
3865 4800
3866 500
3866 3515
3866 4765
3867 285
3867 3563
3867 4731
3868 454
3868 3347
3868 4636
3869 501
3869 3406
3869 4817
3870 502
3870 3490
3870 4839
3871 333
3871 3574
3871 4649
3872 495
3872 3454
3872 4642
3873 474
3873 3382
3873 4761
3874 359
3874 3392
3874 4648
3875 475
3875 3332
3875 4823
3876 263
3876 3356
3876 4654
3877 346
3877 3377
3877 4734
3878 288
3878 3548
3878 4848
3879 487
3879 3517
3879 4821
3880 419
3880 3510
3880 4664
3881 290
3881 3521
3881 4623
3882 284
3882 3411
3882 4651
3883 509
3883 3507
3883 4669
3884 408
3884 3418
3884 4637
3885 379
3885 3467
3885 4764
3886 410
3886 3498
3886 4775
3887 270
3887 3582
3887 4752
3888 277
3888 3372
3888 4740
3889 395
3889 3336
3889 4697
3890 484
3890 3461
3890 4722
3891 455
3891 3544
3891 4614
3892 438
3892 3440
3892 4750
3893 373
3893 3518
3893 4849
3894 354
3894 3445
3894 4801
3895 361
3895 3381
3895 4694
3896 497
3896 3383
3896 4811
3897 348
3897 3502
3897 4732
3898 442
3898 3579
3898 4748
3899 276
3899 3528
3899 4719
3900 449
3900 3547
3900 4799
3901 293
3901 3434
3901 4842
3902 261
3902 3451
3902 4673
3903 291
3903 3407
3903 4784
3904 383
3904 3417
3904 4709
3905 328
3905 3580
3905 4856
3906 303
3906 3495
3906 4652
3907 392
3907 3473
3907 4834
3908 269
3908 3349
3908 4827
3909 465
3909 3500
3909 4692
3910 393
3910 3487
3910 4615
3911 506
3911 3394
3911 4622
3912 400
3912 3462
3912 4729
3913 471
3913 3471
3913 4754
3914 258
3914 3568
3914 4782
3915 420
3915 3583
3915 4682
3916 390
3916 3571
3916 4785
3917 271
3917 3572
3917 4773
3918 365
3918 3373
3918 4668
3919 477
3919 3369
3919 4806
3920 268
3920 3553
3920 4661
3921 316
3921 3483
3921 4755
3922 265
3922 3401
3922 4815
3923 411
3923 3531
3923 4714
3924 357
3924 3479
3924 4792
3925 266
3925 3469
3925 4631
3926 412
3926 3439
3926 4824
3927 327
3927 3497
3927 4742
3928 436
3928 3523
3928 4745
3929 425
3929 3549
3929 4680
3930 499
3930 3405
3930 4859
3931 339
3931 3429
3931 4657
3932 391
3932 3357
3932 4643
3933 466
3933 3361
3933 4687
3934 315
3934 3340
3934 4705
3935 305
3935 3556
3935 4809
3936 352
3936 3355
3936 4723
3937 384
3937 3532
3937 4814
3938 434
3938 3516
3938 4608
3939 470
3939 3400
3939 4699
3940 427
3940 3362
3940 4620
3941 325
3941 3328
3941 4725
3942 323
3942 3358
3942 4819
3943 430
3943 3351
3943 4681
3944 314
3944 3425
3944 4676
3945 490
3945 3443
3945 4685
3946 416
3946 3482
3946 4633
3947 388
3947 3422
3947 4736
3948 403
3948 3557
3948 4830
3949 381
3949 3446
3949 4624
3950 496
3950 3541
3950 4625
3951 494
3951 3511
3951 4695
3952 300
3952 3463
3952 4696
3953 448
3953 3341
3953 4789
3954 478
3954 3371
3954 4857
3955 347
3955 3427
3955 4835
3956 473
3956 3552
3956 4790
3957 503
3957 3441
3957 4828
3958 349
3958 3343
3958 4860
3959 273
3959 3540
3959 4737
3960 441
3960 3426
3960 4644
3961 492
3961 3352
3961 4655
3962 295
3962 3346
3962 4780
3963 331
3963 3520
3963 4795
3964 296
3964 3393
3964 4678
3965 467
3965 3505
3965 4762
3966 418
3966 3501
3966 4659
3967 322
3967 3519
3967 4721
3968 405
3968 3474
3968 4810
3969 439
3969 3433
3969 4802
3970 505
3970 3339
3970 4833
3971 378
3971 3526
3971 4730
3972 398
3972 3330
3972 4707
3973 437
3973 3508
3973 4716
3974 413
3974 3538
3974 4711
3975 385
3975 3524
3975 4609
3976 292
3976 3431
3976 4627
3977 435
3977 3360
3977 4718
3978 386
3978 3448
3978 4619
3979 257
3979 3345
3979 4638
3980 375
3980 3438
3980 4618
3981 364
3981 3380
3981 4749
3982 260
3982 3527
3982 4693
3983 433
3983 3408
3983 4656
3984 366
3984 3366
3984 4691
3985 424
3985 3542
3985 4838
3986 452
3986 3576
3986 4779
3987 482
3987 3367
3987 4715
3988 312
3988 3432
3988 4776
3989 302
3989 3376
3989 4781
3990 318
3990 3419
3990 4797
3991 476
3991 3530
3991 4747
3992 489
3992 3550
3992 4852
3993 321
3993 3403
3993 4807
3994 319
3994 3503
3994 4787
3995 330
3995 3565
3995 4796
3996 504
3996 3504
3996 4616
3997 456
3997 3564
3997 4803
3998 338
3998 3566
3998 4851
3999 343
3999 3472
3999 4610
4000 324
4000 3506
4000 4744
4001 274
4001 3397
4001 4794
4002 450
4002 3450
4002 4825
4003 440
4003 3344
4003 4829
4004 462
4004 3537
4004 4798
4005 304
4005 3389
4005 4771
4006 308
4006 3533
4006 4672
4007 472
4007 3458
4007 4766
4008 409
4008 3488
4008 4626
4009 444
4009 3329
4009 4683
4010 344
4010 3384
4010 4831
4011 464
4011 3468
4011 4826
4012 334
4012 3484
4012 4850
4013 463
4013 3466
4013 4666
4014 256
4014 3452
4014 4635
4015 336
4015 3396
4015 4783
4016 367
4016 3447
4016 4708
4017 281
4017 3428
4017 4836
4018 402
4018 3375
4018 4702
4019 280
4019 3470
4019 4628
4020 493
4020 3562
4020 4858
4021 415
4021 3459
4021 4861
4022 498
4022 3412
4022 4863
4023 459
4023 3499
4023 4791
4024 447
4024 3496
4024 4617
4025 311
4025 3512
4025 4712
4026 313
4026 3464
4026 4670
4027 345
4027 3398
4027 4645
4028 307
4028 3534
4028 4818
4029 267
4029 3480
4029 4660
4030 451
4030 3395
4030 4808
4031 369
4031 3455
4031 4769
4032 335
4032 3578
4032 4772
4033 370
4033 3379
4033 4853
4034 431
4034 3337
4034 4667
4035 458
4035 3342
4035 4613
4036 401
4036 3435
4036 4662
4037 278
4037 3489
4037 4689
4038 272
4038 3561
4038 4639
4039 355
4039 3331
4039 4862
4040 337
4040 3424
4040 4738
4041 421
4041 3569
4041 4793
4042 404
4042 3391
4042 4777
4043 282
4043 3560
4043 4788
4044 422
4044 3543
4044 4634
4045 259
4045 3416
4045 4674
4046 480
4046 3415
4046 4812
4047 264
4047 3460
4047 4646
4048 423
4048 3390
4048 4713
4049 406
4049 3350
4049 4743
4050 453
4050 3539
4050 4786
4051 397
4051 3387
4051 4774
4052 457
4052 3420
4052 4621
4053 306
4053 3338
4053 4684
4054 350
4054 3436
4054 4728
4055 358
4055 3491
4055 4753
4056 294
4056 3465
4056 4629
4057 287
4057 3570
4057 4822
4058 317
4058 3546
4058 4758
4059 340
4059 3573
4059 4677
4060 507
4060 3529
4060 4739
4061 387
4061 3476
4061 4720
4062 510
4062 3444
4062 4832
4063 429
4063 3514
4063 4847
4064 342
4064 3554
4064 4760
4065 486
4065 3577
4065 4650
4066 299
4066 3581
4066 4688
4067 382
4067 3509
4067 4658
4068 380
4068 3475
4068 4717
4069 372
4069 3333
4069 4756
4070 428
4070 3402
4070 4746
4071 445
4071 3449
4071 4612
4072 326
4072 3410
4072 4724
4073 353
4073 3536
4073 4837
4074 407
4074 3575
4074 4663
4075 371
4075 3354
4075 4844
4076 362
4076 3559
4076 4686
4077 374
4077 3404
4077 4855
4078 443
4078 3363
4078 4841
4079 508
4079 3385
4079 4665
4080 485
4080 3399
4080 4854
4081 446
4081 3353
4081 4843
4082 301
4082 3370
4082 4804
4083 286
4083 3545
4083 4751
4084 275
4084 3335
4084 4820
4085 356
4085 3414
4085 4611
4086 283
4086 3364
4086 4727
4087 468
4087 3413
4087 4805
4088 511
4088 3409
4088 4703
4089 461
4089 3378
4089 4757
4090 377
4090 3457
4090 4846
4091 360
4091 3567
4091 4706
4092 479
4092 3558
4092 4770
4093 396
4093 3535
4093 4763
4094 488
4094 3437
4094 4679
4095 417
4095 3442
4095 4759
4096 642
4096 1887
4096 4898
4097 529
4097 2007
4097 5086
4098 595
4098 1963
4098 4871
4099 603
4099 1797
4099 4876
4100 578
4100 1889
4100 4908
4101 574
4101 1907
4101 4919
4102 658
4102 1951
4102 4892
4103 767
4103 1893
4103 4921
4104 728
4104 1825
4104 4927
4105 665
4105 2009
4105 5034
4106 590
4106 1835
4106 4966
4107 752
4107 1794
4107 4893
4108 648
4108 1880
4108 5045
4109 591
4109 2000
4109 4999
4110 533
4110 1812
4110 4887
4111 684
4111 2006
4111 4918
4112 679
4112 2030
4112 4928
4113 600
4113 1932
4113 5090
4114 607
4114 1905
4114 5106
4115 667
4115 1819
4115 4963
4116 626
4116 1967
4116 4905
4117 653
4117 1807
4117 5065
4118 530
4118 2040
4118 5063
4119 741
4119 1990
4119 5114
4120 512
4120 1945
4120 5000
4121 562
4121 1959
4121 5061
4122 702
4122 1832
4122 5096
4123 606
4123 2008
4123 4964
4124 686
4124 2010
4124 4981
4125 734
4125 1896
4125 4962
4126 523
4126 1863
4126 4938
4127 707
4127 2022
4127 4940
4128 545
4128 1926
4128 5026
4129 694
4129 1820
4129 5064
4130 613
4130 2025
4130 4911
4131 599
4131 2001
4131 5111
4132 700
4132 1919
4132 4948
4133 701
4133 1977
4133 4903
4134 535
4134 1942
4134 4965
4135 676
4135 1855
4135 4944
4136 645
4136 1974
4136 4971
4137 749
4137 1884
4137 4881
4138 735
4138 1986
4138 5049
4139 628
4139 1950
4139 4879
4140 691
4140 1822
4140 5040
4141 740
4141 1885
4141 4972
4142 696
4142 1900
4142 4937
4143 633
4143 1830
4143 5024
4144 673
4144 1995
4144 4977
4145 553
4145 1965
4145 4869
4146 538
4146 1925
4146 5102
4147 647
4147 1798
4147 5051
4148 572
4148 1848
4148 4984
4149 663
4149 1958
4149 5070
4150 525
4150 1954
4150 5001
4151 712
4151 1874
4151 4987
4152 596
4152 1805
4152 5017
4153 643
4153 2005
4153 4942
4154 573
4154 2028
4154 5015
4155 536
4155 1968
4155 4979
4156 528
4156 1912
4156 5116
4157 726
4157 2046
4157 4946
4158 661
4158 1937
4158 4868
4159 685
4159 1883
4159 4886
4160 738
4160 1985
4160 4990
4161 687
4161 2014
4161 5119
4162 605
4162 1850
4162 4957
4163 518
4163 1936
4163 4894
4164 664
4164 1892
4164 5048
4165 760
4165 2016
4165 5035
4166 750
4166 1840
4166 5011
4167 698
4167 1882
4167 4989
4168 742
4168 1991
4168 5067
4169 731
4169 1976
4169 5060
4170 762
4170 1903
4170 5036
4171 733
4171 1833
4171 4870
4172 711
4172 1862
4172 5105
4173 672
4173 1871
4173 4961
4174 677
4174 1972
4174 5092
4175 619
4175 1981
4175 4933
4176 592
4176 1969
4176 4885
4177 681
4177 1878
4177 5115
4178 743
4178 1899
4178 4967
4179 612
4179 1841
4179 4974
4180 567
4180 1891
4180 5007
4181 557
4181 1867
4181 5038
4182 534
4182 1911
4182 4929
4183 755
4183 1842
4183 5019
4184 570
4184 1928
4184 4910
4185 560
4185 2013
4185 5021
4186 736
4186 1894
4186 5039
4187 548
4187 1944
4187 4904
4188 721
4188 1935
4188 5072
4189 655
4189 1846
4189 4891
4190 568
4190 1931
4190 5043
4191 753
4191 1869
4191 5101
4192 764
4192 1881
4192 4888
4193 644
4193 1993
4193 5118
4194 532
4194 1966
4194 4960
4195 634
4195 1845
4195 4897
4196 693
4196 1873
4196 4913
4197 594
4197 1828
4197 5069
4198 668
4198 1910
4198 5104
4199 720
4199 1856
4199 5062
4200 569
4200 1964
4200 4923
4201 650
4201 1831
4201 4995
4202 695
4202 2011
4202 5058
4203 558
4203 2043
4203 5113
4204 559
4204 1853
4204 5082
4205 629
4205 1997
4205 4955
4206 709
4206 1947
4206 4951
4207 705
4207 1901
4207 5099
4208 580
4208 1953
4208 4996
4209 549
4209 2003
4209 5052
4210 748
4210 1809
4210 5094
4211 704
4211 2012
4211 4931
4212 761
4212 1817
4212 4975
4213 587
4213 1913
4213 4882
4214 717
4214 1939
4214 5076
4215 725
4215 2023
4215 5002
4216 598
4216 1984
4216 5020
4217 616
4217 1983
4217 4934
4218 754
4218 1858
4218 4986
4219 577
4219 1938
4219 5054
4220 520
4220 1943
4220 4924
4221 521
4221 1992
4221 5055
4222 561
4222 1813
4222 5033
4223 732
4223 1918
4223 5028
4224 708
4224 1962
4224 4899
4225 745
4225 1934
4225 4983
4226 630
4226 1946
4226 4953
4227 584
4227 1865
4227 4956
4228 641
4228 1804
4228 4925
4229 632
4229 2029
4229 4939
4230 713
4230 1906
4230 5117
4231 690
4231 1987
4231 5097
4232 565
4232 1888
4232 4915
4233 541
4233 2015
4233 5075
4234 737
4234 2027
4234 5107
4235 608
4235 1916
4235 5109
4236 678
4236 1875
4236 5029
4237 699
4237 2035
4237 5027
4238 522
4238 1806
4238 4985
4239 537
4239 1852
4239 4865
4240 765
4240 1839
4240 4920
4241 662
4241 1792
4241 5083
4242 669
4242 2047
4242 5025
4243 576
4243 1917
4243 4976
4244 604
4244 1859
4244 4896
4245 718
4245 1923
4245 4991
4246 621
4246 1930
4246 5095
4247 515
4247 1961
4247 4909
4248 551
4248 1999
4248 5074
4249 689
4249 1929
4249 5088
4250 715
4250 1902
4250 5008
4251 675
4251 1799
4251 5100
4252 602
4252 1821
4252 4890
4253 649
4253 1851
4253 5066
4254 579
4254 1829
4254 4935
4255 556
4255 2017
4255 5059
4256 635
4256 2041
4256 5073
4257 611
4257 1908
4257 4872
4258 636
4258 1890
4258 4993
4259 517
4259 1796
4259 4943
4260 583
4260 1933
4260 4968
4261 659
4261 2034
4261 5078
4262 571
4262 2033
4262 5079
4263 719
4263 1980
4263 5071
4264 722
4264 1857
4264 5050
4265 593
4265 1843
4265 4978
4266 563
4266 1802
4266 4949
4267 527
4267 1823
4267 5047
4268 623
4268 1861
4268 5003
4269 751
4269 1866
4269 4980
4270 555
4270 1803
4270 5022
4271 714
4271 2024
4271 5110
4272 585
4272 1956
4272 4992
4273 651
4273 1860
4273 5041
4274 638
4274 1897
4274 5112
4275 631
4275 1827
4275 4864
4276 531
4276 1971
4276 4866
4277 620
4277 1844
4277 4922
4278 671
4278 2031
4278 4906
4279 610
4279 1815
4279 4959
4280 646
4280 1920
4280 4950
4281 586
4281 1978
4281 4895
4282 688
4282 1800
4282 4970
4283 654
4283 1864
4283 5077
4284 618
4284 1998
4284 5056
4285 739
4285 1826
4285 5006
4286 524
4286 1877
4286 4945
4287 727
4287 1996
4287 4874
4288 666
4288 2042
4288 5044
4289 747
4289 2045
4289 4969
4290 637
4290 1854
4290 4954
4291 692
4291 2037
4291 5103
4292 566
4292 1898
4292 5085
4293 543
4293 1955
4293 5057
4294 617
4294 1879
4294 4873
4295 581
4295 2004
4295 5037
4296 624
4296 1793
4296 4988
4297 766
4297 1808
4297 4998
4298 683
4298 1816
4298 4880
4299 544
4299 2002
4299 4997
4300 575
4300 1834
4300 4900
4301 582
4301 2020
4301 5016
4302 697
4302 2021
4302 4867
4303 601
4303 1868
4303 5042
4304 589
4304 1838
4304 5081
4305 542
4305 1924
4305 5018
4306 682
4306 2019
4306 5031
4307 597
4307 1988
4307 4902
4308 744
4308 1948
4308 5087
4309 657
4309 1818
4309 4912
4310 706
4310 1849
4310 4952
4311 763
4311 1982
4311 4884
4312 614
4312 1915
4312 4889
4313 609
4313 1801
4313 4958
4314 588
4314 1909
4314 5014
4315 660
4315 1795
4315 4941
4316 746
4316 2018
4316 4926
4317 652
4317 1824
4317 5068
4318 516
4318 1814
4318 5005
4319 615
4319 1940
4319 5108
4320 703
4320 1949
4320 5032
4321 554
4321 1952
4321 5004
4322 656
4322 1904
4322 4883
4323 730
4323 2032
4323 4907
4324 724
4324 1876
4324 5080
4325 550
4325 1960
4325 4930
4326 625
4326 1836
4326 5093
4327 670
4327 1922
4327 4878
4328 546
4328 2038
4328 4973
4329 674
4329 1970
4329 4947
4330 627
4330 1870
4330 4877
4331 639
4331 1886
4331 5089
4332 513
4332 1811
4332 5053
4333 640
4333 2036
4333 5013
4334 716
4334 2026
4334 4982
4335 514
4335 1921
4335 4994
4336 547
4336 1975
4336 5012
4337 710
4337 1989
4337 4875
4338 757
4338 1979
4338 4936
4339 680
4339 1914
4339 4916
4340 539
4340 1994
4340 5009
4341 564
4341 1927
4341 4901
4342 526
4342 2044
4342 5010
4343 759
4343 1810
4343 5091
4344 552
4344 1941
4344 5023
4345 723
4345 1837
4345 5098
4346 756
4346 1973
4346 4932
4347 758
4347 1872
4347 4917
4348 519
4348 1847
4348 5030
4349 729
4349 1895
4349 4914
4350 540
4350 2039
4350 5084
4351 622
4351 1957
4351 5046
4352 1015
4352 2206
4352 5161
4353 989
4353 2287
4353 5350
4354 854
4354 2130
4354 5184
4355 975
4355 2143
4355 5275
4356 958
4356 2056
4356 5375
4357 906
4357 2118
4357 5231
4358 797
4358 2178
4358 5257
4359 865
4359 2149
4359 5365
4360 868
4360 2293
4360 5193
4361 988
4361 2185
4361 5141
4362 796
4362 2116
4362 5316
4363 894
4363 2146
4363 5144
4364 848
4364 2193
4364 5210
4365 1005
4365 2085
4365 5205
4366 934
4366 2134
4366 5171
4367 795
4367 2278
4367 5296
4368 832
4368 2093
4368 5123
4369 803
4369 2100
4369 5330
4370 974
4370 2219
4370 5182
4371 943
4371 2126
4371 5183
4372 850
4372 2295
4372 5326
4373 777
4373 2227
4373 5153
4374 902
4374 2063
4374 5154
4375 774
4375 2261
4375 5337
4376 920
4376 2211
4376 5145
4377 869
4377 2179
4377 5268
4378 895
4378 2263
4378 5346
4379 1012
4379 2125
4379 5273
4380 928
4380 2155
4380 5179
4381 874
4381 2191
4381 5349
4382 830
4382 2166
4382 5308
4383 834
4383 2186
4383 5207
4384 799
4384 2216
4384 5142
4385 893
4385 2198
4385 5136
4386 877
4386 2097
4386 5188
4387 900
4387 2074
4387 5279
4388 971
4388 2171
4388 5185
4389 964
4389 2235
4389 5163
4390 929
4390 2066
4390 5281
4391 1011
4391 2150
4391 5332
4392 819
4392 2065
4392 5165
4393 871
4393 2257
4393 5373
4394 814
4394 2054
4394 5186
4395 800
4395 2141
4395 5133
4396 861
4396 2301
4396 5173
4397 768
4397 2234
4397 5121
4398 888
4398 2277
4398 5305
4399 949
4399 2049
4399 5282
4400 849
4400 2132
4400 5191
4401 980
4401 2286
4401 5181
4402 790
4402 2262
4402 5264
4403 899
4403 2095
4403 5146
4404 863
4404 2217
4404 5143
4405 897
4405 2269
4405 5295
4406 864
4406 2236
4406 5135
4407 1000
4407 2255
4407 5324
4408 879
4408 2137
4408 5253
4409 901
4409 2156
4409 5354
4410 1004
4410 2161
4410 5225
4411 942
4411 2222
4411 5242
4412 912
4412 2072
4412 5359
4413 770
4413 2088
4413 5323
4414 905
4414 2123
4414 5343
4415 820
4415 2223
4415 5355
4416 953
4416 2173
4416 5360
4417 829
4417 2274
4417 5317
4418 867
4418 2050
4418 5289
4419 889
4419 2187
4419 5331
4420 780
4420 2162
4420 5209
4421 840
4421 2221
4421 5276
4422 973
4422 2258
4422 5206
4423 911
4423 2212
4423 5128
4424 908
4424 2052
4424 5318
4425 837
4425 2103
4425 5364
4426 825
4426 2226
4426 5283
4427 944
4427 2129
4427 5227
4428 883
4428 2098
4428 5292
4429 846
4429 2169
4429 5340
4430 842
4430 2158
4430 5208
4431 926
4431 2112
4431 5300
4432 1001
4432 2297
4432 5149
4433 771
4433 2233
4433 5248
4434 784
4434 2209
4434 5213
4435 952
4435 2195
4435 5151
4436 1018
4436 2238
4436 5338
4437 967
4437 2068
4437 5265
4438 997
4438 2225
4438 5291
4439 851
4439 2144
4439 5214
4440 1013
4440 2200
4440 5261
4441 1007
4441 2151
4441 5196
4442 1002
4442 2055
4442 5347
4443 976
4443 2160
4443 5177
4444 880
4444 2064
4444 5272
4445 982
4445 2272
4445 5352
4446 813
4446 2196
4446 5256
4447 844
4447 2051
4447 5180
4448 887
4448 2157
4448 5187
4449 998
4449 2073
4449 5172
4450 804
4450 2106
4450 5124
4451 1003
4451 2203
4451 5195
4452 962
4452 2243
4452 5369
4453 859
4453 2165
4453 5243
4454 918
4454 2213
4454 5122
4455 890
4455 2167
4455 5278
4456 907
4456 2266
4456 5361
4457 882
4457 2135
4457 5134
4458 1019
4458 2096
4458 5334
4459 892
4459 2204
4459 5239
4460 957
4460 2210
4460 5267
4461 886
4461 2181
4461 5303
4462 778
4462 2281
4462 5158
4463 959
4463 2092
4463 5370
4464 978
4464 2087
4464 5229
4465 1014
4465 2110
4465 5259
4466 923
4466 2252
4466 5285
4467 991
4467 2250
4467 5307
4468 827
4468 2083
4468 5201
4469 872
4469 2282
4469 5152
4470 789
4470 2105
4470 5263
4471 835
4471 2201
4471 5219
4472 807
4472 2107
4472 5348
4473 801
4473 2256
4473 5220
4474 815
4474 2292
4474 5319
4475 956
4475 2175
4475 5127
4476 935
4476 2229
4476 5329
4477 781
4477 2109
4477 5371
4478 940
4478 2081
4478 5260
4479 841
4479 2303
4479 5139
4480 845
4480 2294
4480 5120
4481 927
4481 2246
4481 5251
4482 936
4482 2152
4482 5288
4483 972
4483 2189
4483 5266
4484 932
4484 2094
4484 5255
4485 823
4485 2180
4485 5277
4486 947
4486 2237
4486 5147
4487 985
4487 2168
4487 5238
4488 811
4488 2172
4488 5274
4489 818
4489 2124
4489 5250
4490 862
4490 2302
4490 5284
4491 995
4491 2244
4491 5254
4492 866
4492 2113
4492 5320
4493 875
4493 2102
4493 5233
4494 776
4494 2182
4494 5286
4495 806
4495 2086
4495 5342
4496 817
4496 2077
4496 5244
4497 788
4497 2275
4497 5336
4498 881
4498 2267
4498 5367
4499 884
4499 2197
4499 5356
4500 769
4500 2177
4500 5327
4501 836
4501 2075
4501 5224
4502 904
4502 2220
4502 5192
4503 1016
4503 2164
4503 5125
4504 794
4504 2285
4504 5202
4505 786
4505 2104
4505 5310
4506 999
4506 2290
4506 5247
4507 983
4507 2249
4507 5234
4508 950
4508 2121
4508 5351
4509 833
4509 2276
4509 5204
4510 855
4510 2270
4510 5246
4511 1009
4511 2296
4511 5304
4512 838
4512 2202
4512 5137
4513 915
4513 2273
4513 5341
4514 903
4514 2053
4514 5174
4515 955
4515 2245
4515 5222
4516 1017
4516 2136
4516 5314
4517 986
4517 2279
4517 5197
4518 921
4518 2133
4518 5366
4519 968
4519 2148
4519 5230
4520 828
4520 2170
4520 5218
4521 810
4521 2194
4521 5345
4522 990
4522 2159
4522 5368
4523 925
4523 2128
4523 5199
4524 1020
4524 2241
4524 5203
4525 969
4525 2108
4525 5175
4526 948
4526 2139
4526 5215
4527 933
4527 2122
4527 5241
4528 876
4528 2090
4528 5374
4529 919
4529 2299
4529 5138
4530 913
4530 2115
4530 5287
4531 773
4531 2288
4531 5335
4532 984
4532 2078
4532 5302
4533 896
4533 2291
4533 5333
4534 792
4534 2280
4534 5166
4535 996
4535 2260
4535 5372
4536 775
4536 2231
4536 5357
4537 922
4537 2283
4537 5223
4538 963
4538 2190
4538 5164
4539 917
4539 2111
4539 5312
4540 941
4540 2207
4540 5306
4541 981
4541 2240
4541 5156
4542 939
4542 2119
4542 5130
4543 853
4543 2076
4543 5198
4544 831
4544 2145
4544 5237
4545 979
4545 2268
4545 5140
4546 793
4546 2060
4546 5155
4547 885
4547 2057
4547 5200
4548 924
4548 2242
4548 5240
4549 938
4549 2208
4549 5362
4550 873
4550 2228
4550 5170
4551 802
4551 2058
4551 5299
4552 852
4552 2070
4552 5211
4553 839
4553 2247
4553 5150
4554 809
4554 2062
4554 5126
4555 977
4555 2254
4555 5325
4556 910
4556 2082
4556 5322
4557 961
4557 2230
4557 5167
4558 966
4558 2080
4558 5168
4559 992
4559 2084
4559 5212
4560 1006
4560 2183
4560 5157
4561 808
4561 2298
4561 5297
4562 779
4562 2120
4562 5232
4563 843
4563 2061
4563 5293
4564 891
4564 2114
4564 5190
4565 909
4565 2140
4565 5271
4566 785
4566 2099
4566 5249
4567 916
4567 2147
4567 5280
4568 847
4568 2069
4568 5245
4569 1008
4569 2101
4569 5162
4570 856
4570 2259
4570 5178
4571 1023
4571 2174
4571 5131
4572 914
4572 2264
4572 5258
4573 965
4573 2154
4573 5194
4574 930
4574 2300
4574 5363
4575 791
4575 2289
4575 5262
4576 945
4576 2067
4576 5298
4577 816
4577 2163
4577 5321
4578 870
4578 2127
4578 5313
4579 1022
4579 2142
4579 5226
4580 782
4580 2192
4580 5339
4581 822
4581 2253
4581 5159
4582 987
4582 2091
4582 5216
4583 857
4583 2205
4583 5301
4584 1010
4584 2138
4584 5129
4585 970
4585 2224
4585 5290
4586 812
4586 2153
4586 5236
4587 821
4587 2117
4587 5344
4588 931
4588 2248
4588 5132
4589 1021
4589 2188
4589 5189
4590 960
4590 2184
4590 5309
4591 994
4591 2218
4591 5353
4592 951
4592 2176
4592 5221
4593 858
4593 2251
4593 5148
4594 946
4594 2215
4594 5269
4595 860
4595 2232
4595 5252
4596 878
4596 2079
4596 5294
4597 937
4597 2271
4597 5270
4598 783
4598 2071
4598 5160
4599 787
4599 2131
4599 5328
4600 993
4600 2199
4600 5228
4601 798
4601 2214
4601 5358
4602 898
4602 2089
4602 5235
4603 826
4603 2265
4603 5176
4604 805
4604 2059
4604 5315
4605 954
4605 2048
4605 5217
4606 772
4606 2284
4606 5169
4607 824
4607 2239
4607 5311
4608 1232
4608 2311
4608 3778
4609 1105
4609 2368
4609 3719
4610 1149
4610 2551
4610 3700
4611 1127
4611 2483
4611 3593
4612 1177
4612 2456
4612 3740
4613 1142
4613 2541
4613 3704
4614 1108
4614 2374
4614 3668
4615 1263
4615 2426
4615 3773
4616 1140
4616 2503
4616 3819
4617 1181
4617 2362
4617 3626
4618 1153
4618 2487
4618 3592
4619 1171
4619 2471
4619 3769
4620 1279
4620 2488
4620 3646
4621 1077
4621 2338
4621 3670
4622 1079
4622 2482
4622 3615
4623 1042
4623 2353
4623 3648
4624 1228
4624 2324
4624 3623
4625 1035
4625 2438
4625 3741
4626 1055
4626 2417
4626 3788
4627 1178
4627 2363
4627 3622
4628 1078
4628 2330
4628 3707
4629 1106
4629 2441
4629 3803
4630 1091
4630 2345
4630 3779
4631 1089
4631 2369
4631 3609
4632 1030
4632 2406
4632 3826
4633 1277
4633 2532
4633 3617
4634 1175
4634 2533
4634 3790
4635 1235
4635 2348
4635 3802
4636 1036
4636 2511
4636 3613
4637 1112
4637 2522
4637 3679
4638 1222
4638 2429
4638 3793
4639 1084
4639 2423
4639 3748
4640 1197
4640 2497
4640 3620
4641 1155
4641 2507
4641 3658
4642 1212
4642 2529
4642 3690
4643 1085
4643 2476
4643 3596
4644 1068
4644 2382
4644 3785
4645 1184
4645 2327
4645 3638
4646 1130
4646 2473
4646 3618
4647 1124
4647 2411
4647 3839
4648 1076
4648 2543
4648 3763
4649 1027
4649 2380
4649 3815
4650 1204
4650 2479
4650 3599
4651 1216
4651 2440
4651 3589
4652 1081
4652 2366
4652 3777
4653 1191
4653 2315
4653 3745
4654 1220
4654 2439
4654 3603
4655 1261
4655 2422
4655 3760
4656 1262
4656 2472
4656 3709
4657 1248
4657 2329
4657 3652
4658 1189
4658 2333
4658 3786
4659 1217
4659 2475
4659 3783
4660 1231
4660 2470
4660 3612
4661 1173
4661 2478
4661 3621
4662 1252
4662 2465
4662 3835
4663 1117
4663 2467
4663 3729
4664 1225
4664 2312
4664 3804
4665 1032
4665 2550
4665 3624
4666 1259
4666 2537
4666 3671
4667 1198
4667 2474
4667 3616
4668 1208
4668 2412
4668 3689
4669 1052
4669 2414
4669 3645
4670 1247
4670 2332
4670 3636
4671 1150
4671 2547
4671 3754
4672 1102
4672 2437
4672 3664
4673 1135
4673 2453
4673 3590
4674 1075
4674 2407
4674 3764
4675 1056
4675 2405
4675 3767
4676 1188
4676 2388
4676 3797
4677 1257
4677 2505
4677 3716
4678 1266
4678 2370
4678 3752
4679 1137
4679 2413
4679 3822
4680 1251
4680 2421
4680 3758
4681 1245
4681 2385
4681 3738
4682 1226
4682 2347
4682 3691
4683 1145
4683 2383
4683 3651
4684 1268
4684 2515
4684 3789
4685 1227
4685 2486
4685 3728
4686 1199
4686 2454
4686 3634
4687 1186
4687 2304
4687 3798
4688 1050
4688 2535
4688 3810
4689 1049
4689 2351
4689 3766
4690 1109
4690 2389
4690 3675
4691 1073
4691 2493
4691 3805
4692 1206
4692 2395
4692 3701
4693 1088
4693 2546
4693 3711
4694 1071
4694 2491
4694 3641
4695 1115
4695 2520
4695 3781
4696 1118
4696 2506
4696 3640
4697 1094
4697 2314
4697 3630
4698 1053
4698 2355
4698 3825
4699 1098
4699 2356
4699 3586
4700 1269
4700 2379
4700 3837
4701 1196
4701 2461
4701 3680
4702 1143
4702 2384
4702 3660
4703 1087
4703 2342
4703 3770
4704 1100
4704 2501
4704 3768
4705 1224
4705 2387
4705 3602
4706 1229
4706 2403
4706 3828
4707 1201
4707 2516
4707 3794
4708 1166
4708 2434
4708 3727
4709 1240
4709 2508
4709 3801
4710 1144
4710 2360
4710 3644
4711 1250
4711 2517
4711 3812
4712 1048
4712 2331
4712 3594
4713 1159
4713 2509
4713 3772
4714 1033
4714 2536
4714 3693
4715 1147
4715 2343
4715 3838
4716 1069
4716 2545
4716 3737
4717 1024
4717 2485
4717 3674
4718 1139
4718 2480
4718 3585
4719 1152
4719 2308
4719 3724
4720 1185
4720 2518
4720 3673
4721 1241
4721 2449
4721 3682
4722 1260
4722 2361
4722 3587
4723 1161
4723 2396
4723 3591
4724 1132
4724 2459
4724 3703
4725 1040
4725 2409
4725 3685
4726 1168
4726 2552
4726 3818
4727 1123
4727 2544
4727 3732
4728 1249
4728 2527
4728 3736
4729 1113
4729 2400
4729 3625
4730 1223
4730 2549
4730 3731
4731 1136
4731 2433
4731 3654
4732 1092
4732 2318
4732 3669
4733 1187
4733 2336
4733 3667
4734 1029
4734 2448
4734 3604
4735 1039
4735 2322
4735 3791
4736 1156
4736 2401
4736 3598
4737 1170
4737 2378
4737 3726
4738 1160
4738 2346
4738 3743
4739 1258
4739 2559
4739 3750
4740 1233
4740 2446
4740 3637
4741 1062
4741 2548
4741 3824
4742 1271
4742 2430
4742 3733
4743 1038
4743 2498
4743 3811
4744 1063
4744 2334
4744 3730
4745 1054
4745 2339
4745 3662
4746 1267
4746 2436
4746 3759
4747 1276
4747 2340
4747 3796
4748 1200
4748 2359
4748 3714
4749 1190
4749 2337
4749 3642
4750 1031
4750 2398
4750 3787
4751 1122
4751 2431
4751 3775
4752 1103
4752 2489
4752 3606
4753 1192
4753 2504
4753 3807
4754 1114
4754 2416
4754 3643
4755 1026
4755 2432
4755 3753
4756 1207
4756 2358
4756 3808
4757 1157
4757 2460
4757 3686
4758 1255
4758 2391
4758 3739
4759 1172
4759 2556
4759 3610
4760 1163
4760 2376
4760 3661
4761 1044
4761 2309
4761 3720
4762 1096
4762 2447
4762 3611
4763 1110
4763 2390
4763 3627
4764 1034
4764 2404
4764 3710
4765 1205
4765 2372
4765 3829
4766 1256
4766 2469
4766 3780
4767 1218
4767 2484
4767 3633
4768 1193
4768 2375
4768 3813
4769 1043
4769 2512
4769 3697
4770 1067
4770 2420
4770 3628
4771 1211
4771 2402
4771 3584
4772 1101
4772 2542
4772 3742
4773 1174
4773 2531
4773 3762
4774 1254
4774 2502
4774 3746
4775 1253
4775 2410
4775 3831
4776 1244
4776 2373
4776 3806
4777 1265
4777 2457
4777 3832
4778 1234
4778 2494
4778 3723
4779 1246
4779 2499
4779 3650
4780 1273
4780 2306
4780 3635
4781 1230
4781 2357
4781 3833
4782 1072
4782 2444
4782 3588
4783 1046
4783 2435
4783 3817
4784 1099
4784 2463
4784 3666
4785 1272
4785 2367
4785 3659
4786 1270
4786 2443
4786 3699
4787 1025
4787 2539
4787 3809
4788 1179
4788 2381
4788 3718
4789 1129
4789 2393
4789 3784
4790 1214
4790 2538
4790 3717
4791 1057
4791 2525
4791 3663
4792 1242
4792 2316
4792 3595
4793 1064
4793 2557
4793 3795
4794 1128
4794 2317
4794 3721
4795 1138
4795 2313
4795 3629
4796 1037
4796 2553
4796 3687
4797 1275
4797 2523
4797 3607
4798 1090
4798 2350
4798 3830
4799 1238
4799 2455
4799 3747
4800 1169
4800 2307
4800 3722
4801 1074
4801 2394
4801 3601
4802 1104
4802 2510
4802 3744
4803 1047
4803 2310
4803 3657
4804 1126
4804 2335
4804 3653
4805 1202
4805 2528
4805 3821
4806 1134
4806 2323
4806 3684
4807 1086
4807 2554
4807 3702
4808 1061
4808 2341
4808 3792
4809 1274
4809 2519
4809 3695
4810 1070
4810 2466
4810 3647
4811 1083
4811 2500
4811 3836
4812 1146
4812 2468
4812 3688
4813 1041
4813 2450
4813 3698
4814 1131
4814 2442
4814 3776
4815 1243
4815 2524
4815 3608
4816 1180
4816 2344
4816 3800
4817 1097
4817 2415
4817 3655
4818 1237
4818 2305
4818 3605
4819 1158
4819 2364
4819 3708
4820 1080
4820 2458
4820 3619
4821 1066
4821 2451
4821 3749
4822 1165
4822 2325
4822 3694
4823 1133
4823 2452
4823 3692
4824 1111
4824 2319
4824 3600
4825 1095
4825 2354
4825 3672
4826 1203
4826 2397
4826 3814
4827 1093
4827 2555
4827 3799
4828 1116
4828 2399
4828 3735
4829 1219
4829 2464
4829 3751
4830 1082
4830 2558
4830 3597
4831 1236
4831 2526
4831 3734
4832 1167
4832 2495
4832 3782
4833 1154
4833 2428
4833 3696
4834 1176
4834 2445
4834 3614
4835 1120
4835 2424
4835 3756
4836 1164
4836 2477
4836 3755
4837 1125
4837 2534
4837 3706
4838 1194
4838 2326
4838 3705
4839 1162
4839 2514
4839 3712
4840 1060
4840 2490
4840 3820
4841 1058
4841 2365
4841 3725
4842 1065
4842 2352
4842 3678
4843 1183
4843 2492
4843 3639
4844 1028
4844 2371
4844 3665
4845 1239
4845 2320
4845 3816
4846 1195
4846 2496
4846 3676
4847 1059
4847 2419
4847 3677
4848 1264
4848 2530
4848 3715
4849 1215
4849 2425
4849 3632
4850 1221
4850 2377
4850 3681
4851 1209
4851 2349
4851 3757
4852 1051
4852 2427
4852 3774
4853 1121
4853 2513
4853 3631
4854 1148
4854 2481
4854 3649
4855 1151
4855 2386
4855 3683
4856 1141
4856 2462
4856 3713
4857 1210
4857 2521
4857 3823
4858 1107
4858 2408
4858 3834
4859 1119
4859 2418
4859 3656
4860 1045
4860 2328
4860 3827
4861 1182
4861 2540
4861 3771
4862 1278
4862 2392
4862 3761
4863 1213
4863 2321
4863 3765
4864 1282
4864 2742
4864 3847
4865 1502
4865 2663
4865 4048
4866 1381
4866 2769
4866 3860
4867 1528
4867 2775
4867 4082
4868 1522
4868 2718
4868 4074
4869 1361
4869 2613
4869 4003
4870 1469
4870 2759
4870 3905
4871 1290
4871 2714
4871 3863
4872 1503
4872 2778
4872 3982
4873 1453
4873 2589
4873 3960
4874 1505
4874 2565
4874 4092
4875 1529
4875 2579
4875 4044
4876 1414
4876 2743
4876 3857
4877 1324
4877 2597
4877 3967
4878 1490
4878 2561
4878 3968
4879 1338
4879 2566
4879 4093
4880 1512
4880 2695
4880 3923
4881 1352
4881 2782
4881 3882
4882 1429
4882 2605
4882 3997
4883 1423
4883 2621
4883 3851
4884 1401
4884 2610
4884 3932
4885 1371
4885 2666
4885 4020
4886 1350
4886 2612
4886 3984
4887 1344
4887 2634
4887 3950
4888 1520
4888 2751
4888 3975
4889 1388
4889 2594
4889 3907
4890 1295
4890 2764
4890 3990
4891 1460
4891 2727
4891 3904
4892 1463
4892 2642
4892 4054
4893 1524
4893 2633
4893 4026
4894 1534
4894 2767
4894 3963
4895 1477
4895 2716
4895 4055
4896 1474
4896 2729
4896 3943
4897 1497
4897 2682
4897 3900
4898 1514
4898 2703
4898 3848
4899 1396
4899 2804
4899 4002
4900 1500
4900 2800
4900 3861
4901 1389
4901 2599
4901 4008
4902 1385
4902 2731
4902 3961
4903 1315
4903 2732
4903 4083
4904 1426
4904 2768
4904 3978
4905 1485
4905 2580
4905 3916
4906 1359
4906 2749
4906 4021
4907 1314
4907 2625
4907 3921
4908 1356
4908 2618
4908 3951
4909 1357
4909 2740
4909 4010
4910 1391
4910 2668
4910 4060
4911 1406
4911 2788
4911 4063
4912 1449
4912 2586
4912 3918
4913 1345
4913 2569
4913 3880
4914 1470
4914 2770
4914 3976
4915 1478
4915 2658
4915 4039
4916 1310
4916 2758
4916 3850
4917 1360
4917 2706
4917 3846
4918 1331
4918 2615
4918 3944
4919 1376
4919 2776
4919 4061
4920 1292
4920 2637
4920 3930
4921 1437
4921 2681
4921 3877
4922 1483
4922 2784
4922 3956
4923 1510
4923 2585
4923 3937
4924 1409
4924 2603
4924 4013
4925 1289
4925 2766
4925 4073
4926 1365
4926 2630
4926 4019
4927 1464
4927 2628
4927 4018
4928 1513
4928 2647
4928 3843
4929 1348
4929 2807
4929 4081
4930 1432
4930 2617
4930 4089
4931 1325
4931 2627
4931 4017
4932 1488
4932 2592
4932 4025
4933 1285
4933 2587
4933 4001
4934 1291
4934 2772
4934 4064
4935 1366
4935 2814
4935 3869
4936 1442
4936 2646
4936 3988
4937 1354
4937 2797
4937 3889
4938 1347
4938 2620
4938 3973
4939 1444
4939 2607
4939 3841
4940 1378
4940 2741
4940 3935
4941 1476
4941 2656
4941 4052
4942 1480
4942 2762
4942 4011
4943 1303
4943 2626
4943 4038
4944 1508
4944 2694
4944 4040
4945 1328
4945 2791
4945 3903
4946 1320
4946 2779
4946 4043
4947 1498
4947 2606
4947 3885
4948 1327
4948 2789
4948 3958
4949 1467
4949 2754
4949 4072
4950 1407
4950 2675
4950 3871
4951 1333
4951 2704
4951 3971
4952 1364
4952 2705
4952 4006
4953 1300
4953 2812
4953 3917
4954 1346
4954 2691
4954 4029
4955 1370
4955 2720
4955 3977
4956 1363
4956 2644
4956 3914
4957 1322
4957 2756
4957 4009
4958 1332
4958 2639
4958 3919
4959 1495
4959 2673
4959 3954
4960 1438
4960 2750
4960 3854
4961 1316
4961 2560
4961 3933
4962 1343
4962 2635
4962 3853
4963 1517
4963 2711
4963 3899
4964 1496
4964 2799
4964 3955
4965 1482
4965 2796
4965 3876
4966 1293
4966 2608
4966 4050
4967 1379
4967 2760
4967 3940
4968 1436
4968 2726
4968 3888
4969 1446
4969 2659
4969 3898
4970 1408
4970 2683
4970 3936
4971 1412
4971 2678
4971 4090
4972 1448
4972 2598
4972 3897
4973 1452
4973 2752
4973 4069
4974 1439
4974 2662
4974 4094
4975 1375
4975 2810
4975 4047
4976 1280
4976 2564
4976 3972
4977 1368
4977 2661
4977 4033
4978 1390
4978 2577
4978 3881
4979 1288
4979 2622
4979 4095
4980 1434
4980 2790
4980 4042
4981 1424
4981 2686
4981 3893
4982 1451
4982 2724
4982 4059
4983 1489
4983 2813
4983 4015
4984 1400
4984 2721
4984 3991
4985 1301
4985 2667
4985 3894
4986 1411
4986 2745
4986 3985
4987 1410
4987 2715
4987 3980
4988 1372
4988 2736
4988 3864
4989 1428
4989 2676
4989 3890
4990 1418
4990 2570
4990 4085
4991 1504
4991 2777
4991 3959
4992 1493
4992 2654
4992 3969
4993 1386
4993 2793
4993 4084
4994 1519
4994 2795
4994 4016
4995 1472
4995 2690
4995 3856
4996 1419
4996 2651
4996 3934
4997 1403
4997 2734
4997 3859
4998 1336
4998 2688
4998 3922
4999 1518
4999 2725
4999 3926
5000 1459
5000 2801
5000 4077
5001 1461
5001 2638
5001 3910
5002 1321
5002 2657
5002 3855
5003 1397
5003 2786
5003 3878
5004 1421
5004 2757
5004 3858
5005 1443
5005 2702
5005 3924
5006 1334
5006 2713
5006 3874
5007 1481
5007 2584
5007 3942
5008 1427
5008 2744
5008 4045
5009 1326
5009 2623
5009 3999
5010 1521
5010 2783
5010 3908
5011 1422
5011 2619
5011 3891
5012 1298
5012 2699
5012 4057
5013 1425
5013 2563
5013 4046
5014 1447
5014 2674
5014 4027
5015 1462
5015 2808
5015 4080
5016 1516
5016 2710
5016 3993
5017 1317
5017 2735
5017 4058
5018 1387
5018 2582
5018 3939
5019 1515
5019 2583
5019 3915
5020 1445
5020 2578
5020 3970
5021 1286
5021 2774
5021 4028
5022 1329
5022 2616
5022 4005
5023 1369
5023 2708
5023 3938
5024 1318
5024 2573
5024 4053
5025 1507
5025 2604
5025 3927
5026 1494
5026 2722
5026 4023
5027 1306
5027 2562
5027 4068
5028 1308
5028 2811
5028 3911
5029 1479
5029 2717
5029 3964
5030 1435
5030 2761
5030 3865
5031 1394
5031 2568
5031 3883
5032 1299
5032 2712
5032 3925
5033 1527
5033 2803
5033 3949
5034 1523
5034 2692
5034 3941
5035 1501
5035 2581
5035 3998
5036 1471
5036 2798
5036 4065
5037 1511
5037 2728
5037 4036
5038 1499
5038 2771
5038 4066
5039 1441
5039 2641
5039 3845
5040 1311
5040 2696
5040 3948
5041 1433
5041 2698
5041 3895
5042 1530
5042 2664
5042 4056
5043 1374
5043 2700
5043 4030
5044 1398
5044 2693
5044 3953
5045 1475
5045 2733
5045 4024
5046 1392
5046 2785
5046 4007
5047 1362
5047 2755
5047 4067
5048 1287
5048 2677
5048 3929
5049 1532
5049 2671
5049 3989
5050 1341
5050 2737
5050 3866
5051 1525
5051 2652
5051 4078
5052 1367
5052 2655
5052 4051
5053 1468
5053 2701
5053 3873
5054 1533
5054 2765
5054 3979
5055 1509
5055 2802
5055 3962
5056 1302
5056 2593
5056 4049
5057 1491
5057 2687
5057 3965
5058 1373
5058 2787
5058 3887
5059 1384
5059 2738
5059 4032
5060 1304
5060 2753
5060 3928
5061 1430
5061 2624
5061 3872
5062 1281
5062 2689
5062 3981
5063 1339
5063 2572
5063 3957
5064 1487
5064 2781
5064 3852
5065 1309
5065 2780
5065 4075
5066 1351
5066 2669
5066 3946
5067 1393
5067 2748
5067 3996
5068 1358
5068 2650
5068 3987
5069 1420
5069 2643
5069 3912
5070 1473
5070 2697
5070 3862
5071 1440
5071 2653
5071 3901
5072 1307
5072 2805
5072 3879
5073 1402
5073 2665
5073 4041
5074 1312
5074 2574
5074 3849
5075 1377
5075 2763
5075 4086
5076 1456
5076 2609
5076 4035
5077 1506
5077 2719
5077 3945
5078 1526
5078 2648
5078 3902
5079 1330
5079 2723
5079 3884
5080 1296
5080 2645
5080 4004
5081 1294
5081 2672
5081 4022
5082 1337
5082 2685
5082 3920
5083 1284
5083 2679
5083 3840
5084 1283
5084 2730
5084 4079
5085 1455
5085 2709
5085 3870
5086 1404
5086 2806
5086 3931
5087 1340
5087 2571
5087 3986
5088 1486
5088 2629
5088 3974
5089 1454
5089 2707
5089 4014
5090 1415
5090 2588
5090 3892
5091 1319
5091 2591
5091 4088
5092 1531
5092 2567
5092 3983
5093 1457
5093 2649
5093 4062
5094 1431
5094 2747
5094 3844
5095 1535
5095 2595
5095 3896
5096 1417
5096 2680
5096 3966
5097 1492
5097 2575
5097 3992
5098 1395
5098 2596
5098 4034
5099 1450
5099 2640
5099 3906
5100 1323
5100 2809
5100 4070
5101 1313
5101 2611
5101 3875
5102 1399
5102 2600
5102 4087
5103 1349
5103 2746
5103 3952
5104 1416
5104 2631
5104 4031
5105 1465
5105 2602
5105 3886
5106 1355
5106 2660
5106 3868
5107 1335
5107 2632
5107 3909
5108 1382
5108 2792
5108 3842
5109 1405
5109 2636
5109 4091
5110 1458
5110 2601
5110 3947
5111 1342
5111 2576
5111 3995
5112 1466
5112 2739
5112 4037
5113 1380
5113 2590
5113 4071
5114 1413
5114 2614
5114 3867
5115 1484
5115 2815
5115 4000
5116 1305
5116 2794
5116 4076
5117 1353
5117 2670
5117 4012
5118 1383
5118 2773
5118 3994
5119 1297
5119 2684
5119 3913
5120 1776
5120 2904
5120 4316
5121 1602
5121 3028
5121 4134
5122 1638
5122 2885
5122 4318
5123 1682
5123 2861
5123 4319
5124 1653
5124 2968
5124 4148
5125 1702
5125 3045
5125 4211
5126 1754
5126 3031
5126 4333
5127 1706
5127 2989
5127 4191
5128 1734
5128 2919
5128 4142
5129 1590
5129 3004
5129 4259
5130 1725
5130 2826
5130 4163
5131 1691
5131 3024
5131 4168
5132 1577
5132 2847
5132 4314
5133 1668
5133 3055
5133 4331
5134 1671
5134 2987
5134 4347
5135 1683
5135 2922
5135 4302
5136 1710
5136 3013
5136 4281
5137 1647
5137 2886
5137 4246
5138 1642
5138 2982
5138 4206
5139 1742
5139 2973
5139 4283
5140 1580
5140 2829
5140 4323
5141 1701
5141 2913
5141 4195
5142 1541
5142 3037
5142 4285
5143 1544
5143 2918
5143 4111
5144 1777
5144 2867
5144 4149
5145 1536
5145 3060
5145 4144
5146 1680
5146 2849
5146 4213
5147 1605
5147 2902
5147 4212
5148 1601
5148 2868
5148 4135
5149 1542
5149 2937
5149 4171
5150 1564
5150 2929
5150 4261
5151 1687
5151 3059
5151 4207
5152 1693
5152 2933
5152 4307
5153 1567
5153 3054
5153 4235
5154 1744
5154 2872
5154 4251
5155 1552
5155 3016
5155 4125
5156 1566
5156 2831
5156 4190
5157 1595
5157 2878
5157 4234
5158 1623
5158 2924
5158 4167
5159 1729
5159 2980
5159 4240
5160 1696
5160 2887
5160 4268
5161 1589
5161 3002
5161 4216
5162 1773
5162 2881
5162 4317
5163 1767
5163 2819
5163 4140
5164 1703
5164 3027
5164 4329
5165 1717
5165 2944
5165 4103
5166 1586
5166 3006
5166 4349
5167 1722
5167 2857
5167 4169
5168 1635
5168 3061
5168 4194
5169 1624
5169 2962
5169 4223
5170 1778
5170 2900
5170 4257
5171 1738
5171 2850
5171 4229
5172 1598
5172 2853
5172 4189
5173 1755
5173 3043
5173 4276
5174 1600
5174 2846
5174 4205
5175 1563
5175 2964
5175 4343
5176 1637
5176 3020
5176 4288
5177 1627
5177 2931
5177 4280
5178 1714
5178 2938
5178 4277
5179 1571
5179 2865
5179 4296
5180 1675
5180 3038
5180 4113
5181 1790
5181 2977
5181 4108
5182 1678
5182 2961
5182 4143
5183 1663
5183 2971
5183 4262
5184 1559
5184 3007
5184 4106
5185 1747
5185 2864
5185 4150
5186 1560
5186 2915
5186 4321
5187 1545
5187 2934
5187 4165
5188 1649
5188 3035
5188 4131
5189 1760
5189 2950
5189 4293
5190 1570
5190 2905
5190 4100
5191 1739
5191 2952
5191 4115
5192 1561
5192 3033
5192 4130
5193 1745
5193 3070
5193 4176
5194 1551
5194 3005
5194 4221
5195 1614
5195 2993
5195 4220
5196 1553
5196 3039
5196 4273
5197 1569
5197 3062
5197 4255
5198 1672
5198 2871
5198 4269
5199 1766
5199 3056
5199 4126
5200 1784
5200 3032
5200 4274
5201 1689
5201 2960
5201 4242
5202 1643
5202 2972
5202 4252
5203 1587
5203 2974
5203 4315
5204 1645
5204 2834
5204 4218
5205 1622
5205 2979
5205 4341
5206 1632
5206 2914
5206 4188
5207 1611
5207 2990
5207 4284
5208 1555
5208 3010
5208 4215
5209 1728
5209 2898
5209 4145
5210 1584
5210 2985
5210 4320
5211 1785
5211 2997
5211 4222
5212 1692
5212 2859
5212 4182
5213 1774
5213 3022
5213 4224
5214 1761
5214 2827
5214 4175
5215 1670
5215 2820
5215 4159
5216 1740
5216 3036
5216 4107
5217 1640
5217 2841
5217 4275
5218 1612
5218 2875
5218 4271
5219 1592
5219 2996
5219 4158
5220 1756
5220 2955
5220 4179
5221 1603
5221 2945
5221 4120
5222 1724
5222 3064
5222 4264
5223 1788
5223 2899
5223 4290
5224 1697
5224 2884
5224 4297
5225 1593
5225 3009
5225 4303
5226 1750
5226 3058
5226 4313
5227 1713
5227 2940
5227 4133
5228 1615
5228 3051
5228 4186
5229 1690
5229 2948
5229 4299
5230 1715
5230 2909
5230 4096
5231 1660
5231 2951
5231 4327
5232 1573
5232 2969
5232 4249
5233 1685
5233 2947
5233 4178
5234 1655
5234 2921
5234 4146
5235 1549
5235 3068
5235 4233
5236 1726
5236 2851
5236 4266
5237 1786
5237 2844
5237 4193
5238 1650
5238 3057
5238 4201
5239 1695
5239 2874
5239 4337
5240 1772
5240 3052
5240 4116
5241 1771
5241 3046
5241 4334
5242 1609
5242 2882
5242 4328
5243 1730
5243 2823
5243 4203
5244 1764
5244 2992
5244 4208
5245 1698
5245 2848
5245 4170
5246 1758
5246 2839
5246 4279
5247 1596
5247 2910
5247 4254
5248 1583
5248 3025
5248 4101
5249 1558
5249 2954
5249 4119
5250 1625
5250 2879
5250 4217
5251 1613
5251 2856
5251 4291
5252 1651
5252 2975
5252 4098
5253 1597
5253 2895
5253 4196
5254 1540
5254 3041
5254 4129
5255 1720
5255 2883
5255 4123
5256 1731
5256 2942
5256 4292
5257 1711
5257 2891
5257 4156
5258 1634
5258 2852
5258 4099
5259 1648
5259 2876
5259 4219
5260 1669
5260 2946
5260 4166
5261 1636
5261 2959
5261 4248
5262 1708
5262 2821
5262 4247
5263 1543
5263 3069
5263 4137
5264 1770
5264 3019
5264 4351
5265 1791
5265 3034
5265 4122
5266 1652
5266 3018
5266 4304
5267 1618
5267 2991
5267 4197
5268 1630
5268 3049
5268 4236
5269 1684
5269 2889
5269 4300
5270 1565
5270 2890
5270 4180
5271 1759
5271 2932
5271 4336
5272 1629
5272 2936
5272 4147
5273 1617
5273 2963
5273 4228
5274 1737
5274 3029
5274 4210
5275 1743
5275 2858
5275 4282
5276 1646
5276 2817
5276 4102
5277 1550
5277 2863
5277 4256
5278 1769
5278 3011
5278 4322
5279 1608
5279 2941
5279 4202
5280 1554
5280 2835
5280 4338
5281 1705
5281 2880
5281 4187
5282 1538
5282 2926
5282 4177
5283 1741
5283 3040
5283 4204
5284 1688
5284 2943
5284 4153
5285 1594
5285 2917
5285 4239
5286 1779
5286 3063
5286 4174
5287 1665
5287 2854
5287 4312
5288 1585
5288 2923
5288 4306
5289 1775
5289 2925
5289 4110
5290 1676
5290 2958
5290 4346
5291 1674
5291 3015
5291 4214
5292 1659
5292 2860
5292 4132
5293 1599
5293 3000
5293 4114
5294 1681
5294 2986
5294 4325
5295 1709
5295 2927
5295 4155
5296 1654
5296 2855
5296 4295
5297 1765
5297 2818
5297 4260
5298 1644
5298 2837
5298 4237
5299 1748
5299 2956
5299 4245
5300 1546
5300 2869
5300 4181
5301 1768
5301 2928
5301 4287
5302 1591
5302 3014
5302 4332
5303 1607
5303 3008
5303 4124
5304 1735
5304 3026
5304 4344
5305 1639
5305 2873
5305 4243
5306 1787
5306 2908
5306 4198
5307 1547
5307 2995
5307 4136
5308 1733
5308 2967
5308 4231
5309 1574
5309 3066
5309 4265
5310 1610
5310 2981
5310 4286
5311 1752
5311 2970
5311 4225
5312 1749
5312 2842
5312 4230
5313 1789
5313 2825
5313 4350
5314 1782
5314 2840
5314 4105
5315 1661
5315 2832
5315 4118
5316 1723
5316 3017
5316 4241
5317 1732
5317 2999
5317 4097
5318 1712
5318 2906
5318 4160
5319 1658
5319 2966
5319 4161
5320 1539
5320 2953
5320 4141
5321 1721
5321 3003
5321 4121
5322 1641
5322 2912
5322 4335
5323 1718
5323 2830
5323 4226
5324 1562
5324 3030
5324 4339
5325 1662
5325 2939
5325 4250
5326 1588
5326 3065
5326 4270
5327 1783
5327 2920
5327 4128
5328 1716
5328 2988
5328 4185
5329 1763
5329 2983
5329 4232
5330 1679
5330 3021
5330 4192
5331 1757
5331 2978
5331 4199
5332 1762
5332 2870
5332 4127
5333 1746
5333 3047
5333 4294
5334 1753
5334 3044
5334 4152
5335 1677
5335 2892
5335 4162
5336 1781
5336 3050
5336 4272
5337 1537
5337 2903
5337 4244
5338 1736
5338 3042
5338 4227
5339 1620
5339 2894
5339 4154
5340 1633
5340 2897
5340 4157
5341 1664
5341 2930
5341 4289
5342 1572
5342 2935
5342 4183
5343 1727
5343 2911
5343 4311
5344 1707
5344 2877
5344 4109
5345 1619
5345 2949
5345 4308
5346 1780
5346 2866
5346 4345
5347 1626
5347 2984
5347 4200
5348 1686
5348 2845
5348 4238
5349 1751
5349 3053
5349 4112
5350 1575
5350 2907
5350 4267
5351 1694
5351 3048
5351 4104
5352 1581
5352 2828
5352 4324
5353 1700
5353 2862
5353 4278
5354 1579
5354 3023
5354 4258
5355 1568
5355 2843
5355 4164
5356 1667
5356 2816
5356 4309
5357 1699
5357 3001
5357 4305
5358 1604
5358 2998
5358 4253
5359 1673
5359 2888
5359 4138
5360 1576
5360 2838
5360 4172
5361 1621
5361 2976
5361 4184
5362 1606
5362 2901
5362 4117
5363 1548
5363 2994
5363 4340
5364 1657
5364 2822
5364 4326
5365 1719
5365 3012
5365 4301
5366 1557
5366 2824
5366 4298
5367 1582
5367 3067
5367 4330
5368 1704
5368 2836
5368 4263
5369 1656
5369 2965
5369 4173
5370 1631
5370 2957
5370 4342
5371 1556
5371 2893
5371 4209
5372 1578
5372 3071
5372 4151
5373 1616
5373 2916
5373 4310
5374 1628
5374 2896
5374 4139
5375 1666
5375 2833
5375 4348
5376 165
5376 2855
5376 3889
5377 220
5377 2860
5377 3971
5378 57
5378 2983
5378 3950
5379 83
5379 2945
5379 3983
5380 123
5380 2987
5380 3920
5381 3
5381 2862
5381 4068
5382 81
5382 2966
5382 3870
5383 180
5383 2825
5383 4034
5384 204
5384 3015
5384 3943
5385 39
5385 2895
5385 4070
5386 5
5386 2923
5386 4090
5387 125
5387 2916
5387 3989
5388 63
5388 2859
5388 3962
5389 246
5389 2852
5389 4061
5390 64
5390 2960
5390 3991
5391 49
5391 2830
5391 3949
5392 116
5392 2954
5392 3954
5393 42
5393 3002
5393 3992
5394 174
5394 2887
5394 4002
5395 100
5395 3028
5395 3998
5396 245
5396 2854
5396 4081
5397 136
5397 2964
5397 3936
5398 54
5398 2844
5398 3987
5399 134
5399 2992
5399 3975
5400 88
5400 2972
5400 3981
5401 9
5401 3056
5401 4053
5402 71
5402 2909
5402 4008
5403 58
5403 3042
5403 3994
5404 225
5404 2819
5404 3945
5405 219
5405 2936
5405 3888
5406 127
5406 2982
5406 3880
5407 142
5407 2869
5407 4051
5408 129
5408 2950
5408 3961
5409 26
5409 2853
5409 4010
5410 247
5410 2849
5410 4028
5411 128
5411 2921
5411 3905
5412 59
5412 2974
5412 3988
5413 217
5413 3003
5413 4060
5414 111
5414 2891
5414 4029
5415 119
5415 2875
5415 3887
5416 146
5416 2837
5416 3852
5417 216
5417 3038
5417 4049
5418 218
5418 2949
5418 3970
5419 197
5419 2934
5419 4039
5420 99
5420 2858
5420 3910
5421 167
5421 2889
5421 3919
5422 224
5422 3027
5422 3926
5423 23
5423 2865
5423 3866
5424 226
5424 2903
5424 4062
5425 235
5425 3024
5425 3856
5426 210
5426 2957
5426 4015
5427 153
5427 3004
5427 3850
5428 37
5428 3010
5428 3965
5429 82
5429 2919
5429 3967
5430 229
5430 2989
5430 3923
5431 113
5431 2818
5431 4020
5432 0
5432 3030
5432 3927
5433 76
5433 2942
5433 3947
5434 25
5434 2824
5434 3986
5435 91
5435 2841
5435 3863
5436 85
5436 2930
5436 3951
5437 168
5437 2995
5437 4084
5438 114
5438 2868
5438 3934
5439 80
5439 2826
5439 3913
5440 149
5440 2961
5440 3840
5441 104
5441 2883
5441 4078
5442 233
5442 2851
5442 3958
5443 95
5443 2939
5443 3884
5444 50
5444 2908
5444 4085
5445 248
5445 2823
5445 3899
5446 190
5446 2893
5446 3849
5447 236
5447 3068
5447 3878
5448 160
5448 2879
5448 3909
5449 34
5449 2828
5449 4086
5450 41
5450 2839
5450 3959
5451 253
5451 2880
5451 3876
5452 110
5452 2926
5452 3855
5453 92
5453 3007
5453 4069
5454 211
5454 2904
5454 3872
5455 1
5455 2914
5455 4052
5456 163
5456 2907
5456 3948
5457 101
5457 3058
5457 4014
5458 8
5458 3001
5458 3886
5459 234
5459 2980
5459 4063
5460 75
5460 2929
5460 3968
5461 79
5461 2847
5461 3869
5462 36
5462 2941
5462 3875
5463 73
5463 3066
5463 3932
5464 250
5464 2832
5464 3897
5465 117
5465 2976
5465 4017
5466 2
5466 2975
5466 3940
5467 184
5467 2882
5467 4041
5468 4
5468 3062
5468 3854
5469 241
5469 3048
5469 4018
5470 228
5470 2892
5470 4080
5471 139
5471 2967
5471 4035
5472 30
5472 3057
5472 4005
5473 31
5473 2896
5473 3942
5474 171
5474 2905
5474 4077
5475 170
5475 2951
5475 3922
5476 109
5476 2973
5476 3861
5477 45
5477 2884
5477 3978
5478 150
5478 2956
5478 4044
5479 97
5479 2850
5479 3881
5480 121
5480 2925
5480 4067
5481 115
5481 3046
5481 3953
5482 158
5482 2890
5482 4093
5483 143
5483 2946
5483 3858
5484 183
5484 3037
5484 3928
5485 140
5485 3018
5485 3874
5486 133
5486 3033
5486 3966
5487 44
5487 2915
5487 3867
5488 67
5488 2977
5488 3891
5489 231
5489 2986
5489 3995
5490 199
5490 2881
5490 3918
5491 53
5491 2866
5491 4037
5492 237
5492 3051
5492 4047
5493 74
5493 3006
5493 3921
5494 148
5494 2999
5494 4022
5495 38
5495 2931
5495 3844
5496 251
5496 2998
5496 3980
5497 242
5497 3029
5497 4043
5498 52
5498 2969
5498 3865
5499 185
5499 2953
5499 4065
5500 87
5500 3043
5500 3973
5501 132
5501 2996
5501 4011
5502 29
5502 3069
5502 4074
5503 90
5503 2910
5503 3885
5504 159
5504 2988
5504 4073
5505 144
5505 3041
5505 3979
5506 16
5506 2827
5506 3912
5507 188
5507 2831
5507 3976
5508 187
5508 2971
5508 4027
5509 122
5509 2924
5509 3842
5510 106
5510 2864
5510 3904
5511 166
5511 2997
5511 3845
5512 138
5512 3014
5512 3877
5513 131
5513 2876
5513 4092
5514 24
5514 2888
5514 4083
5515 27
5515 2940
5515 3860
5516 230
5516 2835
5516 3873
5517 173
5517 2857
5517 4026
5518 208
5518 2848
5518 4000
5519 192
5519 2899
5519 4004
5520 254
5520 2834
5520 3848
5521 232
5521 2948
5521 4057
5522 69
5522 2920
5522 4064
5523 20
5523 2871
5523 3898
5524 137
5524 2943
5524 4079
5525 221
5525 2906
5525 3996
5526 206
5526 3055
5526 4054
5527 223
5527 2911
5527 3896
5528 238
5528 2867
5528 4001
5529 202
5529 2937
5529 4030
5530 249
5530 3067
5530 4024
5531 154
5531 2878
5531 3937
5532 7
5532 3005
5532 3963
5533 205
5533 2979
5533 3914
5534 62
5534 2874
5534 3935
5535 194
5535 2991
5535 4089
5536 32
5536 2965
5536 3900
5537 65
5537 2873
5537 4007
5538 239
5538 2817
5538 3972
5539 98
5539 3016
5539 3916
5540 152
5540 3050
5540 3906
5541 60
5541 2912
5541 3853
5542 61
5542 2952
5542 3997
5543 28
5543 3032
5543 3859
5544 15
5544 3012
5544 4046
5545 51
5545 3049
5545 3946
5546 68
5546 2918
5546 3894
5547 178
5547 3035
5547 4058
5548 89
5548 3071
5548 4012
5549 243
5549 2955
5549 3999
5550 19
5550 3034
5550 3944
5551 48
5551 3039
5551 4042
5552 72
5552 2993
5552 3964
5553 195
5553 2897
5553 4095
5554 13
5554 2885
5554 3982
5555 47
5555 2833
5555 4056
5556 145
5556 3063
5556 4033
5557 66
5557 2958
5557 4016
5558 181
5558 2846
5558 4066
5559 102
5559 3025
5559 3907
5560 22
5560 3020
5560 4023
5561 21
5561 3061
5561 3911
5562 33
5562 2877
5562 3984
5563 130
5563 2829
5563 3841
5564 35
5564 2856
5564 4038
5565 177
5565 3026
5565 4059
5566 43
5566 3064
5566 3985
5567 207
5567 2870
5567 3955
5568 55
5568 2985
5568 3952
5569 103
5569 2816
5569 3901
5570 200
5570 2990
5570 3941
5571 120
5571 2928
5571 4094
5572 213
5572 2840
5572 3933
5573 155
5573 2970
5573 3895
5574 191
5574 2947
5574 3903
5575 112
5575 2932
5575 4091
5576 203
5576 2902
5576 3902
5577 182
5577 3065
5577 3990
5578 201
5578 3017
5578 4003
5579 108
5579 2913
5579 4055
5580 6
5580 2836
5580 3892
5581 172
5581 2842
5581 4082
5582 193
5582 2963
5582 4075
5583 77
5583 2861
5583 4021
5584 189
5584 2901
5584 3977
5585 156
5585 3011
5585 4076
5586 40
5586 2933
5586 3843
5587 86
5587 2981
5587 3882
5588 214
5588 2935
5588 4040
5589 157
5589 2845
5589 3956
5590 175
5590 3023
5590 4006
5591 212
5591 2962
5591 3871
5592 46
5592 2821
5592 3857
5593 196
5593 2968
5593 4032
5594 161
5594 3021
5594 4088
5595 118
5595 2917
5595 3930
5596 169
5596 3022
5596 3862
5597 252
5597 3019
5597 3851
5598 94
5598 3070
5598 4072
5599 105
5599 2822
5599 3883
5600 162
5600 2894
5600 3969
5601 18
5601 3008
5601 3957
5602 126
5602 3031
5602 3993
5603 96
5603 2838
5603 3908
5604 255
5604 3040
5604 4048
5605 147
5605 2927
5605 3938
5606 17
5606 2898
5606 4045
5607 198
5607 2922
5607 4019
5608 70
5608 3053
5608 3846
5609 10
5609 2978
5609 4050
5610 107
5610 2843
5610 3929
5611 215
5611 2863
5611 4031
5612 209
5612 2872
5612 3974
5613 176
5613 2944
5613 3931
5614 227
5614 3060
5614 4071
5615 14
5615 2994
5615 3917
5616 151
5616 2984
5616 3924
5617 186
5617 3054
5617 3868
5618 78
5618 2820
5618 3879
5619 93
5619 2900
5619 3960
5620 179
5620 2886
5620 3864
5621 164
5621 3000
5621 4013
5622 222
5622 3045
5622 4025
5623 135
5623 3059
5623 3925
5624 11
5624 3036
5624 3847
5625 56
5625 3013
5625 4087
5626 12
5626 3009
5626 3915
5627 244
5627 3052
5627 3890
5628 240
5628 3047
5628 4009
5629 141
5629 2938
5629 4036
5630 124
5630 3044
5630 3939
5631 84
5631 2959
5631 3893
5632 451
5632 3314
5632 4165
5633 287
5633 3164
5633 4136
5634 418
5634 3201
5634 4101
5635 460
5635 3250
5635 4152
5636 367
5636 3273
5636 4252
5637 503
5637 3169
5637 4201
5638 511
5638 3288
5638 4333
5639 434
5639 3262
5639 4261
5640 378
5640 3200
5640 4304
5641 401
5641 3113
5641 4198
5642 352
5642 3175
5642 4314
5643 363
5643 3280
5643 4145
5644 426
5644 3245
5644 4299
5645 297
5645 3121
5645 4337
5646 480
5646 3178
5646 4259
5647 315
5647 3075
5647 4219
5648 473
5648 3132
5648 4100
5649 403
5649 3254
5649 4309
5650 280
5650 3105
5650 4172
5651 288
5651 3187
5651 4290
5652 279
5652 3257
5652 4131
5653 296
5653 3143
5653 4264
5654 305
5654 3223
5654 4243
5655 371
5655 3077
5655 4339
5656 272
5656 3285
5656 4350
5657 370
5657 3142
5657 4096
5658 257
5658 3203
5658 4193
5659 394
5659 3263
5659 4307
5660 407
5660 3128
5660 4103
5661 474
5661 3149
5661 4281
5662 289
5662 3242
5662 4159
5663 354
5663 3284
5663 4129
5664 314
5664 3295
5664 4168
5665 484
5665 3120
5665 4119
5666 450
5666 3300
5666 4121
5667 505
5667 3325
5667 4322
5668 396
5668 3154
5668 4266
5669 282
5669 3165
5669 4106
5670 342
5670 3210
5670 4116
5671 440
5671 3255
5671 4218
5672 318
5672 3185
5672 4242
5673 276
5673 3107
5673 4220
5674 417
5674 3307
5674 4177
5675 374
5675 3193
5675 4132
5676 448
5676 3122
5676 4338
5677 277
5677 3116
5677 4277
5678 470
5678 3191
5678 4272
5679 333
5679 3115
5679 4127
5680 404
5680 3139
5680 4158
5681 376
5681 3076
5681 4143
5682 409
5682 3088
5682 4227
5683 446
5683 3274
5683 4139
5684 258
5684 3297
5684 4194
5685 402
5685 3265
5685 4144
5686 436
5686 3151
5686 4323
5687 483
5687 3318
5687 4178
5688 316
5688 3110
5688 4215
5689 406
5689 3327
5689 4319
5690 429
5690 3275
5690 4180
5691 369
5691 3234
5691 4271
5692 481
5692 3135
5692 4332
5693 356
5693 3141
5693 4284
5694 497
5694 3182
5694 4345
5695 334
5695 3228
5695 4248
5696 425
5696 3152
5696 4316
5697 328
5697 3220
5697 4135
5698 510
5698 3286
5698 4247
5699 303
5699 3237
5699 4253
5700 359
5700 3219
5700 4197
5701 350
5701 3082
5701 4224
5702 441
5702 3100
5702 4283
5703 337
5703 3140
5703 4181
5704 477
5704 3230
5704 4305
5705 326
5705 3303
5705 4341
5706 260
5706 3101
5706 4234
5707 340
5707 3215
5707 4130
5708 348
5708 3133
5708 4155
5709 447
5709 3130
5709 4211
5710 476
5710 3270
5710 4107
5711 508
5711 3209
5711 4229
5712 432
5712 3146
5712 4311
5713 500
5713 3214
5713 4273
5714 459
5714 3231
5714 4182
5715 501
5715 3108
5715 4342
5716 400
5716 3085
5716 4195
5717 496
5717 3192
5717 4233
5718 458
5718 3074
5718 4171
5719 259
5719 3319
5719 4134
5720 310
5720 3322
5720 4118
5721 389
5721 3240
5721 4239
5722 506
5722 3294
5722 4216
5723 275
5723 3266
5723 4260
5724 385
5724 3172
5724 4128
5725 362
5725 3093
5725 4114
5726 478
5726 3150
5726 4156
5727 398
5727 3292
5727 4203
5728 361
5728 3180
5728 4120
5729 490
5729 3098
5729 4326
5730 493
5730 3225
5730 4137
5731 349
5731 3239
5731 4351
5732 438
5732 3216
5732 4184
5733 461
5733 3296
5733 4270
5734 399
5734 3309
5734 4199
5735 270
5735 3293
5735 4108
5736 504
5736 3218
5736 4329
5737 464
5737 3125
5737 4310
5738 445
5738 3213
5738 4282
5739 431
5739 3236
5739 4244
5740 384
5740 3124
5740 4187
5741 439
5741 3155
5741 4343
5742 271
5742 3323
5742 4336
5743 387
5743 3195
5743 4173
5744 449
5744 3278
5744 4268
5745 365
5745 3087
5745 4179
5746 388
5746 3247
5746 4263
5747 366
5747 3131
5747 4123
5748 292
5748 3301
5748 4302
5749 262
5749 3162
5749 4285
5750 355
5750 3171
5750 4102
5751 456
5751 3199
5751 4238
5752 312
5752 3313
5752 4256
5753 433
5753 3086
5753 4262
5754 499
5754 3259
5754 4202
5755 393
5755 3174
5755 4330
5756 256
5756 3264
5756 4225
5757 410
5757 3302
5757 4222
5758 472
5758 3081
5758 4117
5759 346
5759 3106
5759 4301
5760 397
5760 3246
5760 4163
5761 290
5761 3161
5761 4204
5762 307
5762 3179
5762 4306
5763 341
5763 3320
5763 4174
5764 455
5764 3253
5764 4296
5765 330
5765 3298
5765 4349
5766 412
5766 3202
5766 4288
5767 311
5767 3157
5767 4292
5768 300
5768 3211
5768 4334
5769 308
5769 3078
5769 4278
5770 390
5770 3181
5770 4325
5771 285
5771 3268
5771 4236
5772 444
5772 3291
5772 4327
5773 317
5773 3094
5773 4320
5774 465
5774 3136
5774 4213
5775 492
5775 3269
5775 4150
5776 294
5776 3316
5776 4200
5777 344
5777 3112
5777 4190
5778 351
5778 3308
5778 4235
5779 486
5779 3229
5779 4250
5780 293
5780 3095
5780 4232
5781 422
5781 3126
5781 4228
5782 268
5782 3114
5782 4315
5783 462
5783 3148
5783 4255
5784 495
5784 3282
5784 4313
5785 383
5785 3311
5785 4176
5786 488
5786 3156
5786 4212
5787 435
5787 3166
5787 4205
5788 498
5788 3073
5788 4279
5789 395
5789 3326
5789 4230
5790 329
5790 3099
5790 4312
5791 380
5791 3243
5791 4214
5792 482
5792 3117
5792 4321
5793 421
5793 3123
5793 4295
5794 437
5794 3258
5794 4276
5795 273
5795 3196
5795 4154
5796 442
5796 3321
5796 4099
5797 502
5797 3083
5797 4098
5798 327
5798 3299
5798 4269
5799 471
5799 3212
5799 4287
5800 265
5800 3205
5800 4275
5801 357
5801 3072
5801 4097
5802 466
5802 3091
5802 4138
5803 291
5803 3267
5803 4324
5804 274
5804 3256
5804 4147
5805 430
5805 3102
5805 4188
5806 266
5806 3190
5806 4185
5807 347
5807 3104
5807 4241
5808 475
5808 3252
5808 4160
5809 424
5809 3217
5809 4164
5810 373
5810 3289
5810 4331
5811 386
5811 3206
5811 4142
5812 299
5812 3241
5812 4340
5813 353
5813 3233
5813 4196
5814 405
5814 3145
5814 4208
5815 309
5815 3244
5815 4151
5816 377
5816 3249
5816 4257
5817 345
5817 3194
5817 4124
5818 468
5818 3079
5818 4308
5819 323
5819 3090
5819 4265
5820 267
5820 3207
5820 4112
5821 331
5821 3283
5821 4328
5822 332
5822 3221
5822 4157
5823 343
5823 3080
5823 4246
5824 283
5824 3312
5824 4344
5825 467
5825 3204
5825 4346
5826 453
5826 3279
5826 4297
5827 372
5827 3251
5827 4300
5828 479
5828 3232
5828 4149
5829 509
5829 3084
5829 4189
5830 494
5830 3198
5830 4294
5831 381
5831 3167
5831 4254
5832 375
5832 3119
5832 4303
5833 322
5833 3248
5833 4104
5834 295
5834 3315
5834 4286
5835 358
5835 3235
5835 4161
5836 321
5836 3310
5836 4291
5837 336
5837 3305
5837 4231
5838 420
5838 3208
5838 4298
5839 382
5839 3103
5839 4318
5840 491
5840 3170
5840 4133
5841 286
5841 3238
5841 4186
5842 261
5842 3227
5842 4335
5843 452
5843 3189
5843 4348
5844 408
5844 3197
5844 4249
5845 423
5845 3261
5845 4175
5846 427
5846 3160
5846 4110
5847 320
5847 3173
5847 4240
5848 278
5848 3317
5848 4162
5849 457
5849 3096
5849 4183
5850 392
5850 3089
5850 4166
5851 411
5851 3147
5851 4167
5852 414
5852 3168
5852 4140
5853 507
5853 3111
5853 4153
5854 301
5854 3226
5854 4223
5855 487
5855 3306
5855 4347
5856 284
5856 3137
5856 4251
5857 463
5857 3287
5857 4274
5858 306
5858 3118
5858 4105
5859 360
5859 3109
5859 4207
5860 263
5860 3260
5860 4237
5861 269
5861 3163
5861 4170
5862 313
5862 3184
5862 4226
5863 302
5863 3092
5863 4141
5864 304
5864 3129
5864 4245
5865 368
5865 3272
5865 4109
5866 485
5866 3134
5866 4280
5867 443
5867 3158
5867 4210
5868 413
5868 3304
5868 4221
5869 364
5869 3097
5869 4191
5870 416
5870 3186
5870 4148
5871 415
5871 3153
5871 4113
5872 454
5872 3176
5872 4122
5873 428
5873 3271
5873 4267
5874 419
5874 3222
5874 4289
5875 324
5875 3138
5875 4209
5876 379
5876 3183
5876 4126
5877 335
5877 3324
5877 4217
5878 325
5878 3159
5878 4192
5879 281
5879 3276
5879 4206
5880 469
5880 3281
5880 4125
5881 298
5881 3224
5881 4169
5882 264
5882 3127
5882 4111
5883 339
5883 3188
5883 4115
5884 319
5884 3177
5884 4293
5885 391
5885 3290
5885 4146
5886 489
5886 3144
5886 4317
5887 338
5887 3277
5887 4258
5888 521
5888 3372
5888 4512
5889 716
5889 3521
5889 4375
5890 676
5890 3580
5890 4416
5891 675
5891 3541
5891 4511
5892 654
5892 3437
5892 4418
5893 745
5893 3576
5893 4520
5894 724
5894 3542
5894 4591
5895 572
5895 3434
5895 4590
5896 736
5896 3362
5896 4533
5897 686
5897 3568
5897 4482
5898 515
5898 3522
5898 4530
5899 623
5899 3448
5899 4355
5900 667
5900 3409
5900 4486
5901 713
5901 3552
5901 4445
5902 764
5902 3407
5902 4468
5903 741
5903 3352
5903 4586
5904 729
5904 3555
5904 4450
5905 685
5905 3527
5905 4527
5906 630
5906 3339
5906 4508
5907 744
5907 3496
5907 4602
5908 600
5908 3445
5908 4504
5909 651
5909 3462
5909 4385
5910 569
5910 3482
5910 4397
5911 730
5911 3495
5911 4568
5912 608
5912 3387
5912 4592
5913 632
5913 3354
5913 4428
5914 718
5914 3333
5914 4528
5915 589
5915 3574
5915 4411
5916 760
5916 3477
5916 4370
5917 530
5917 3338
5917 4408
5918 611
5918 3470
5918 4597
5919 542
5919 3430
5919 4426
5920 762
5920 3525
5920 4379
5921 514
5921 3439
5921 4534
5922 591
5922 3408
5922 4459
5923 580
5923 3447
5923 4580
5924 684
5924 3396
5924 4600
5925 672
5925 3418
5925 4469
5926 563
5926 3472
5926 4517
5927 728
5927 3329
5927 4357
5928 592
5928 3511
5928 4505
5929 755
5929 3556
5929 4542
5930 751
5930 3423
5930 4583
5931 668
5931 3363
5931 4575
5932 626
5932 3353
5932 4515
5933 642
5933 3386
5933 4373
5934 527
5934 3463
5934 4390
5935 746
5935 3467
5935 4493
5936 582
5936 3526
5936 4444
5937 754
5937 3454
5937 4581
5938 618
5938 3392
5938 4410
5939 665
5939 3347
5939 4604
5940 677
5940 3531
5940 4430
5941 734
5941 3350
5941 4353
5942 557
5942 3502
5942 4358
5943 663
5943 3575
5943 4392
5944 731
5944 3481
5944 4424
5945 571
5945 3529
5945 4522
5946 637
5946 3563
5946 4555
5947 697
5947 3523
5947 4571
5948 631
5948 3429
5948 4567
5949 595
5949 3559
5949 4381
5950 553
5950 3476
5950 4535
5951 566
5951 3485
5951 4423
5952 742
5952 3560
5952 4541
5953 607
5953 3410
5953 4376
5954 715
5954 3537
5954 4489
5955 585
5955 3519
5955 4352
5956 704
5956 3490
5956 4483
5957 602
5957 3440
5957 4526
5958 594
5958 3544
5958 4524
5959 714
5959 3583
5959 4439
5960 689
5960 3357
5960 4382
5961 707
5961 3503
5961 4558
5962 628
5962 3474
5962 4548
5963 646
5963 3517
5963 4476
5964 737
5964 3565
5964 4594
5965 740
5965 3453
5965 4547
5966 540
5966 3507
5966 4521
5967 711
5967 3493
5967 4582
5968 599
5968 3532
5968 4589
5969 556
5969 3449
5969 4481
5970 644
5970 3371
5970 4384
5971 648
5971 3419
5971 4572
5972 525
5972 3401
5972 4565
5973 573
5973 3438
5973 4576
5974 568
5974 3377
5974 4573
5975 539
5975 3484
5975 4490
5976 625
5976 3553
5976 4556
5977 653
5977 3388
5977 4466
5978 719
5978 3514
5978 4501
5979 695
5979 3458
5979 4377
5980 635
5980 3579
5980 4539
5981 639
5981 3518
5981 4464
5982 555
5982 3582
5982 4488
5983 733
5983 3506
5983 4400
5984 581
5984 3336
5984 4456
5985 759
5985 3411
5985 4479
5986 662
5986 3413
5986 4566
5987 627
5987 3344
5987 4412
5988 693
5988 3567
5988 4407
5989 528
5989 3561
5989 4507
5990 658
5990 3515
5990 4543
5991 560
5991 3424
5991 4365
5992 720
5992 3524
5992 4389
5993 638
5993 3564
5993 4569
5994 761
5994 3374
5994 4474
5995 558
5995 3500
5995 4500
5996 640
5996 3379
5996 4502
5997 565
5997 3436
5997 4529
5998 616
5998 3483
5998 4451
5999 615
5999 3551
5999 4388
6000 552
6000 3457
6000 4354
6001 753
6001 3359
6001 4361
6002 710
6002 3425
6002 4404
6003 518
6003 3450
6003 4498
6004 534
6004 3478
6004 4506
6005 598
6005 3479
6005 4366
6006 703
6006 3342
6006 4421
6007 513
6007 3380
6007 4356
6008 601
6008 3334
6008 4492
6009 622
6009 3444
6009 4472
6010 520
6010 3420
6010 4367
6011 578
6011 3488
6011 4405
6012 749
6012 3570
6012 4563
6013 678
6013 3426
6013 4544
6014 758
6014 3516
6014 4595
6015 649
6015 3520
6015 4441
6016 683
6016 3501
6016 4457
6017 576
6017 3491
6017 4406
6018 550
6018 3394
6018 4462
6019 747
6019 3581
6019 4606
6020 660
6020 3535
6020 4485
6021 604
6021 3573
6021 4497
6022 570
6022 3504
6022 4467
6023 538
6023 3546
6023 4448
6024 692
6024 3547
6024 4383
6025 735
6025 3335
6025 4560
6026 519
6026 3489
6026 4394
6027 681
6027 3415
6027 4553
6028 688
6028 3459
6028 4436
6029 687
6029 3431
6029 4538
6030 767
6030 3465
6030 4496
6031 656
6031 3378
6031 4546
6032 682
6032 3554
6032 4516
6033 732
6033 3376
6033 4399
6034 748
6034 3433
6034 4371
6035 593
6035 3558
6035 4427
6036 544
6036 3443
6036 4440
6037 609
6037 3508
6037 4510
6038 652
6038 3545
6038 4513
6039 614
6039 3351
6039 4478
6040 554
6040 3332
6040 4607
6041 583
6041 3369
6041 4540
6042 738
6042 3402
6042 4433
6043 666
6043 3365
6043 4409
6044 547
6044 3330
6044 4374
6045 613
6045 3331
6045 4396
6046 766
6046 3414
6046 4552
6047 699
6047 3569
6047 4362
6048 535
6048 3337
6048 4391
6049 694
6049 3505
6049 4519
6050 655
6050 3480
6050 4463
6051 533
6051 3328
6051 4587
6052 546
6052 3384
6052 4429
6053 612
6053 3421
6053 4425
6054 574
6054 3391
6054 4447
6055 725
6055 3566
6055 4449
6056 517
6056 3356
6056 4460
6057 621
6057 3390
6057 4387
6058 629
6058 3512
6058 4437
6059 567
6059 3461
6059 4551
6060 588
6060 3400
6060 4369
6061 531
6061 3540
6061 4523
6062 708
6062 3498
6062 4363
6063 696
6063 3486
6063 4564
6064 765
6064 3406
6064 4431
6065 529
6065 3539
6065 4372
6066 680
6066 3341
6066 4475
6067 643
6067 3393
6067 4585
6068 522
6068 3513
6068 4473
6069 657
6069 3577
6069 4368
6070 597
6070 3370
6070 4550
6071 590
6071 3468
6071 4495
6072 561
6072 3455
6072 4491
6073 763
6073 3528
6073 4386
6074 549
6074 3382
6074 4487
6075 524
6075 3497
6075 4562
6076 650
6076 3543
6076 4465
6077 620
6077 3358
6077 4596
6078 701
6078 3442
6078 4461
6079 577
6079 3469
6079 4420
6080 536
6080 3368
6080 4422
6081 532
6081 3427
6081 4484
6082 670
6082 3451
6082 4380
6083 691
6083 3530
6083 4579
6084 603
6084 3533
6084 4499
6085 690
6085 3487
6085 4432
6086 543
6086 3441
6086 4584
6087 516
6087 3398
6087 4360
6088 586
6088 3367
6088 4494
6089 671
6089 3348
6089 4549
6090 726
6090 3432
6090 4434
6091 739
6091 3534
6091 4364
6092 645
6092 3403
6092 4574
6093 727
6093 3510
6093 4532
6094 596
6094 3381
6094 4458
6095 610
6095 3557
6095 4398
6096 756
6096 3571
6096 4588
6097 647
6097 3417
6097 4525
6098 674
6098 3572
6098 4454
6099 709
6099 3385
6099 4414
6100 605
6100 3404
6100 4401
6101 679
6101 3446
6101 4435
6102 661
6102 3389
6102 4477
6103 545
6103 3435
6103 4536
6104 641
6104 3456
6104 4443
6105 634
6105 3416
6105 4403
6106 579
6106 3499
6106 4598
6107 636
6107 3349
6107 4531
6108 526
6108 3473
6108 4359
6109 669
6109 3494
6109 4559
6110 700
6110 3375
6110 4514
6111 587
6111 3550
6111 4578
6112 562
6112 3345
6112 4417
6113 698
6113 3355
6113 4378
6114 673
6114 3452
6114 4455
6115 752
6115 3360
6115 4509
6116 575
6116 3492
6116 4438
6117 548
6117 3549
6117 4471
6118 523
6118 3412
6118 4470
6119 723
6119 3562
6119 4393
6120 633
6120 3343
6120 4554
6121 559
6121 3538
6121 4603
6122 537
6122 3460
6122 4577
6123 664
6123 3475
6123 4601
6124 721
6124 3464
6124 4395
6125 722
6125 3361
6125 4419
6126 606
6126 3383
6126 4453
6127 512
6127 3428
6127 4537
6128 564
6128 3364
6128 4545
6129 743
6129 3548
6129 4452
6130 541
6130 3366
6130 4599
6131 619
6131 3422
6131 4480
6132 624
6132 3399
6132 4442
6133 750
6133 3346
6133 4605
6134 702
6134 3536
6134 4446
6135 551
6135 3509
6135 4415
6136 712
6136 3397
6136 4413
6137 705
6137 3578
6137 4557
6138 757
6138 3405
6138 4518
6139 706
6139 3471
6139 4503
6140 717
6140 3466
6140 4570
6141 584
6141 3373
6141 4561
6142 617
6142 3395
6142 4402
6143 659
6143 3340
6143 4593
6144 863
6144 2004
6144 4778
6145 932
6145 1997
6145 4743
6146 889
6146 1816
6146 4713
6147 813
6147 1938
6147 4618
6148 850
6148 2019
6148 4610
6149 966
6149 1903
6149 4745
6150 776
6150 1809
6150 4690
6151 895
6151 1964
6151 4695
6152 893
6152 1998
6152 4791
6153 1017
6153 1912
6153 4699
6154 1018
6154 2033
6154 4773
6155 877
6155 1980
6155 4742
6156 829
6156 2015
6156 4661
6157 914
6157 1982
6157 4780
6158 928
6158 1906
6158 4794
6159 772
6159 1895
6159 4785
6160 781
6160 1806
6160 4799
6161 994
6161 1844
6161 4846
6162 846
6162 1815
6162 4667
6163 990
6163 1799
6163 4706
6164 936
6164 1992
6164 4856
6165 903
6165 1957
6165 4718
6166 951
6166 1930
6166 4796
6167 973
6167 1922
6167 4739
6168 865
6168 1970
6168 4733
6169 931
6169 1853
6169 4645
6170 886
6170 1966
6170 4668
6171 993
6171 1979
6171 4840
6172 822
6172 1916
6172 4678
6173 780
6173 1827
6173 4647
6174 997
6174 1985
6174 4719
6175 980
6175 2025
6175 4790
6176 836
6176 1981
6176 4757
6177 801
6177 1818
6177 4611
6178 837
6178 1814
6178 4625
6179 881
6179 1935
6179 4629
6180 912
6180 1918
6180 4779
6181 847
6181 1813
6181 4691
6182 918
6182 1968
6182 4748
6183 964
6183 2020
6183 4708
6184 987
6184 1961
6184 4772
6185 943
6185 1810
6185 4859
6186 840
6186 1969
6186 4770
6187 906
6187 1835
6187 4825
6188 901
6188 2044
6188 4844
6189 937
6189 1917
6189 4684
6190 919
6190 1904
6190 4751
6191 852
6191 1848
6191 4649
6192 984
6192 1939
6192 4822
6193 989
6193 1837
6193 4747
6194 946
6194 1897
6194 4782
6195 777
6195 1894
6195 4774
6196 965
6196 1941
6196 4672
6197 787
6197 1798
6197 4646
6198 851
6198 1820
6198 4824
6199 817
6199 2034
6199 4714
6200 814
6200 2006
6200 4837
6201 876
6201 1923
6201 4781
6202 795
6202 2027
6202 4804
6203 999
6203 1888
6203 4624
6204 868
6204 1828
6204 4741
6205 957
6205 1879
6205 4644
6206 805
6206 2024
6206 4766
6207 832
6207 1826
6207 4685
6208 828
6208 1978
6208 4703
6209 798
6209 1875
6209 4723
6210 769
6210 1896
6210 4671
6211 824
6211 2037
6211 4675
6212 1012
6212 1898
6212 4826
6213 894
6213 2035
6213 4849
6214 917
6214 1952
6214 4614
6215 971
6215 1937
6215 4848
6216 815
6216 1962
6216 4769
6217 823
6217 1991
6217 4775
6218 797
6218 1905
6218 4642
6219 839
6219 1854
6219 4843
6220 1019
6220 1901
6220 4805
6221 883
6221 1857
6221 4634
6222 842
6222 1944
6222 4752
6223 855
6223 1793
6223 4771
6224 1016
6224 1965
6224 4831
6225 794
6225 1812
6225 4764
6226 923
6226 2007
6226 4855
6227 783
6227 1933
6227 4862
6228 833
6228 1995
6228 4676
6229 924
6229 1880
6229 4823
6230 925
6230 1907
6230 4655
6231 938
6231 1838
6231 4753
6232 879
6232 1832
6232 4650
6233 1007
6233 2030
6233 4836
6234 979
6234 2016
6234 4725
6235 992
6235 1855
6235 4715
6236 899
6236 1885
6236 4740
6237 983
6237 2026
6237 4854
6238 786
6238 1797
6238 4827
6239 788
6239 1830
6239 4626
6240 825
6240 1842
6240 4821
6241 1000
6241 1800
6241 4709
6242 874
6242 1936
6242 4755
6243 910
6243 1908
6243 4814
6244 859
6244 1795
6244 4670
6245 963
6245 1931
6245 4696
6246 935
6246 1878
6246 4683
6247 1010
6247 1921
6247 4847
6248 821
6248 1876
6248 4762
6249 1003
6249 1915
6249 4704
6250 872
6250 2023
6250 4818
6251 809
6251 2031
6251 4720
6252 856
6252 2043
6252 4802
6253 835
6253 2003
6253 4763
6254 949
6254 1958
6254 4777
6255 882
6255 1822
6255 4660
6256 904
6256 1829
6256 4664
6257 789
6257 1868
6257 4852
6258 929
6258 2022
6258 4688
6259 934
6259 2005
6259 4807
6260 870
6260 1847
6260 4711
6261 812
6261 1984
6261 4760
6262 831
6262 2042
6262 4732
6263 1022
6263 1928
6263 4845
6264 878
6264 1866
6264 4613
6265 782
6265 1909
6265 4697
6266 793
6266 2021
6266 4631
6267 804
6267 2000
6267 4694
6268 853
6268 1973
6268 4749
6269 800
6269 1864
6269 4759
6270 867
6270 2014
6270 4809
6271 960
6271 1976
6271 4621
6272 875
6272 1899
6272 4842
6273 816
6273 1963
6273 4737
6274 778
6274 1902
6274 4689
6275 897
6275 2032
6275 4630
6276 768
6276 1977
6276 4776
6277 974
6277 1851
6277 4628
6278 967
6278 1945
6278 4754
6279 907
6279 2011
6279 4811
6280 770
6280 1929
6280 4666
6281 790
6281 1841
6281 4638
6282 866
6282 1892
6282 4681
6283 940
6283 1869
6283 4724
6284 773
6284 1949
6284 4829
6285 808
6285 1794
6285 4620
6286 961
6286 1882
6286 4659
6287 860
6287 1877
6287 4816
6288 1021
6288 1987
6288 4619
6289 820
6289 1890
6289 4702
6290 969
6290 1999
6290 4673
6291 995
6291 1994
6291 4730
6292 977
6292 1974
6292 4735
6293 838
6293 1996
6293 4680
6294 892
6294 2036
6294 4658
6295 1006
6295 1871
6295 4806
6296 896
6296 1927
6296 4637
6297 843
6297 1845
6297 4800
6298 806
6298 1955
6298 4795
6299 779
6299 1825
6299 4640
6300 948
6300 1870
6300 4656
6301 1004
6301 1983
6301 4663
6302 1009
6302 1839
6302 4834
6303 911
6303 1867
6303 4727
6304 884
6304 1886
6304 4767
6305 958
6305 2028
6305 4686
6306 1014
6306 1993
6306 4788
6307 922
6307 1900
6307 4721
6308 857
6308 1956
6308 4636
6309 1002
6309 1859
6309 4828
6310 930
6310 1942
6310 4623
6311 1020
6311 1883
6311 4687
6312 854
6312 1926
6312 4736
6313 945
6313 1865
6313 4784
6314 807
6314 1893
6314 4716
6315 869
6315 2001
6315 4622
6316 810
6316 1932
6316 4761
6317 791
6317 1934
6317 4693
6318 950
6318 1808
6318 4698
6319 942
6319 1881
6319 4746
6320 952
6320 2018
6320 4810
6321 811
6321 1948
6321 4786
6322 1005
6322 1846
6322 4639
6323 819
6323 1834
6323 4830
6324 920
6324 1950
6324 4817
6325 890
6325 1817
6325 4792
6326 803
6326 1858
6326 4729
6327 1011
6327 1925
6327 4710
6328 944
6328 1840
6328 4643
6329 1013
6329 1954
6329 4617
6330 799
6330 1913
6330 4669
6331 953
6331 1850
6331 4707
6332 968
6332 1811
6332 4616
6333 996
6333 2041
6333 4857
6334 905
6334 1953
6334 4815
6335 900
6335 1823
6335 4705
6336 774
6336 2046
6336 4662
6337 976
6337 1804
6337 4679
6338 785
6338 1796
6338 4756
6339 908
6339 1824
6339 4726
6340 916
6340 1971
6340 4700
6341 887
6341 2039
6341 4839
6342 954
6342 1960
6342 4728
6343 841
6343 1947
6343 4860
6344 873
6344 1860
6344 4674
6345 1023
6345 1989
6345 4812
6346 1015
6346 1849
6346 4657
6347 862
6347 1951
6347 4608
6348 885
6348 1891
6348 4648
6349 981
6349 2010
6349 4712
6350 970
6350 1914
6350 4627
6351 880
6351 1807
6351 4789
6352 775
6352 1967
6352 4641
6353 858
6353 1872
6353 4801
6354 909
6354 1863
6354 4734
6355 982
6355 1946
6355 4722
6356 926
6356 1821
6356 4652
6357 975
6357 2012
6357 4832
6358 834
6358 1924
6358 4701
6359 864
6359 2047
6359 4612
6360 827
6360 1862
6360 4798
6361 902
6361 2002
6361 4665
6362 956
6362 2045
6362 4768
6363 959
6363 1975
6363 4717
6364 826
6364 1990
6364 4783
6365 913
6365 1919
6365 4682
6366 802
6366 2009
6366 4833
6367 818
6367 1889
6367 4677
6368 988
6368 1988
6368 4850
6369 921
6369 1959
6369 4653
6370 927
6370 1972
6370 4632
6371 848
6371 1986
6371 4858
6372 939
6372 1852
6372 4841
6373 845
6373 1802
6373 4651
6374 1001
6374 1805
6374 4738
6375 771
6375 1884
6375 4853
6376 796
6376 1833
6376 4820
6377 1008
6377 2029
6377 4758
6378 888
6378 2017
6378 4609
6379 972
6379 1874
6379 4750
6380 792
6380 1803
6380 4813
6381 933
6381 1861
6381 4633
6382 844
6382 1920
6382 4835
6383 978
6383 1819
6383 4803
6384 985
6384 1856
6384 4808
6385 849
6385 1887
6385 4744
6386 784
6386 1943
6386 4654
6387 891
6387 2013
6387 4615
6388 941
6388 2008
6388 4797
6389 830
6389 1940
6389 4819
6390 955
6390 2038
6390 4765
6391 947
6391 1910
6391 4731
6392 861
6392 1911
6392 4863
6393 986
6393 1843
6393 4851
6394 991
6394 1873
6394 4861
6395 962
6395 1831
6395 4793
6396 898
6396 1836
6396 4838
6397 915
6397 1801
6397 4787
6398 998
6398 1792
6398 4692
6399 871
6399 2040
6399 4635
6400 1131
6400 2243
6400 4919
6401 1047
6401 2115
6401 5004
6402 1162
6402 2154
6402 5058
6403 1121
6403 2290
6403 4875
6404 1133
6404 2117
6404 4932
6405 1080
6405 2260
6405 4935
6406 1100
6406 2292
6406 4933
6407 1181
6407 2080
6407 5063
6408 1030
6408 2150
6408 5060
6409 1140
6409 2277
6409 5006
6410 1146
6410 2199
6410 5104
6411 1038
6411 2171
6411 4977
6412 1044
6412 2144
6412 4939
6413 1132
6413 2271
6413 4930
6414 1185
6414 2097
6414 5017
6415 1167
6415 2143
6415 4885
6416 1116
6416 2186
6416 5053
6417 1143
6417 2217
6417 4876
6418 1089
6418 2122
6418 5074
6419 1170
6419 2178
6419 4942
6420 1160
6420 2285
6420 5054
6421 1203
6421 2248
6421 5002
6422 1147
6422 2270
6422 5033
6423 1096
6423 2141
6423 4920
6424 1129
6424 2126
6424 5012
6425 1165
6425 2105
6425 5015
6426 1072
6426 2056
6426 5116
6427 1108
6427 2256
6427 4918
6428 1232
6428 2302
6428 5103
6429 1247
6429 2084
6429 4927
6430 1201
6430 2261
6430 4996
6431 1064
6431 2177
6431 5093
6432 1216
6432 2210
6432 4992
6433 1227
6433 2257
6433 5041
6434 1130
6434 2299
6434 4964
6435 1265
6435 2241
6435 4961
6436 1176
6436 2107
6436 5038
6437 1137
6437 2065
6437 4952
6438 1045
6438 2130
6438 5095
6439 1278
6439 2060
6439 4950
6440 1230
6440 2081
6440 4945
6441 1179
6441 2195
6441 4867
6442 1151
6442 2203
6442 5081
6443 1123
6443 2205
6443 5115
6444 1077
6444 2230
6444 4874
6445 1125
6445 2236
6445 4934
6446 1102
6446 2280
6446 5114
6447 1111
6447 2220
6447 5117
6448 1157
6448 2050
6448 5018
6449 1180
6449 2181
6449 5039
6450 1145
6450 2194
6450 4967
6451 1037
6451 2104
6451 4963
6452 1174
6452 2249
6452 4884
6453 1105
6453 2274
6453 4959
6454 1059
6454 2155
6454 4866
6455 1246
6455 2146
6455 5088
6456 1198
6456 2133
6456 4925
6457 1172
6457 2169
6457 5061
6458 1033
6458 2108
6458 5024
6459 1156
6459 2235
6459 4894
6460 1192
6460 2170
6460 5007
6461 1142
6461 2076
6461 4983
6462 1244
6462 2272
6462 4938
6463 1090
6463 2061
6463 4916
6464 1118
6464 2112
6464 5076
6465 1071
6465 2246
6465 5014
6466 1217
6466 2207
6466 4946
6467 1260
6467 2255
6467 4864
6468 1195
6468 2089
6468 4972
6469 1212
6469 2183
6469 5003
6470 1028
6470 2078
6470 4966
6471 1239
6471 2284
6471 4976
6472 1214
6472 2109
6472 4911
6473 1193
6473 2066
6473 5046
6474 1173
6474 2083
6474 4986
6475 1177
6475 2118
6475 5089
6476 1256
6476 2052
6476 4988
6477 1098
6477 2189
6477 4987
6478 1025
6478 2067
6478 5059
6479 1139
6479 2073
6479 5009
6480 1207
6480 2174
6480 5005
6481 1267
6481 2166
6481 4871
6482 1103
6482 2129
6482 5026
6483 1112
6483 2100
6483 4973
6484 1068
6484 2216
6484 5101
6485 1058
6485 2139
6485 4906
6486 1233
6486 2071
6486 4990
6487 1238
6487 2234
6487 5086
6488 1055
6488 2275
6488 4962
6489 1061
6489 2098
6489 5040
6490 1279
6490 2072
6490 4947
6491 1184
6491 2225
6491 5110
6492 1248
6492 2202
6492 4958
6493 1187
6493 2110
6493 5030
6494 1088
6494 2279
6494 4896
6495 1242
6495 2095
6495 5084
6496 1062
6496 2208
6496 5073
6497 1104
6497 2116
6497 4997
6498 1226
6498 2258
6498 4981
6499 1097
6499 2054
6499 5075
6500 1124
6500 2140
6500 4898
6501 1135
6501 2190
6501 4901
6502 1224
6502 2301
6502 5119
6503 1115
6503 2151
6503 5105
6504 1128
6504 2142
6504 4957
6505 1031
6505 2209
6505 4914
6506 1094
6506 2085
6506 5112
6507 1225
6507 2138
6507 4940
6508 1210
6508 2215
6508 4985
6509 1213
6509 2163
6509 4890
6510 1249
6510 2192
6510 4891
6511 1220
6511 2088
6511 4902
6512 1215
6512 2276
6512 4931
6513 1178
6513 2282
6513 5087
6514 1050
6514 2254
6514 5080
6515 1261
6515 2198
6515 5043
6516 1117
6516 2149
6516 5083
6517 1273
6517 2096
6517 5029
6518 1266
6518 2091
6518 5071
6519 1154
6519 2293
6519 5106
6520 1149
6520 2147
6520 5066
6521 1231
6521 2101
6521 5023
6522 1035
6522 2132
6522 5008
6523 1048
6523 2269
6523 5057
6524 1136
6524 2128
6524 4889
6525 1085
6525 2231
6525 4944
6526 1152
6526 2094
6526 4910
6527 1263
6527 2281
6527 5072
6528 1120
6528 2289
6528 5021
6529 1049
6529 2092
6529 5070
6530 1042
6530 2232
6530 4955
6531 1234
6531 2102
6531 4865
6532 1074
6532 2057
6532 5048
6533 1119
6533 2187
6533 4905
6534 1199
6534 2263
6534 4998
6535 1057
6535 2069
6535 4895
6536 1276
6536 2267
6536 5047
6537 1150
6537 2237
6537 4978
6538 1091
6538 2053
6538 4954
6539 1065
6539 2119
6539 5079
6540 1253
6540 2184
6540 5027
6541 1223
6541 2240
6541 4995
6542 1271
6542 2218
6542 5034
6543 1026
6543 2157
6543 5096
6544 1144
6544 2229
6544 4923
6545 1252
6545 2219
6545 5044
6546 1082
6546 2087
6546 4903
6547 1075
6547 2153
6547 5052
6548 1277
6548 2265
6548 5025
6549 1056
6549 2244
6549 4970
6550 1262
6550 2158
6550 4870
6551 1054
6551 2135
6551 4936
6552 1194
6552 2079
6552 4926
6553 1251
6553 2137
6553 5091
6554 1204
6554 2145
6554 5064
6555 1191
6555 2165
6555 5109
6556 1175
6556 2134
6556 5013
6557 1272
6557 2197
6557 4886
6558 1046
6558 2075
6558 5078
6559 1078
6559 2070
6559 5090
6560 1208
6560 2278
6560 4881
6561 1275
6561 2273
6561 4868
6562 1063
6562 2211
6562 5051
6563 1269
6563 2176
6563 4924
6564 1109
6564 2297
6564 4908
6565 1190
6565 2201
6565 4999
6566 1076
6566 2262
6566 5031
6567 1158
6567 2152
6567 4877
6568 1041
6568 2055
6568 4915
6569 1219
6569 2288
6569 5069
6570 1218
6570 2226
6570 5035
6571 1122
6571 2185
6571 5065
6572 1110
6572 2086
6572 4968
6573 1040
6573 2120
6573 4878
6574 1268
6574 2287
6574 4882
6575 1161
6575 2239
6575 5094
6576 1106
6576 2252
6576 4883
6577 1067
6577 2204
6577 4888
6578 1141
6578 2103
6578 4897
6579 1200
6579 2294
6579 5077
6580 1221
6580 2162
6580 4928
6581 1259
6581 2291
6581 5016
6582 1093
6582 2164
6582 5022
6583 1166
6583 2221
6583 5020
6584 1032
6584 2090
6584 5001
6585 1196
6585 2264
6585 4909
6586 1250
6586 2159
6586 5113
6587 1087
6587 2214
6587 4949
6588 1258
6588 2266
6588 5037
6589 1083
6589 2206
6589 5099
6590 1079
6590 2173
6590 4907
6591 1084
6591 2247
6591 5042
6592 1069
6592 2286
6592 5045
6593 1024
6593 2175
6593 4900
6594 1092
6594 2064
6594 5107
6595 1183
6595 2093
6595 4943
6596 1107
6596 2268
6596 5049
6597 1237
6597 2049
6597 5098
6598 1240
6598 2251
6598 5000
6599 1052
6599 2238
6599 5102
6600 1243
6600 2156
6600 5056
6601 1099
6601 2124
6601 5100
6602 1164
6602 2295
6602 5097
6603 1209
6603 2111
6603 5055
6604 1228
6604 2123
6604 4873
6605 1205
6605 2062
6605 4922
6606 1081
6606 2160
6606 5067
6607 1169
6607 2058
6607 4991
6608 1153
6608 2167
6608 4893
6609 1113
6609 2168
6609 4948
6610 1171
6610 2161
6610 5010
6611 1066
6611 2148
6611 4953
6612 1036
6612 2099
6612 4969
6613 1126
6613 2188
6613 4979
6614 1148
6614 2242
6614 4971
6615 1189
6615 2136
6615 5011
6616 1182
6616 2114
6616 5050
6617 1206
6617 2074
6617 4917
6618 1229
6618 2223
6618 4984
6619 1034
6619 2191
6619 4974
6620 1257
6620 2082
6620 4899
6621 1027
6621 2179
6621 4869
6622 1051
6622 2296
6622 4872
6623 1254
6623 2121
6623 4994
6624 1101
6624 2113
6624 4951
6625 1073
6625 2245
6625 4887
6626 1241
6626 2127
6626 5108
6627 1245
6627 2303
6627 5085
6628 1274
6628 2228
6628 5068
6629 1134
6629 2051
6629 5082
6630 1202
6630 2180
6630 4975
6631 1043
6631 2125
6631 4913
6632 1029
6632 2068
6632 5036
6633 1159
6633 2059
6633 4880
6634 1168
6634 2222
6634 4879
6635 1070
6635 2182
6635 4912
6636 1155
6636 2200
6636 4937
6637 1060
6637 2300
6637 4965
6638 1222
6638 2224
6638 5028
6639 1186
6639 2227
6639 5062
6640 1053
6640 2193
6640 5032
6641 1039
6641 2063
6641 4921
6642 1235
6642 2131
6642 4892
6643 1211
6643 2250
6643 4904
6644 1197
6644 2106
6644 4956
6645 1138
6645 2283
6645 4993
6646 1095
6646 2196
6646 4929
6647 1188
6647 2298
6647 5092
6648 1264
6648 2259
6648 5019
6649 1255
6649 2213
6649 4941
6650 1086
6650 2212
6650 4960
6651 1163
6651 2077
6651 5111
6652 1114
6652 2233
6652 4982
6653 1236
6653 2048
6653 4989
6654 1127
6654 2172
6654 5118
6655 1270
6655 2253
6655 4980
6656 1384
6656 2337
6656 5228
6657 1517
6657 2526
6657 5289
6658 1364
6658 2425
6658 5341
6659 1455
6659 2555
6659 5262
6660 1523
6660 2454
6660 5326
6661 1294
6661 2400
6661 5188
6662 1359
6662 2548
6662 5149
6663 1504
6663 2392
6663 5304
6664 1470
6664 2448
6664 5128
6665 1494
6665 2395
6665 5271
6666 1410
6666 2379
6666 5323
6667 1393
6667 2426
6667 5198
6668 1375
6668 2443
6668 5346
6669 1418
6669 2423
6669 5281
6670 1282
6670 2485
6670 5204
6671 1289
6671 2466
6671 5328
6672 1464
6672 2528
6672 5319
6673 1436
6673 2545
6673 5156
6674 1492
6674 2341
6674 5154
6675 1510
6675 2377
6675 5214
6676 1518
6676 2429
6676 5178
6677 1366
6677 2519
6677 5200
6678 1408
6678 2480
6678 5362
6679 1472
6679 2356
6679 5147
6680 1378
6680 2468
6680 5306
6681 1473
6681 2366
6681 5247
6682 1391
6682 2402
6682 5142
6683 1519
6683 2397
6683 5279
6684 1373
6684 2352
6684 5353
6685 1311
6685 2510
6685 5336
6686 1503
6686 2348
6686 5371
6687 1293
6687 2389
6687 5133
6688 1413
6688 2407
6688 5173
6689 1351
6689 2334
6689 5282
6690 1322
6690 2539
6690 5340
6691 1425
6691 2482
6691 5277
6692 1428
6692 2373
6692 5183
6693 1497
6693 2532
6693 5162
6694 1361
6694 2314
6694 5357
6695 1404
6695 2557
6695 5367
6696 1295
6696 2354
6696 5351
6697 1445
6697 2350
6697 5317
6698 1487
6698 2368
6698 5269
6699 1302
6699 2507
6699 5308
6700 1380
6700 2329
6700 5315
6701 1355
6701 2472
6701 5374
6702 1406
6702 2535
6702 5176
6703 1303
6703 2484
6703 5338
6704 1485
6704 2515
6704 5298
6705 1437
6705 2549
6705 5135
6706 1520
6706 2333
6706 5163
6707 1314
6707 2381
6707 5310
6708 1280
6708 2495
6708 5145
6709 1372
6709 2522
6709 5302
6710 1342
6710 2358
6710 5370
6711 1522
6711 2415
6711 5164
6712 1448
6712 2554
6712 5249
6713 1465
6713 2478
6713 5296
6714 1290
6714 2511
6714 5160
6715 1326
6715 2537
6715 5201
6716 1526
6716 2436
6716 5170
6717 1310
6717 2331
6717 5358
6718 1305
6718 2376
6718 5217
6719 1379
6719 2467
6719 5167
6720 1325
6720 2399
6720 5199
6721 1403
6721 2504
6721 5284
6722 1344
6722 2506
6722 5356
6723 1398
6723 2371
6723 5237
6724 1313
6724 2433
6724 5215
6725 1285
6725 2390
6725 5243
6726 1367
6726 2330
6726 5359
6727 1535
6727 2375
6727 5255
6728 1357
6728 2471
6728 5144
6729 1433
6729 2509
6729 5168
6730 1324
6730 2551
6730 5253
6731 1479
6731 2417
6731 5158
6732 1488
6732 2431
6732 5265
6733 1524
6733 2361
6733 5131
6734 1317
6734 2479
6734 5161
6735 1534
6735 2541
6735 5343
6736 1424
6736 2382
6736 5267
6737 1346
6737 2312
6737 5141
6738 1489
6738 2370
6738 5256
6739 1286
6739 2369
6739 5235
6740 1307
6740 2527
6740 5209
6741 1532
6741 2359
6741 5150
6742 1447
6742 2420
6742 5166
6743 1341
6743 2469
6743 5206
6744 1506
6744 2326
6744 5146
6745 1421
6745 2542
6745 5231
6746 1321
6746 2438
6746 5219
6747 1308
6747 2483
6747 5218
6748 1414
6748 2412
6748 5344
6749 1469
6749 2360
6749 5257
6750 1409
6750 2391
6750 5264
6751 1358
6751 2439
6751 5363
6752 1527
6752 2440
6752 5294
6753 1368
6753 2486
6753 5324
6754 1419
6754 2487
6754 5223
6755 1360
6755 2327
6755 5312
6756 1352
6756 2505
6756 5121
6757 1304
6757 2501
6757 5360
6758 1387
6758 2508
6758 5248
6759 1395
6759 2464
6759 5283
6760 1490
6760 2559
6760 5174
6761 1460
6761 2450
6761 5193
6762 1369
6762 2441
6762 5222
6763 1477
6763 2432
6763 5220
6764 1440
6764 2328
6764 5274
6765 1507
6765 2401
6765 5241
6766 1427
6766 2533
6766 5259
6767 1376
6767 2442
6767 5321
6768 1467
6768 2523
6768 5210
6769 1521
6769 2543
6769 5185
6770 1329
6770 2378
6770 5129
6771 1281
6771 2492
6771 5153
6772 1495
6772 2470
6772 5152
6773 1292
6773 2517
6773 5260
6774 1458
6774 2536
6774 5125
6775 1320
6775 2465
6775 5322
6776 1463
6776 2460
6776 5245
6777 1309
6777 2422
6777 5311
6778 1347
6778 2424
6778 5342
6779 1382
6779 2453
6779 5331
6780 1301
6780 2317
6780 5276
6781 1300
6781 2325
6781 5286
6782 1284
6782 2461
6782 5179
6783 1452
6783 2355
6783 5132
6784 1525
6784 2514
6784 5182
6785 1318
6785 2380
6785 5352
6786 1319
6786 2405
6786 5157
6787 1475
6787 2315
6787 5143
6788 1530
6788 2357
6788 5197
6789 1312
6789 2489
6789 5226
6790 1462
6790 2502
6790 5213
6791 1306
6791 2524
6791 5236
6792 1291
6792 2338
6792 5307
6793 1416
6793 2408
6793 5335
6794 1468
6794 2538
6794 5355
6795 1422
6795 2384
6795 5327
6796 1509
6796 2518
6796 5196
6797 1528
6797 2497
6797 5225
6798 1471
6798 2455
6798 5320
6799 1390
6799 2544
6799 5234
6800 1450
6800 2403
6800 5184
6801 1512
6801 2367
6801 5138
6802 1399
6802 2553
6802 5291
6803 1431
6803 2388
6803 5202
6804 1484
6804 2323
6804 5246
6805 1411
6805 2493
6805 5300
6806 1502
6806 2419
6806 5192
6807 1505
6807 2393
6807 5278
6808 1423
6808 2345
6808 5272
6809 1297
6809 2319
6809 5350
6810 1298
6810 2498
6810 5189
6811 1397
6811 2346
6811 5224
6812 1457
6812 2444
6812 5195
6813 1330
6813 2411
6813 5151
6814 1343
6814 2362
6814 5194
6815 1432
6815 2313
6815 5285
6816 1461
6816 2481
6816 5301
6817 1337
6817 2434
6817 5273
6818 1332
6818 2452
6818 5130
6819 1438
6819 2430
6819 5250
6820 1515
6820 2349
6820 5261
6821 1491
6821 2418
6821 5123
6822 1288
6822 2552
6822 5348
6823 1383
6823 2531
6823 5177
6824 1331
6824 2488
6824 5375
6825 1400
6825 2451
6825 5369
6826 1365
6826 2458
6826 5230
6827 1486
6827 2428
6827 5373
6828 1499
6828 2311
6828 5305
6829 1426
6829 2344
6829 5127
6830 1456
6830 2410
6830 5354
6831 1377
6831 2386
6831 5208
6832 1516
6832 2513
6832 5227
6833 1381
6833 2558
6833 5316
6834 1439
6834 2496
6834 5171
6835 1500
6835 2494
6835 5244
6836 1296
6836 2421
6836 5229
6837 1429
6837 2336
6837 5332
6838 1333
6838 2343
6838 5191
6839 1430
6839 2320
6839 5254
6840 1363
6840 2477
6840 5205
6841 1412
6841 2364
6841 5136
6842 1348
6842 2457
6842 5349
6843 1453
6843 2406
6843 5295
6844 1371
6844 2556
6844 5148
6845 1353
6845 2413
6845 5139
6846 1350
6846 2512
6846 5181
6847 1482
6847 2474
6847 5169
6848 1417
6848 2340
6848 5238
6849 1493
6849 2353
6849 5337
6850 1420
6850 2459
6850 5347
6851 1394
6851 2462
6851 5361
6852 1476
6852 2446
6852 5186
6853 1283
6853 2409
6853 5124
6854 1529
6854 2351
6854 5333
6855 1323
6855 2416
6855 5287
6856 1385
6856 2309
6856 5313
6857 1338
6857 2520
6857 5297
6858 1287
6858 2476
6858 5172
6859 1435
6859 2363
6859 5270
6860 1513
6860 2339
6860 5251
6861 1496
6861 2547
6861 5134
6862 1501
6862 2304
6862 5258
6863 1443
6863 2491
6863 5140
6864 1340
6864 2332
6864 5240
6865 1354
6865 2394
6865 5288
6866 1402
6866 2463
6866 5266
6867 1401
6867 2473
6867 5180
6868 1315
6868 2546
6868 5280
6869 1533
6869 2316
6869 5299
6870 1374
6870 2318
6870 5216
6871 1454
6871 2342
6871 5175
6872 1345
6872 2307
6872 5263
6873 1327
6873 2322
6873 5293
6874 1334
6874 2550
6874 5203
6875 1370
6875 2305
6875 5309
6876 1481
6876 2516
6876 5252
6877 1407
6877 2503
6877 5165
6878 1478
6878 2324
6878 5159
6879 1388
6879 2335
6879 5187
6880 1444
6880 2456
6880 5232
6881 1336
6881 2500
6881 5330
6882 1396
6882 2447
6882 5365
6883 1328
6883 2383
6883 5268
6884 1531
6884 2534
6884 5137
6885 1441
6885 2427
6885 5372
6886 1514
6886 2435
6886 5325
6887 1446
6887 2347
6887 5364
6888 1449
6888 2404
6888 5292
6889 1434
6889 2396
6889 5314
6890 1362
6890 2529
6890 5212
6891 1459
6891 2445
6891 5207
6892 1392
6892 2321
6892 5334
6893 1498
6893 2475
6893 5211
6894 1405
6894 2372
6894 5303
6895 1480
6895 2385
6895 5122
6896 1474
6896 2525
6896 5242
6897 1389
6897 2521
6897 5155
6898 1335
6898 2365
6898 5190
6899 1508
6899 2437
6899 5120
6900 1483
6900 2414
6900 5329
6901 1386
6901 2374
6901 5368
6902 1299
6902 2310
6902 5233
6903 1349
6903 2449
6903 5221
6904 1511
6904 2499
6904 5345
6905 1415
6905 2530
6905 5126
6906 1451
6906 2490
6906 5318
6907 1442
6907 2387
6907 5339
6908 1466
6908 2308
6908 5239
6909 1316
6909 2398
6909 5366
6910 1339
6910 2306
6910 5275
6911 1356
6911 2540
6911 5290
6912 1563
6912 2570
6912 3763
6913 1624
6913 2770
6913 3651
6914 1751
6914 2692
6914 3621
6915 1573
6915 2564
6915 3622
6916 1744
6916 2630
6916 3610
6917 1541
6917 2800
6917 3815
6918 1768
6918 2664
6918 3777
6919 1646
6919 2729
6919 3724
6920 1721
6920 2722
6920 3701
6921 1788
6921 2783
6921 3616
6922 1591
6922 2794
6922 3715
6923 1630
6923 2808
6923 3699
6924 1592
6924 2767
6924 3649
6925 1689
6925 2645
6925 3775
6926 1577
6926 2674
6926 3716
6927 1570
6927 2780
6927 3679
6928 1731
6928 2560
6928 3738
6929 1558
6929 2642
6929 3652
6930 1560
6930 2761
6930 3719
6931 1691
6931 2778
6931 3778
6932 1637
6932 2724
6932 3783
6933 1694
6933 2618
6933 3623
6934 1755
6934 2726
6934 3643
6935 1786
6935 2812
6935 3838
6936 1668
6936 2796
6936 3728
6937 1725
6937 2610
6937 3720
6938 1562
6938 2682
6938 3611
6939 1566
6939 2717
6939 3816
6940 1729
6940 2587
6940 3664
6941 1732
6941 2599
6941 3647
6942 1736
6942 2653
6942 3788
6943 1546
6943 2576
6943 3705
6944 1585
6944 2686
6944 3742
6945 1710
6945 2730
6945 3795
6946 1564
6946 2788
6946 3755
6947 1760
6947 2593
6947 3613
6948 1783
6948 2735
6948 3833
6949 1789
6949 2701
6949 3770
6950 1727
6950 2698
6950 3634
6951 1655
6951 2815
6951 3819
6952 1601
6952 2654
6952 3661
6953 1569
6953 2626
6953 3697
6954 1754
6954 2814
6954 3797
6955 1548
6955 2676
6955 3685
6956 1758
6956 2710
6956 3823
6957 1726
6957 2573
6957 3639
6958 1657
6958 2625
6958 3601
6959 1613
6959 2648
6959 3708
6960 1582
6960 2708
6960 3779
6961 1776
6961 2700
6961 3771
6962 1743
6962 2603
6962 3598
6963 1575
6963 2578
6963 3772
6964 1644
6964 2611
6964 3713
6965 1705
6965 2620
6965 3759
6966 1660
6966 2679
6966 3790
6967 1753
6967 2784
6967 3796
6968 1634
6968 2720
6968 3684
6969 1711
6969 2662
6969 3660
6970 1556
6970 2683
6970 3590
6971 1791
6971 2707
6971 3632
6972 1782
6972 2579
6972 3667
6973 1608
6973 2565
6973 3609
6974 1597
6974 2667
6974 3746
6975 1589
6975 2764
6975 3793
6976 1772
6976 2743
6976 3626
6977 1578
6977 2758
6977 3614
6978 1769
6978 2673
6978 3768
6979 1680
6979 2712
6979 3762
6980 1659
6980 2628
6980 3821
6981 1661
6981 2677
6981 3739
6982 1759
6982 2799
6982 3642
6983 1600
6983 2721
6983 3608
6984 1747
6984 2813
6984 3829
6985 1543
6985 2631
6985 3721
6986 1699
6986 2757
6986 3800
6987 1587
6987 2641
6987 3671
6988 1765
6988 2732
6988 3644
6989 1642
6989 2740
6989 3731
6990 1584
6990 2680
6990 3674
6991 1715
6991 2575
6991 3595
6992 1750
6992 2776
6992 3612
6993 1620
6993 2590
6993 3695
6994 1653
6994 2658
6994 3600
6995 1702
6995 2723
6995 3776
6996 1737
6996 2675
6996 3617
6997 1583
6997 2745
6997 3627
6998 1762
6998 2744
6998 3751
6999 1645
6999 2755
6999 3624
7000 1658
7000 2652
7000 3826
7001 1767
7001 2687
7001 3767
7002 1551
7002 2694
7002 3752
7003 1633
7003 2629
7003 3827
7004 1678
7004 2769
7004 3638
7005 1632
7005 2737
7005 3808
7006 1612
7006 2644
7006 3714
7007 1656
7007 2713
7007 3754
7008 1544
7008 2634
7008 3717
7009 1629
7009 2792
7009 3640
7010 1649
7010 2623
7010 3689
7011 1550
7011 2586
7011 3680
7012 1778
7012 2762
7012 3676
7013 1568
7013 2566
7013 3737
7014 1610
7014 2690
7014 3785
7015 1684
7015 2678
7015 3693
7016 1672
7016 2787
7016 3828
7017 1774
7017 2739
7017 3629
7018 1602
7018 2695
7018 3798
7019 1724
7019 2693
7019 3645
7020 1706
7020 2773
7020 3824
7021 1671
7021 2612
7021 3749
7022 1728
7022 2583
7022 3704
7023 1673
7023 2627
7023 3756
7024 1697
7024 2742
7024 3669
7025 1761
7025 2605
7025 3630
7026 1692
7026 2760
7026 3807
7027 1643
7027 2624
7027 3760
7028 1651
7028 2609
7028 3703
7029 1742
7029 2670
7029 3766
7030 1781
7030 2632
7030 3804
7031 1703
7031 2748
7031 3604
7032 1674
7032 2782
7032 3794
7033 1707
7033 2659
7033 3836
7034 1784
7034 2585
7034 3818
7035 1676
7035 2574
7035 3784
7036 1681
7036 2637
7036 3665
7037 1611
7037 2651
7037 3688
7038 1722
7038 2777
7038 3668
7039 1590
7039 2663
7039 3646
7040 1770
7040 2600
7040 3591
7041 1648
7041 2768
7041 3633
7042 1763
7042 2657
7042 3635
7043 1690
7043 2793
7043 3656
7044 1749
7044 2655
7044 3743
7045 1609
7045 2595
7045 3700
7046 1720
7046 2749
7046 3586
7047 1557
7047 2591
7047 3662
7048 1709
7048 2649
7048 3659
7049 1745
7049 2786
7049 3593
7050 1686
7050 2672
7050 3839
7051 1596
7051 2704
7051 3733
7052 1593
7052 2684
7052 3709
7053 1748
7053 2621
7053 3673
7054 1773
7054 2779
7054 3799
7055 1662
7055 2601
7055 3707
7056 1738
7056 2640
7056 3677
7057 1571
7057 2592
7057 3791
7058 1616
7058 2775
7058 3735
7059 1714
7059 2604
7059 3585
7060 1730
7060 2807
7060 3789
7061 1647
7061 2596
7061 3710
7062 1542
7062 2588
7062 3694
7063 1679
7063 2696
7063 3683
7064 1688
7064 2802
7064 3780
7065 1719
7065 2731
7065 3814
7066 1696
7066 2756
7066 3602
7067 1604
7067 2563
7067 3774
7068 1670
7068 2750
7068 3599
7069 1625
7069 2580
7069 3666
7070 1667
7070 2589
7070 3678
7071 1605
7071 2709
7071 3764
7072 1603
7072 2681
7072 3809
7073 1606
7073 2716
7073 3637
7074 1708
7074 2613
7074 3765
7075 1552
7075 2719
7075 3740
7076 1718
7076 2666
7076 3589
7077 1675
7077 2606
7077 3811
7078 1723
7078 2608
7078 3686
7079 1752
7079 2774
7079 3812
7080 1665
7080 2718
7080 3729
7081 1717
7081 2617
7081 3832
7082 1574
7082 2660
7082 3723
7083 1631
7083 2656
7083 3654
7084 1780
7084 2706
7084 3835
7085 1733
7085 2806
7085 3802
7086 1635
7086 2691
7086 3792
7087 1621
7087 2766
7087 3636
7088 1652
7088 2741
7088 3682
7089 1779
7089 2805
7089 3692
7090 1650
7090 2753
7090 3625
7091 1627
7091 2665
7091 3753
7092 1712
7092 2597
7092 3663
7093 1734
7093 2747
7093 3820
7094 1540
7094 2763
7094 3722
7095 1638
7095 2633
7095 3787
7096 1641
7096 2728
7096 3817
7097 1586
7097 2738
7097 3687
7098 1567
7098 2646
7098 3597
7099 1695
7099 2567
7099 3584
7100 1664
7100 2581
7100 3620
7101 1757
7101 2703
7101 3805
7102 1549
7102 2577
7102 3726
7103 1594
7103 2809
7103 3825
7104 1666
7104 2688
7104 3653
7105 1598
7105 2602
7105 3641
7106 1588
7106 2668
7106 3736
7107 1777
7107 2643
7107 3734
7108 1617
7108 2702
7108 3594
7109 1626
7109 2765
7109 3801
7110 1682
7110 2616
7110 3773
7111 1576
7111 2561
7111 3730
7112 1561
7112 2736
7112 3588
7113 1716
7113 2615
7113 3718
7114 1607
7114 2685
7114 3744
7115 1581
7115 2711
7115 3603
7116 1640
7116 2671
7116 3605
7117 1775
7117 2689
7117 3813
7118 1538
7118 2607
7118 3681
7119 1700
7119 2781
7119 3672
7120 1683
7120 2759
7120 3648
7121 1677
7121 2705
7121 3786
7122 1713
7122 2661
7122 3741
7123 1771
7123 2801
7123 3834
7124 1555
7124 2568
7124 3781
7125 1790
7125 2789
7125 3758
7126 1740
7126 2669
7126 3675
7127 1739
7127 2697
7127 3657
7128 1663
7128 2751
7128 3745
7129 1628
7129 2746
7129 3769
7130 1618
7130 2771
7130 3658
7131 1785
7131 2772
7131 3830
7132 1735
7132 2594
7132 3698
7133 1580
7133 2639
7133 3711
7134 1764
7134 2797
7134 3757
7135 1623
7135 2584
7135 3727
7136 1701
7136 2569
7136 3782
7137 1746
7137 2752
7137 3822
7138 1595
7138 2638
7138 3761
7139 1741
7139 2727
7139 3750
7140 1536
7140 2734
7140 3725
7141 1559
7141 2562
7141 3655
7142 1687
7142 2619
7142 3631
7143 1614
7143 2571
7143 3619
7144 1615
7144 2647
7144 3696
7145 1554
7145 2598
7145 3837
7146 1579
7146 2798
7146 3803
7147 1599
7147 2635
7147 3690
7148 1639
7148 2614
7148 3712
7149 1685
7149 2785
7149 3748
7150 1636
7150 2725
7150 3615
7151 1537
7151 2790
7151 3628
7152 1539
7152 2791
7152 3587
7153 1787
7153 2811
7153 3732
7154 1756
7154 2715
7154 3831
7155 1553
7155 2582
7155 3670
7156 1547
7156 2699
7156 3618
7157 1572
7157 2572
7157 3706
7158 1698
7158 2804
7158 3592
7159 1545
7159 2810
7159 3650
7160 1669
7160 2733
7160 3691
7161 1693
7161 2803
7161 3810
7162 1766
7162 2636
7162 3747
7163 1565
7163 2650
7163 3596
7164 1619
7164 2714
7164 3606
7165 1654
7165 2622
7165 3607
7166 1704
7166 2795
7166 3702
7167 1622
7167 2754
7167 3806
7168 197
7168 2769
7168 5165
7169 53
7169 2666
7169 5235
7170 101
7170 2804
7170 5258
7171 215
7171 2722
7171 5236
7172 32
7172 2631
7172 5215
7173 245
7173 2598
7173 5186
7174 224
7174 2808
7174 5207
7175 88
7175 2711
7175 5336
7176 63
7176 2691
7176 5147
7177 127
7177 2610
7177 5313
7178 12
7178 2621
7178 5277
7179 134
7179 2612
7179 5342
7180 186
7180 2692
7180 5167
7181 51
7181 2628
7181 5320
7182 3
7182 2675
7182 5214
7183 16
7183 2662
7183 5150
7184 17
7184 2775
7184 5279
7185 20
7185 2773
7185 5154
7186 196
7186 2646
7186 5139
7187 205
7187 2744
7187 5233
7188 250
7188 2750
7188 5162
7189 162
7189 2728
7189 5218
7190 108
7190 2708
7190 5290
7191 99
7191 2614
7191 5201
7192 192
7192 2785
7192 5141
7193 125
7193 2584
7193 5324
7194 212
7194 2747
7194 5321
7195 133
7195 2607
7195 5262
7196 91
7196 2577
7196 5226
7197 55
7197 2656
7197 5187
7198 43
7198 2678
7198 5195
7199 213
7199 2703
7199 5213
7200 19
7200 2807
7200 5359
7201 50
7201 2669
7201 5244
7202 117
7202 2586
7202 5217
7203 35
7203 2794
7203 5180
7204 153
7204 2693
7204 5231
7205 173
7205 2729
7205 5219
7206 5
7206 2704
7206 5316
7207 82
7207 2618
7207 5253
7208 222
7208 2716
7208 5222
7209 14
7209 2699
7209 5282
7210 107
7210 2740
7210 5183
7211 40
7211 2792
7211 5276
7212 223
7212 2677
7212 5128
7213 207
7213 2659
7213 5142
7214 149
7214 2569
7214 5296
7215 52
7215 2650
7215 5200
7216 102
7216 2611
7216 5247
7217 161
7217 2685
7217 5255
7218 18
7218 2732
7218 5237
7219 84
7219 2801
7219 5192
7220 128
7220 2674
7220 5325
7221 178
7221 2629
7221 5286
7222 160
7222 2719
7222 5303
7223 104
7223 2777
7223 5182
7224 1
7224 2572
7224 5349
7225 24
7225 2632
7225 5332
7226 150
7226 2814
7226 5267
7227 31
7227 2595
7227 5188
7228 61
7228 2592
7228 5216
7229 193
7229 2626
7229 5227
7230 218
7230 2561
7230 5295
7231 240
7231 2636
7231 5163
7232 62
7232 2568
7232 5193
7233 158
7233 2805
7233 5129
7234 129
7234 2741
7234 5355
7235 208
7235 2567
7235 5249
7236 220
7236 2749
7236 5124
7237 168
7237 2755
7237 5232
7238 195
7238 2654
7238 5348
7239 230
7239 2613
7239 5363
7240 97
7240 2720
7240 5224
7241 249
7241 2689
7241 5318
7242 175
7242 2623
7242 5230
7243 159
7243 2606
7243 5278
7244 68
7244 2620
7244 5171
7245 75
7245 2712
7245 5197
7246 187
7246 2733
7246 5315
7247 232
7247 2602
7247 5283
7248 23
7248 2793
7248 5297
7249 228
7249 2798
7249 5172
7250 200
7250 2624
7250 5264
7251 114
7251 2575
7251 5245
7252 120
7252 2663
7252 5360
7253 237
7253 2601
7253 5305
7254 119
7254 2604
7254 5340
7255 48
7255 2772
7255 5370
7256 157
7256 2579
7256 5132
7257 247
7257 2576
7257 5204
7258 163
7258 2743
7258 5126
7259 123
7259 2635
7259 5372
7260 71
7260 2730
7260 5199
7261 151
7261 2724
7261 5353
7262 189
7262 2562
7262 5339
7263 67
7263 2727
7263 5331
7264 241
7264 2684
7264 5238
7265 225
7265 2573
7265 5177
7266 46
7266 2649
7266 5178
7267 85
7267 2655
7267 5326
7268 235
7268 2617
7268 5123
7269 171
7269 2811
7269 5285
7270 96
7270 2672
7270 5291
7271 132
7271 2709
7271 5344
7272 93
7272 2770
7272 5143
7273 206
7273 2721
7273 5371
7274 229
7274 2661
7274 5210
7275 37
7275 2585
7275 5366
7276 166
7276 2637
7276 5365
7277 118
7277 2625
7277 5333
7278 49
7278 2702
7278 5181
7279 6
7279 2710
7279 5298
7280 183
7280 2809
7280 5130
7281 203
7281 2738
7281 5221
7282 116
7282 2619
7282 5275
7283 204
7283 2657
7283 5158
7284 254
7284 2731
7284 5229
7285 25
7285 2780
7285 5358
7286 188
7286 2594
7286 5364
7287 147
7287 2578
7287 5179
7288 253
7288 2690
7288 5352
7289 81
7289 2630
7289 5314
7290 242
7290 2788
7290 5346
7291 148
7291 2582
7291 5374
7292 7
7292 2762
7292 5242
7293 252
7293 2605
7293 5246
7294 139
7294 2758
7294 5135
7295 66
7295 2812
7295 5260
7296 26
7296 2645
7296 5152
7297 169
7297 2599
7297 5138
7298 131
7298 2641
7298 5209
7299 22
7299 2715
7299 5310
7300 34
7300 2746
7300 5362
7301 146
7301 2767
7301 5153
7302 234
7302 2763
7302 5323
7303 83
7303 2563
7303 5367
7304 89
7304 2783
7304 5327
7305 248
7305 2653
7305 5121
7306 73
7306 2615
7306 5269
7307 194
7307 2658
7307 5309
7308 58
7308 2698
7308 5301
7309 170
7309 2786
7309 5164
7310 57
7310 2756
7310 5294
7311 42
7311 2640
7311 5184
7312 124
7312 2795
7312 5330
7313 2
7313 2600
7313 5284
7314 126
7314 2580
7314 5151
7315 78
7315 2688
7315 5161
7316 72
7316 2589
7316 5317
7317 185
7317 2676
7317 5254
7318 87
7318 2695
7318 5145
7319 45
7319 2806
7319 5369
7320 44
7320 2799
7320 5306
7321 29
7321 2700
7321 5304
7322 110
7322 2760
7322 5120
7323 217
7323 2608
7323 5272
7324 65
7324 2797
7324 5307
7325 15
7325 2752
7325 5144
7326 113
7326 2651
7326 5160
7327 231
7327 2571
7327 5319
7328 130
7328 2590
7328 5203
7329 174
7329 2660
7329 5350
7330 106
7330 2713
7330 5259
7331 121
7331 2560
7331 5168
7332 112
7332 2682
7332 5202
7333 167
7333 2751
7333 5250
7334 86
7334 2638
7334 5240
7335 94
7335 2790
7335 5140
7336 137
7336 2725
7336 5289
7337 177
7337 2757
7337 5234
7338 0
7338 2681
7338 5263
7339 54
7339 2634
7339 5176
7340 4
7340 2735
7340 5220
7341 190
7341 2581
7341 5328
7342 64
7342 2648
7342 5159
7343 115
7343 2583
7343 5241
7344 105
7344 2766
7344 5136
7345 90
7345 2810
7345 5175
7346 36
7346 2570
7346 5191
7347 39
7347 2574
7347 5169
7348 142
7348 2718
7348 5185
7349 33
7349 2734
7349 5335
7350 156
7350 2745
7350 5131
7351 135
7351 2564
7351 5268
7352 176
7352 2768
7352 5225
7353 184
7353 2687
7353 5156
7354 227
7354 2779
7354 5368
7355 8
7355 2680
7355 5243
7356 144
7356 2697
7356 5271
7357 201
7357 2782
7357 5361
7358 202
7358 2753
7358 5345
7359 199
7359 2673
7359 5212
7360 214
7360 2670
7360 5256
7361 179
7361 2726
7361 5173
7362 13
7362 2706
7362 5157
7363 238
7363 2701
7363 5266
7364 95
7364 2791
7364 5211
7365 70
7365 2667
7365 5196
7366 56
7366 2737
7366 5288
7367 244
7367 2622
7367 5281
7368 141
7368 2803
7368 5208
7369 164
7369 2764
7369 5251
7370 198
7370 2800
7370 5134
7371 165
7371 2587
7371 5252
7372 140
7372 2679
7372 5293
7373 92
7373 2671
7373 5149
7374 30
7374 2789
7374 5189
7375 251
7375 2643
7375 5223
7376 98
7376 2565
7376 5292
7377 221
7377 2774
7377 5357
7378 69
7378 2705
7378 5174
7379 74
7379 2717
7379 5287
7380 76
7380 2686
7380 5347
7381 145
7381 2754
7381 5302
7382 79
7382 2652
7382 5375
7383 182
7383 2771
7383 5248
7384 239
7384 2761
7384 5125
7385 122
7385 2787
7385 5334
7386 211
7386 2603
7386 5206
7387 143
7387 2723
7387 5280
7388 136
7388 2707
7388 5257
7389 155
7389 2696
7389 5127
7390 59
7390 2714
7390 5166
7391 11
7391 2781
7391 5373
7392 103
7392 2596
7392 5322
7393 255
7393 2664
7393 5155
7394 181
7394 2593
7394 5194
7395 219
7395 2742
7395 5356
7396 154
7396 2597
7396 5137
7397 236
7397 2765
7397 5329
7398 233
7398 2644
7398 5341
7399 21
7399 2759
7399 5312
7400 216
7400 2616
7400 5299
7401 226
7401 2639
7401 5148
7402 41
7402 2776
7402 5170
7403 191
7403 2748
7403 5122
7404 9
7404 2694
7404 5265
7405 60
7405 2647
7405 5205
7406 111
7406 2633
7406 5311
7407 152
7407 2668
7407 5351
7408 209
7408 2815
7408 5261
7409 243
7409 2778
7409 5190
7410 77
7410 2665
7410 5343
7411 172
7411 2683
7411 5337
7412 47
7412 2627
7412 5146
7413 80
7413 2802
7413 5239
7414 138
7414 2566
7414 5198
7415 10
7415 2736
7415 5273
7416 27
7416 2784
7416 5300
7417 210
7417 2591
7417 5308
7418 100
7418 2739
7418 5228
7419 38
7419 2813
7419 5270
7420 246
7420 2796
7420 5133
7421 28
7421 2609
7421 5338
7422 180
7422 2642
7422 5354
7423 109
7423 2588
7423 5274
7424 279
7424 3042
7424 3766
7425 482
7425 2828
7425 3739
7426 298
7426 2995
7426 3649
7427 473
7427 3030
7427 3723
7428 459
7428 2903
7428 3719
7429 356
7429 2937
7429 3600
7430 401
7430 2959
7430 3635
7431 478
7431 3021
7431 3830
7432 362
7432 3011
7432 3819
7433 376
7433 2891
7433 3701
7434 408
7434 2924
7434 3592
7435 416
7435 2965
7435 3770
7436 409
7436 3053
7436 3787
7437 490
7437 2922
7437 3652
7438 280
7438 3060
7438 3639
7439 485
7439 2865
7439 3595
7440 305
7440 2915
7440 3597
7441 474
7441 3004
7441 3671
7442 442
7442 3040
7442 3727
7443 283
7443 2909
7443 3815
7444 402
7444 3047
7444 3738
7445 339
7445 2908
7445 3684
7446 303
7446 3024
7446 3697
7447 306
7447 2858
7447 3683
7448 297
7448 2968
7448 3691
7449 324
7449 2896
7449 3744
7450 481
7450 2904
7450 3598
7451 469
7451 2845
7451 3783
7452 260
7452 2966
7452 3700
7453 431
7453 2988
7453 3716
7454 507
7454 2936
7454 3720
7455 398
7455 2948
7455 3626
7456 413
7456 2956
7456 3796
7457 366
7457 2834
7457 3605
7458 334
7458 2892
7458 3695
7459 287
7459 2818
7459 3803
7460 372
7460 2889
7460 3775
7461 345
7461 2951
7461 3608
7462 278
7462 2899
7462 3740
7463 337
7463 3054
7463 3677
7464 388
7464 3055
7464 3835
7465 374
7465 2897
7465 3758
7466 352
7466 3052
7466 3617
7467 495
7467 3001
7467 3667
7468 438
7468 2911
7468 3654
7469 418
7469 2997
7469 3805
7470 397
7470 3045
7470 3644
7471 325
7471 2864
7471 3612
7472 285
7472 2914
7472 3826
7473 365
7473 3036
7473 3810
7474 425
7474 3012
7474 3585
7475 461
7475 2999
7475 3685
7476 301
7476 2907
7476 3823
7477 383
7477 3007
7477 3779
7478 412
7478 3005
7478 3790
7479 367
7479 2837
7479 3789
7480 349
7480 2939
7480 3589
7481 291
7481 2873
7481 3601
7482 436
7482 2816
7482 3798
7483 504
7483 3032
7483 3657
7484 302
7484 2938
7484 3632
7485 312
7485 2947
7485 3713
7486 428
7486 3006
7486 3821
7487 326
7487 2928
7487 3797
7488 271
7488 3010
7488 3593
7489 439
7489 2906
7489 3616
7490 316
7490 2916
7490 3619
7491 444
7491 2831
7491 3767
7492 423
7492 2902
7492 3772
7493 405
7493 2984
7493 3628
7494 338
7494 2969
7494 3599
7495 456
7495 2866
7495 3722
7496 445
7496 2823
7496 3757
7497 486
7497 2835
7497 3768
7498 358
7498 2943
7498 3750
7499 257
7499 2975
7499 3725
7500 368
7500 2854
7500 3829
7501 343
7501 3051
7501 3698
7502 499
7502 3058
7502 3629
7503 292
7503 2852
7503 3831
7504 310
7504 2945
7504 3615
7505 347
7505 2950
7505 3656
7506 265
7506 2888
7506 3736
7507 332
7507 2919
7507 3813
7508 411
7508 2955
7508 3637
7509 455
7509 2867
7509 3679
7510 494
7510 2863
7510 3665
7511 294
7511 2974
7511 3610
7512 293
7512 2857
7512 3751
7513 321
7513 2877
7513 3781
7514 275
7514 2827
7514 3804
7515 407
7515 2949
7515 3646
7516 511
7516 2855
7516 3686
7517 422
7517 2932
7517 3673
7518 341
7518 2996
7518 3735
7519 322
7519 3018
7519 3653
7520 288
7520 3056
7520 3611
7521 317
7521 2979
7521 3670
7522 427
7522 2833
7522 3759
7523 488
7523 2920
7523 3746
7524 315
7524 2917
7524 3717
7525 261
7525 2883
7525 3613
7526 441
7526 3034
7526 3623
7527 480
7527 2977
7527 3631
7528 484
7528 3008
7528 3820
7529 434
7529 2869
7529 3764
7530 454
7530 3071
7530 3680
7531 308
7531 2848
7531 3711
7532 489
7532 3003
7532 3708
7533 432
7533 2882
7533 3696
7534 510
7534 3026
7534 3834
7535 509
7535 3017
7535 3658
7536 452
7536 2878
7536 3808
7537 389
7537 3022
7537 3596
7538 424
7538 2941
7538 3710
7539 500
7539 2952
7539 3801
7540 395
7540 2971
7540 3692
7541 256
7541 2840
7541 3726
7542 410
7542 2973
7542 3769
7543 357
7543 2832
7543 3752
7544 370
7544 2824
7544 3793
7545 282
7545 2934
7545 3627
7546 363
7546 2872
7546 3687
7547 468
7547 2819
7547 3681
7548 387
7548 2875
7548 3659
7549 348
7549 2880
7549 3748
7550 470
7550 2844
7550 3633
7551 394
7551 2881
7551 3827
7552 464
7552 2982
7552 3693
7553 430
7553 2985
7553 3584
7554 487
7554 2850
7554 3648
7555 457
7555 2851
7555 3663
7556 353
7556 2944
7556 3620
7557 463
7557 3020
7557 3828
7558 327
7558 2885
7558 3785
7559 284
7559 2930
7559 3731
7560 289
7560 2893
7560 3788
7561 331
7561 2839
7561 3742
7562 380
7562 3066
7562 3690
7563 391
7563 2843
7563 3794
7564 503
7564 3069
7564 3839
7565 460
7565 2989
7565 3761
7566 344
7566 2856
7566 3838
7567 491
7567 2822
7567 3743
7568 437
7568 2923
7568 3776
7569 453
7569 2926
7569 3606
7570 268
7570 2970
7570 3660
7571 404
7571 3064
7571 3812
7572 329
7572 2992
7572 3730
7573 508
7573 2895
7573 3602
7574 393
7574 3049
7574 3678
7575 309
7575 2964
7575 3814
7576 493
7576 2821
7576 3715
7577 505
7577 2976
7577 3734
7578 361
7578 2900
7578 3640
7579 476
7579 2836
7579 3694
7580 264
7580 2853
7580 3662
7581 346
7581 3063
7581 3714
7582 311
7582 2980
7582 3755
7583 472
7583 2940
7583 3792
7584 290
7584 2981
7584 3771
7585 403
7585 2838
7585 3588
7586 314
7586 2946
7586 3638
7587 386
7587 2905
7587 3705
7588 286
7588 2898
7588 3609
7589 414
7589 2842
7589 3618
7590 506
7590 3013
7590 3688
7591 471
7591 2830
7591 3800
7592 385
7592 2933
7592 3675
7593 267
7593 3027
7593 3822
7594 396
7594 2963
7594 3641
7595 501
7595 3059
7595 3706
7596 475
7596 3029
7596 3703
7597 304
7597 3023
7597 3729
7598 449
7598 2972
7598 3669
7599 269
7599 3048
7599 3747
7600 364
7600 2921
7600 3762
7601 379
7601 3037
7601 3625
7602 270
7602 2829
7602 3832
7603 307
7603 2825
7603 3791
7604 419
7604 2826
7604 3816
7605 355
7605 2886
7605 3707
7606 319
7606 2960
7606 3651
7607 340
7607 2870
7607 3756
7608 259
7608 2847
7608 3825
7609 477
7609 2961
7609 3802
7610 318
7610 3061
7610 3817
7611 420
7611 2879
7611 3774
7612 258
7612 2929
7612 3741
7613 281
7613 3031
7613 3672
7614 272
7614 2957
7614 3645
7615 360
7615 2884
7615 3621
7616 497
7616 2861
7616 3682
7617 462
7617 3014
7617 3614
7618 435
7618 2958
7618 3795
7619 447
7619 2954
7619 3664
7620 458
7620 3050
7620 3780
7621 273
7621 2978
7621 3760
7622 300
7622 3002
7622 3737
7623 443
7623 2942
7623 3709
7624 371
7624 3067
7624 3630
7625 320
7625 3065
7625 3773
7626 467
7626 2912
7626 3799
7627 433
7627 2935
7627 3721
7628 440
7628 2887
7628 3591
7629 263
7629 2874
7629 3765
7630 296
7630 2849
7630 3642
7631 377
7631 2913
7631 3655
7632 392
7632 2860
7632 3634
7633 277
7633 3016
7633 3809
7634 351
7634 3000
7634 3732
7635 276
7635 2991
7635 3607
7636 382
7636 3038
7636 3643
7637 369
7637 3009
7637 3603
7638 323
7638 3028
7638 3811
7639 354
7639 3015
7639 3786
7640 330
7640 3068
7640 3674
7641 384
7641 2993
7641 3836
7642 400
7642 3062
7642 3586
7643 336
7643 2901
7643 3666
7644 417
7644 2918
7644 3702
7645 492
7645 2910
7645 3668
7646 451
7646 2890
7646 3718
7647 421
7647 2962
7647 3650
7648 335
7648 2967
7648 3590
7649 375
7649 3044
7649 3733
7650 429
7650 3057
7650 3604
7651 359
7651 2986
7651 3806
7652 378
7652 3041
7652 3622
7653 448
7653 2994
7653 3833
7654 446
7654 2990
7654 3661
7655 342
7655 2841
7655 3778
7656 262
7656 2998
7656 3777
7657 381
7657 2925
7657 3647
7658 406
7658 2859
7658 3728
7659 373
7659 2983
7659 3699
7660 426
7660 2953
7660 3753
7661 399
7661 2931
7661 3754
7662 450
7662 3019
7662 3689
7663 266
7663 3070
7663 3818
7664 415
7664 2846
7664 3594
7665 299
7665 3025
7665 3837
7666 390
7666 2927
7666 3749
7667 333
7667 2871
7667 3824
7668 274
7668 3033
7668 3624
7669 350
7669 2987
7669 3704
7670 328
7670 3035
7670 3724
7671 479
7671 2876
7671 3807
7672 313
7672 2817
7672 3763
7673 465
7673 2820
7673 3587
7674 502
7674 2868
7674 3784
7675 498
7675 3043
7675 3712
7676 466
7676 3046
7676 3782
7677 295
7677 2894
7677 3745
7678 496
7678 3039
7678 3636
7679 483
7679 2862
7679 3676
7680 586
7680 3125
7680 3993
7681 637
7681 3325
7681 3946
7682 665
7682 3322
7682 3933
7683 607
7683 3188
7683 3970
7684 568
7684 3241
7684 3976
7685 626
7685 3272
7685 3931
7686 662
7686 3249
7686 3924
7687 533
7687 3217
7687 4060
7688 703
7688 3237
7688 3956
7689 705
7689 3255
7689 3845
7690 619
7690 3225
7690 3951
7691 582
7691 3138
7691 4048
7692 594
7692 3088
7692 3899
7693 539
7693 3233
7693 3955
7694 540
7694 3222
7694 4013
7695 672
7695 3278
7695 3989
7696 560
7696 3234
7696 3883
7697 691
7697 3135
7697 3864
7698 763
7698 3137
7698 3954
7699 645
7699 3306
7699 3892
7700 554
7700 3193
7700 3847
7701 701
7701 3211
7701 4053
7702 663
7702 3097
7702 4059
7703 541
7703 3081
7703 4042
7704 660
7704 3173
7704 3850
7705 599
7705 3327
7705 4045
7706 707
7706 3317
7706 3997
7707 694
7707 3244
7707 3853
7708 521
7708 3257
7708 3910
7709 575
7709 3275
7709 4025
7710 676
7710 3263
7710 3958
7711 666
7711 3305
7711 3857
7712 513
7712 3092
7712 3987
7713 534
7713 3232
7713 3841
7714 572
7714 3159
7714 3983
7715 696
7715 3250
7715 3889
7716 605
7716 3084
7716 4017
7717 740
7717 3189
7717 3881
7718 551
7718 3315
7718 4088
7719 717
7719 3286
7719 3865
7720 523
7720 3288
7720 3894
7721 713
7721 3298
7721 4094
7722 548
7722 3148
7722 3908
7723 719
7723 3308
7723 4090
7724 736
7724 3184
7724 3904
7725 543
7725 3095
7725 3918
7726 720
7726 3200
7726 3988
7727 752
7727 3153
7727 3852
7728 764
7728 3093
7728 4007
7729 623
7729 3253
7729 4014
7730 709
7730 3169
7730 4004
7731 566
7731 3251
7731 4024
7732 516
7732 3152
7732 3972
7733 742
7733 3106
7733 4055
7734 550
7734 3172
7734 3927
7735 556
7735 3295
7735 4056
7736 538
7736 3075
7736 3887
7737 519
7737 3294
7737 4086
7738 766
7738 3235
7738 3960
7739 528
7739 3101
7739 4091
7740 612
7740 3320
7740 3926
7741 755
7741 3274
7741 3909
7742 569
7742 3186
7742 4082
7743 518
7743 3118
7743 3953
7744 698
7744 3181
7744 3849
7745 695
7745 3309
7745 3980
7746 754
7746 3224
7746 3950
7747 515
7747 3180
7747 4015
7748 577
7748 3209
7748 3948
7749 641
7749 3085
7749 3921
7750 580
7750 3310
7750 3902
7751 535
7751 3268
7751 3888
7752 647
7752 3285
7752 4084
7753 651
7753 3136
7753 3917
7754 642
7754 3117
7754 4078
7755 595
7755 3144
7755 3974
7756 520
7756 3103
7756 4006
7757 601
7757 3098
7757 3863
7758 557
7758 3201
7758 3941
7759 639
7759 3146
7759 3920
7760 588
7760 3077
7760 4052
7761 546
7761 3160
7761 3935
7762 624
7762 3082
7762 3966
7763 722
7763 3289
7763 3867
7764 737
7764 3178
7764 3945
7765 650
7765 3115
7765 3871
7766 716
7766 3299
7766 3944
7767 517
7767 3292
7767 3919
7768 644
7768 3236
7768 4023
7769 674
7769 3276
7769 3897
7770 730
7770 3162
7770 3890
7771 749
7771 3094
7771 3973
7772 638
7772 3190
7772 3872
7773 573
7773 3300
7773 3923
7774 634
7774 3326
7774 4057
7775 542
7775 3316
7775 4010
7776 620
7776 3245
7776 3862
7777 689
7777 3248
7777 3905
7778 750
7778 3304
7778 3936
7779 609
7779 3311
7779 3959
7780 633
7780 3108
7780 4030
7781 561
7781 3242
7781 3886
7782 723
7782 3221
7782 4093
7783 765
7783 3177
7783 3896
7784 748
7784 3182
7784 3912
7785 758
7785 3307
7785 3893
7786 658
7786 3214
7786 4080
7787 679
7787 3119
7787 3914
7788 593
7788 3099
7788 4021
7789 576
7789 3258
7789 3991
7790 659
7790 3141
7790 3913
7791 708
7791 3246
7791 3975
7792 632
7792 3254
7792 4047
7793 621
7793 3265
7793 3916
7794 741
7794 3219
7794 3949
7795 635
7795 3080
7795 3943
7796 759
7796 3134
7796 3861
7797 688
7797 3171
7797 3957
7798 614
7798 3105
7798 3990
7799 559
7799 3302
7799 4022
7800 734
7800 3296
7800 4050
7801 552
7801 3303
7801 3859
7802 631
7802 3194
7802 3907
7803 591
7803 3102
7803 4085
7804 760
7804 3318
7804 3884
7805 664
7805 3259
7805 4026
7806 711
7806 3273
7806 3939
7807 727
7807 3145
7807 3877
7808 587
7808 3079
7808 4062
7809 702
7809 3321
7809 4003
7810 585
7810 3109
7810 4063
7811 725
7811 3196
7811 4012
7812 597
7812 3210
7812 4067
7813 598
7813 3319
7813 4037
7814 657
7814 3112
7814 4029
7815 683
7815 3086
7815 4044
7816 710
7816 3123
7816 3891
7817 630
7817 3175
7817 4001
7818 544
7818 3284
7818 4027
7819 721
7819 3197
7819 4036
7820 652
7820 3168
7820 3844
7821 565
7821 3150
7821 3855
7822 739
7822 3287
7822 3929
7823 567
7823 3281
7823 3999
7824 757
7824 3260
7824 3928
7825 712
7825 3147
7825 3986
7826 714
7826 3120
7826 3967
7827 692
7827 3204
7827 3938
7828 536
7828 3114
7828 3856
7829 726
7829 3078
7829 3947
7830 680
7830 3073
7830 4043
7831 583
7831 3266
7831 4028
7832 558
7832 3127
7832 3911
7833 589
7833 3157
7833 4046
7834 514
7834 3161
7834 3930
7835 733
7835 3170
7835 3895
7836 684
7836 3179
7836 4002
7837 667
7837 3100
7837 3885
7838 677
7838 3113
7838 3903
7839 547
7839 3076
7839 3940
7840 526
7840 3083
7840 4072
7841 655
7841 3223
7841 3900
7842 724
7842 3301
7842 3962
7843 512
7843 3218
7843 3906
7844 522
7844 3187
7844 3880
7845 669
7845 3220
7845 3971
7846 735
7846 3192
7846 3870
7847 622
7847 3133
7847 3984
7848 611
7848 3256
7848 4051
7849 761
7849 3231
7849 4035
7850 690
7850 3130
7850 3992
7851 682
7851 3195
7851 3934
7852 654
7852 3198
7852 4019
7853 704
7853 3128
7853 4070
7854 564
7854 3155
7854 4032
7855 699
7855 3212
7855 4031
7856 675
7856 3243
7856 4033
7857 549
7857 3277
7857 4018
7858 563
7858 3229
7858 4058
7859 718
7859 3124
7859 4038
7860 668
7860 3089
7860 3981
7861 640
7861 3270
7861 3942
7862 648
7862 3226
7862 3873
7863 756
7863 3230
7863 3840
7864 687
7864 3121
7864 4020
7865 746
7865 3215
7865 4095
7866 608
7866 3107
7866 3875
7867 590
7867 3165
7867 3977
7868 653
7868 3104
7868 3996
7869 606
7869 3151
7869 3979
7870 531
7870 3208
7870 4065
7871 532
7871 3280
7871 4068
7872 697
7872 3239
7872 3925
7873 627
7873 3087
7873 3868
7874 693
7874 3207
7874 3978
7875 616
7875 3122
7875 4009
7876 570
7876 3293
7876 3937
7877 618
7877 3247
7877 3843
7878 762
7878 3199
7878 3901
7879 643
7879 3264
7879 3995
7880 670
7880 3313
7880 3874
7881 686
7881 3111
7881 3878
7882 753
7882 3096
7882 4061
7883 678
7883 3139
7883 3994
7884 604
7884 3240
7884 4016
7885 625
7885 3074
7885 4049
7886 525
7886 3158
7886 3965
7887 578
7887 3206
7887 4073
7888 767
7888 3110
7888 4079
7889 685
7889 3213
7889 4081
7890 649
7890 3271
7890 4034
7891 629
7891 3252
7891 3998
7892 610
7892 3323
7892 3961
7893 729
7893 3156
7893 3876
7894 636
7894 3072
7894 4071
7895 706
7895 3269
7895 4008
7896 681
7896 3149
7896 4066
7897 745
7897 3132
7897 4000
7898 524
7898 3191
7898 4092
7899 731
7899 3116
7899 3968
7900 596
7900 3176
7900 4077
7901 671
7901 3282
7901 4074
7902 617
7902 3291
7902 3848
7903 579
7903 3203
7903 3969
7904 537
7904 3312
7904 3846
7905 553
7905 3126
7905 4069
7906 751
7906 3290
7906 4087
7907 628
7907 3228
7907 3898
7908 584
7908 3090
7908 3869
7909 545
7909 3324
7909 4076
7910 700
7910 3166
7910 3915
7911 646
7911 3154
7911 4039
7912 715
7912 3129
7912 3879
7913 602
7913 3202
7913 4083
7914 600
7914 3267
7914 4075
7915 574
7915 3283
7915 4040
7916 603
7916 3131
7916 4064
7917 581
7917 3314
7917 3882
7918 673
7918 3164
7918 3866
7919 527
7919 3174
7919 4005
7920 732
7920 3091
7920 3851
7921 615
7921 3261
7921 3858
7922 747
7922 3163
7922 3932
7923 571
7923 3183
7923 4054
7924 555
7924 3297
7924 3985
7925 661
7925 3227
7925 4041
7926 738
7926 3262
7926 3854
7927 529
7927 3216
7927 4011
7928 743
7928 3185
7928 3964
7929 744
7929 3205
7929 3982
7930 728
7930 3279
7930 3922
7931 592
7931 3142
7931 4089
7932 656
7932 3238
7932 3963
7933 562
7933 3140
7933 3952
7934 613
7934 3167
7934 3860
7935 530
7935 3143
7935 3842
7936 1016
7936 3502
7936 4277
7937 919
7937 3509
7937 4109
7938 834
7938 3494
7938 4344
7939 976
7939 3331
7939 4293
7940 1019
7940 3486
7940 4260
7941 990
7941 3544
7941 4140
7942 897
7942 3458
7942 4250
7943 909
7943 3548
7943 4224
7944 770
7944 3354
7944 4258
7945 911
7945 3563
7945 4338
7946 933
7946 3361
7946 4138
7947 851
7947 3380
7947 4240
7948 956
7948 3574
7948 4104
7949 821
7949 3467
7949 4174
7950 855
7950 3355
7950 4185
7951 934
7951 3419
7951 4178
7952 871
7952 3421
7952 4186
7953 886
7953 3457
7953 4119
7954 817
7954 3381
7954 4269
7955 792
7955 3479
7955 4280
7956 975
7956 3539
7956 4204
7957 973
7957 3500
7957 4334
7958 786
7958 3329
7958 4225
7959 995
7959 3541
7959 4154
7960 985
7960 3456
7960 4348
7961 1008
7961 3463
7961 4336
7962 900
7962 3408
7962 4105
7963 992
7963 3487
7963 4176
7964 844
7964 3356
7964 4197
7965 890
7965 3417
7965 4308
7966 827
7966 3336
7966 4141
7967 957
7967 3379
7967 4320
7968 864
7968 3577
7968 4171
7969 778
7969 3572
7969 4294
7970 916
7970 3338
7970 4314
7971 938
7971 3328
7971 4193
7972 805
7972 3496
7972 4121
7973 881
7973 3476
7973 4200
7974 1004
7974 3402
7974 4128
7975 843
7975 3441
7975 4155
7976 1015
7976 3447
7976 4241
7977 830
7977 3337
7977 4248
7978 842
7978 3466
7978 4168
7979 875
7979 3543
7979 4297
7980 847
7980 3522
7980 4134
7981 833
7981 3332
7981 4249
7982 776
7982 3429
7982 4215
7983 922
7983 3551
7983 4291
7984 873
7984 3407
7984 4098
7985 893
7985 3346
7985 4164
7986 816
7986 3568
7986 4311
7987 917
7987 3399
7987 4318
7988 863
7988 3492
7988 4110
7989 794
7989 3516
7989 4145
7990 818
7990 3372
7990 4345
7991 991
7991 3565
7991 4097
7992 859
7992 3493
7992 4309
7993 787
7993 3364
7993 4267
7994 808
7994 3576
7994 4221
7995 868
7995 3505
7995 4342
7996 1017
7996 3564
7996 4232
7997 948
7997 3534
7997 4149
7998 925
7998 3415
7998 4238
7999 945
7999 3406
7999 4331
8000 825
8000 3511
8000 4340
8001 915
8001 3353
8001 4288
8002 804
8002 3573
8002 4270
8003 999
8003 3404
8003 4143
8004 880
8004 3470
8004 4196
8005 837
8005 3401
8005 4115
8006 929
8006 3465
8006 4310
8007 898
8007 3451
8007 4118
8008 969
8008 3422
8008 4350
8009 972
8009 3431
8009 4251
8010 774
8010 3362
8010 4230
8011 901
8011 3377
8011 4187
8012 944
8012 3468
8012 4170
8013 943
8013 3398
8013 4208
8014 920
8014 3482
8014 4332
8015 829
8015 3553
8015 4189
8016 826
8016 3579
8016 4182
8017 998
8017 3374
8017 4123
8018 891
8018 3392
8018 4282
8019 935
8019 3426
8019 4226
8020 860
8020 3396
8020 4325
8021 798
8021 3360
8021 4324
8022 965
8022 3504
8022 4188
8023 994
8023 3507
8023 4231
8024 791
8024 3554
8024 4175
8025 952
8025 3349
8025 4173
8026 835
8026 3373
8026 4237
8027 852
8027 3343
8027 4166
8028 996
8028 3527
8028 4259
8029 997
8029 3460
8029 4147
8030 878
8030 3347
8030 4156
8031 970
8031 3473
8031 4255
8032 931
8032 3478
8032 4219
8033 812
8033 3454
8033 4206
8034 1023
8034 3583
8034 4114
8035 831
8035 3535
8035 4117
8036 1011
8036 3461
8036 4322
8037 858
8037 3359
8037 4242
8038 832
8038 3388
8038 4263
8039 936
8039 3560
8039 4191
8040 961
8040 3425
8040 4301
8041 1009
8041 3452
8041 4279
8042 867
8042 3533
8042 4125
8043 986
8043 3410
8043 4254
8044 932
8044 3385
8044 4157
8045 780
8045 3344
8045 4099
8046 914
8046 3423
8046 4216
8047 959
8047 3490
8047 4209
8048 1002
8048 3575
8048 4146
8049 815
8049 3515
8049 4151
8050 883
8050 3524
8050 4150
8051 955
8051 3566
8051 4116
8052 885
8052 3489
8052 4316
8053 777
8053 3536
8053 4262
8054 784
8054 3369
8054 4245
8055 924
8055 3411
8055 4167
8056 930
8056 3557
8056 4256
8057 823
8057 3582
8057 4299
8058 951
8058 3514
8058 4275
8059 824
8059 3517
8059 4212
8060 953
8060 3464
8060 4103
8061 799
8061 3370
8061 4107
8062 848
8062 3523
8062 4220
8063 907
8063 3545
8063 4137
8064 802
8064 3498
8064 4333
8065 928
8065 3495
8065 4335
8066 927
8066 3357
8066 4286
8067 849
8067 3525
8067 4203
8068 892
8068 3358
8068 4284
8069 987
8069 3484
8069 4227
8070 773
8070 3382
8070 4192
8071 887
8071 3436
8071 4184
8072 790
8072 3405
8072 4132
8073 1000
8073 3378
8073 4228
8074 865
8074 3444
8074 4252
8075 884
8075 3526
8075 4205
8076 1018
8076 3334
8076 4183
8077 870
8077 3387
8077 4278
8078 845
8078 3506
8078 4106
8079 968
8079 3555
8079 4306
8080 979
8080 3549
8080 4300
8081 846
8081 3562
8081 4100
8082 775
8082 3351
8082 4319
8083 768
8083 3508
8083 4244
8084 912
8084 3521
8084 4268
8085 793
8085 3485
8085 4343
8086 958
8086 3342
8086 4142
8087 980
8087 3510
8087 4292
8088 950
8088 3462
8088 4111
8089 982
8089 3434
8089 4101
8090 913
8090 3365
8090 4304
8091 918
8091 3416
8091 4162
8092 856
8092 3569
8092 4198
8093 838
8093 3439
8093 4285
8094 902
8094 3567
8094 4235
8095 966
8095 3335
8095 4129
8096 803
8096 3345
8096 4210
8097 1001
8097 3529
8097 4265
8098 772
8098 3538
8098 4214
8099 782
8099 3368
8099 4246
8100 857
8100 3480
8100 4305
8101 977
8101 3491
8101 4194
8102 785
8102 3469
8102 4152
8103 841
8103 3400
8103 4312
8104 971
8104 3519
8104 4181
8105 960
8105 3430
8105 4264
8106 781
8106 3363
8106 4130
8107 967
8107 3350
8107 4144
8108 807
8108 3552
8108 4272
8109 879
8109 3433
8109 4302
8110 989
8110 3389
8110 4247
8111 811
8111 3571
8111 4179
8112 869
8112 3578
8112 4266
8113 769
8113 3432
8113 4211
8114 983
8114 3339
8114 4113
8115 882
8115 3540
8115 4329
8116 828
8116 3528
8116 4163
8117 800
8117 3371
8117 4135
8118 813
8118 3497
8118 4239
8119 840
8119 3477
8119 4276
8120 866
8120 3394
8120 4261
8121 1012
8121 3435
8121 4271
8122 894
8122 3537
8122 4126
8123 795
8123 3390
8123 4327
8124 981
8124 3352
8124 4112
8125 814
8125 3437
8125 4317
8126 888
8126 3340
8126 4243
8127 923
8127 3341
8127 4201
8128 984
8128 3532
8128 4328
8129 993
8129 3474
8129 4274
8130 1013
8130 3427
8130 4298
8131 876
8131 3367
8131 4223
8132 908
8132 3443
8132 4202
8133 962
8133 3384
8133 4295
8134 1010
8134 3499
8134 4289
8135 903
8135 3376
8135 4287
8136 1021
8136 3453
8136 4296
8137 836
8137 3488
8137 4120
8138 939
8138 3393
8138 4323
8139 819
8139 3561
8139 4321
8140 853
8140 3570
8140 4124
8141 872
8141 3547
8141 4133
8142 874
8142 3558
8142 4273
8143 806
8143 3475
8143 4229
8144 1020
8144 3449
8144 4222
8145 789
8145 3471
8145 4290
8146 1014
8146 3546
8146 4195
8147 822
8147 3472
8147 4165
8148 905
8148 3559
8148 4148
8149 942
8149 3483
8149 4346
8150 877
8150 3420
8150 4136
8151 862
8151 3501
8151 4236
8152 946
8152 3442
8152 4158
8153 895
8153 3440
8153 4315
8154 820
8154 3518
8154 4303
8155 1007
8155 3581
8155 4153
8156 1005
8156 3446
8156 4190
8157 779
8157 3424
8157 4330
8158 949
8158 3542
8158 4339
8159 963
8159 3580
8159 4349
8160 1006
8160 3409
8160 4217
8161 788
8161 3530
8161 4160
8162 839
8162 3386
8162 4096
8163 783
8163 3403
8163 4102
8164 974
8164 3330
8164 4108
8165 941
8165 3428
8165 4326
8166 904
8166 3445
8166 4283
8167 861
8167 3414
8167 4281
8168 797
8168 3418
8168 4199
8169 810
8169 3481
8169 4177
8170 1003
8170 3455
8170 4234
8171 906
8171 3348
8171 4161
8172 1022
8172 3366
8172 4207
8173 978
8173 3375
8173 4313
8174 947
8174 3520
8174 4218
8175 988
8175 3503
8175 4159
8176 921
8176 3459
8176 4180
8177 896
8177 3397
8177 4233
8178 850
8178 3383
8178 4213
8179 801
8179 3333
8179 4351
8180 796
8180 3450
8180 4139
8181 910
8181 3531
8181 4347
8182 937
8182 3556
8182 4307
8183 854
8183 3512
8183 4341
8184 809
8184 3448
8184 4169
8185 940
8185 3513
8185 4131
8186 964
8186 3413
8186 4172
8187 889
8187 3550
8187 4253
8188 954
8188 3412
8188 4127
8189 771
8189 3391
8189 4337
8190 926
8190 3395
8190 4122
8191 899
8191 3438
8191 4257
8192 1148
8192 1832
8192 4482
8193 1073
8193 1959
8193 4473
8194 1197
8194 1841
8194 4442
8195 1106
8195 1839
8195 4383
8196 1242
8196 1920
8196 4436
8197 1178
8197 1849
8197 4579
8198 1252
8198 2010
8198 4560
8199 1186
8199 1903
8199 4518
8200 1211
8200 1822
8200 4593
8201 1205
8201 1860
8201 4606
8202 1213
8202 2009
8202 4541
8203 1145
8203 1812
8203 4412
8204 1123
8204 1936
8204 4479
8205 1214
8205 1880
8205 4453
8206 1069
8206 1927
8206 4526
8207 1084
8207 1909
8207 4414
8208 1189
8208 1955
8208 4461
8209 1245
8209 1818
8209 4520
8210 1116
8210 1904
8210 4381
8211 1061
8211 1868
8211 4552
8212 1264
8212 1830
8212 4494
8213 1238
8213 2012
8213 4487
8214 1118
8214 2029
8214 4410
8215 1035
8215 1971
8215 4523
8216 1085
8216 1905
8216 4367
8217 1078
8217 1942
8217 4555
8218 1038
8218 1825
8218 4420
8219 1071
8219 2035
8219 4546
8220 1204
8220 1808
8220 4478
8221 1271
8221 2002
8221 4477
8222 1125
8222 1917
8222 4538
8223 1218
8223 1962
8223 4561
8224 1184
8224 1966
8224 4489
8225 1111
8225 1915
8225 4464
8226 1097
8226 2022
8226 4539
8227 1278
8227 1957
8227 4543
8228 1263
8228 2043
8228 4493
8229 1136
8229 1974
8229 4534
8230 1058
8230 1961
8230 4401
8231 1208
8231 2036
8231 4408
8232 1171
8232 1945
8232 4379
8233 1119
8233 1883
8233 4567
8234 1163
8234 1811
8234 4404
8235 1094
8235 2015
8235 4515
8236 1261
8236 1840
8236 4586
8237 1090
8237 1816
8237 4456
8238 1026
8238 1939
8238 4450
8239 1236
8239 1881
8239 4413
8240 1251
8240 1910
8240 4547
8241 1165
8241 2017
8241 4434
8242 1170
8242 1987
8242 4393
8243 1225
8243 1802
8243 4356
8244 1195
8244 1989
8244 4524
8245 1259
8245 1876
8245 4491
8246 1272
8246 1923
8246 4424
8247 1104
8247 1884
8247 4399
8248 1192
8248 1911
8248 4415
8249 1093
8249 1826
8249 4498
8250 1092
8250 2018
8250 4559
8251 1081
8251 1835
8251 4532
8252 1131
8252 1912
8252 4359
8253 1279
8253 1827
8253 4475
8254 1130
8254 1906
8254 4468
8255 1036
8255 1926
8255 4592
8256 1191
8256 1852
8256 4550
8257 1074
8257 1807
8257 4503
8258 1199
8258 1914
8258 4582
8259 1041
8259 1828
8259 4430
8260 1103
8260 1934
8260 4454
8261 1157
8261 1797
8261 4360
8262 1138
8262 1944
8262 4387
8263 1276
8263 1973
8263 4426
8264 1207
8264 1888
8264 4352
8265 1198
8265 1976
8265 4459
8266 1232
8266 1996
8266 4458
8267 1156
8267 1925
8267 4576
8268 1060
8268 1848
8268 4391
8269 1139
8269 1956
8269 4361
8270 1226
8270 1820
8270 4382
8271 1142
8271 2045
8271 4597
8272 1029
8272 1931
8272 4416
8273 1266
8273 1857
8273 4402
8274 1065
8274 1799
8274 4508
8275 1109
8275 2044
8275 4566
8276 1220
8276 2039
8276 4362
8277 1223
8277 1986
8277 4357
8278 1247
8278 1928
8278 4504
8279 1047
8279 1953
8279 4369
8280 1228
8280 2023
8280 4591
8281 1150
8281 1933
8281 4431
8282 1158
8282 1967
8282 4607
8283 1269
8283 1895
8283 4371
8284 1099
8284 1901
8284 4562
8285 1057
8285 1815
8285 4485
8286 1101
8286 2007
8286 4465
8287 1114
8287 1913
8287 4585
8288 1258
8288 1823
8288 4389
8289 1173
8289 1891
8289 4500
8290 1234
8290 1999
8290 4510
8291 1126
8291 1947
8291 4580
8292 1055
8292 1887
8292 4368
8293 1068
8293 2003
8293 4536
8294 1262
8294 1893
8294 4496
8295 1045
8295 1897
8295 4556
8296 1217
8296 1941
8296 4448
8297 1167
8297 1834
8297 4363
8298 1152
8298 1836
8298 4603
8299 1051
8299 1932
8299 4462
8300 1076
8300 2041
8300 4501
8301 1222
8301 1814
8301 4505
8302 1044
8302 1983
8302 4535
8303 1135
8303 2047
8303 4563
8304 1059
8304 1982
8304 4601
8305 1113
8305 1969
8305 4375
8306 1182
8306 1902
8306 4444
8307 1062
8307 1964
8307 4537
8308 1121
8308 2046
8308 4469
8309 1037
8309 1817
8309 4514
8310 1067
8310 1829
8310 4380
8311 1046
8311 1879
8311 4558
8312 1212
8312 1995
8312 4396
8313 1052
8313 1958
8313 4588
8314 1227
8314 1952
8314 4354
8315 1215
8315 1869
8315 4544
8316 1180
8316 1968
8316 4480
8317 1240
8317 1924
8317 4533
8318 1133
8318 1892
8318 4407
8319 1040
8319 2019
8319 4474
8320 1091
8320 2033
8320 4516
8321 1176
8321 1975
8321 4355
8322 1193
8322 1872
8322 4502
8323 1255
8323 1950
8323 4437
8324 1039
8324 1824
8324 4604
8325 1095
8325 1854
8325 4595
8326 1200
8326 1873
8326 4446
8327 1117
8327 1997
8327 4507
8328 1243
8328 1981
8328 4429
8329 1206
8329 1866
8329 4574
8330 1235
8330 1991
8330 4445
8331 1179
8331 1972
8331 4471
8332 1231
8332 2042
8332 4374
8333 1053
8333 1978
8333 4366
8334 1169
8334 1970
8334 4386
8335 1221
8335 1803
8335 4545
8336 1177
8336 1874
8336 4419
8337 1030
8337 2032
8337 4463
8338 1072
8338 1846
8338 4443
8339 1124
8339 1875
8339 4425
8340 1127
8340 1833
8340 4433
8341 1075
8341 1898
8341 4564
8342 1183
8342 1871
8342 4584
8343 1164
8343 2031
8343 4509
8344 1108
8344 1856
8344 4427
8345 1031
8345 1960
8345 4428
8346 1277
8346 1805
8346 4406
8347 1141
8347 1810
8347 4581
8348 1229
8348 1949
8348 4372
8349 1267
8349 1929
8349 4596
8350 1202
8350 1806
8350 4365
8351 1143
8351 1993
8351 4370
8352 1086
8352 1843
8352 4519
8353 1134
8353 1916
8353 4435
8354 1120
8354 1793
8354 4392
8355 1237
8355 1855
8355 4528
8356 1048
8356 1963
8356 4570
8357 1246
8357 2037
8357 4554
8358 1210
8358 1809
8358 4540
8359 1083
8359 1870
8359 4511
8360 1201
8360 1850
8360 4530
8361 1166
8361 2011
8361 4376
8362 1185
8362 1804
8362 4422
8363 1079
8363 1792
8363 4455
8364 1077
8364 1796
8364 4466
8365 1129
8365 1867
8365 4421
8366 1110
8366 1943
8366 4377
8367 1115
8367 1858
8367 4484
8368 1162
8368 2014
8368 4529
8369 1034
8369 1954
8369 4398
8370 1161
8370 1896
8370 4575
8371 1149
8371 1794
8371 4602
8372 1056
8372 1847
8372 4572
8373 1042
8373 1885
8373 4492
8374 1105
8374 1930
8374 4432
8375 1168
8375 1998
8375 4397
8376 1233
8376 2021
8376 4605
8377 1096
8377 1965
8377 4467
8378 1160
8378 1946
8378 4577
8379 1025
8379 2024
8379 4553
8380 1066
8380 1859
8380 4439
8381 1274
8381 2027
8381 4457
8382 1209
8382 2008
8382 4403
8383 1175
8383 1908
8383 4472
8384 1146
8384 2038
8384 4551
8385 1089
8385 1890
8385 4590
8386 1244
8386 2001
8386 4385
8387 1128
8387 1862
8387 4394
8388 1087
8388 1821
8388 4521
8389 1256
8389 2026
8389 4548
8390 1049
8390 2025
8390 4599
8391 1140
8391 1935
8391 4569
8392 1159
8392 1992
8392 4476
8393 1033
8393 1831
8393 4594
8394 1088
8394 2030
8394 4373
8395 1122
8395 1938
8395 4364
8396 1230
8396 1980
8396 4495
8397 1153
8397 1940
8397 4441
8398 1268
8398 2016
8398 4490
8399 1250
8399 1907
8399 4578
8400 1137
8400 1900
8400 4388
8401 1241
8401 1985
8401 4481
8402 1239
8402 1994
8402 4513
8403 1112
8403 1813
8403 4378
8404 1219
8404 2000
8404 4557
8405 1098
8405 1838
8405 4417
8406 1196
8406 2020
8406 4418
8407 1064
8407 1948
8407 4512
8408 1027
8408 1878
8408 4517
8409 1253
8409 1951
8409 4440
8410 1172
8410 1919
8410 4568
8411 1050
8411 1977
8411 4447
8412 1107
8412 1819
8412 4438
8413 1187
8413 1798
8413 4573
8414 1181
8414 1844
8414 4497
8415 1155
8415 1851
8415 4527
8416 1080
8416 2040
8416 4506
8417 1043
8417 2034
8417 4486
8418 1024
8418 1922
8418 4583
8419 1144
8419 1842
8419 4358
8420 1174
8420 1795
8420 4384
8421 1265
8421 2005
8421 4525
8422 1224
8422 1882
8422 4589
8423 1154
8423 1921
8423 4470
8424 1028
8424 1886
8424 4571
8425 1248
8425 1864
8425 4565
8426 1216
8426 1845
8426 4488
8427 1260
8427 1984
8427 4409
8428 1082
8428 1865
8428 4400
8429 1194
8429 1861
8429 4483
8430 1102
8430 1853
8430 4395
8431 1063
8431 2013
8431 4411
8432 1188
8432 2028
8432 4460
8433 1054
8433 1918
8433 4449
8434 1275
8434 2004
8434 4600
8435 1190
8435 2006
8435 4451
8436 1254
8436 1988
8436 4390
8437 1147
8437 1990
8437 4549
8438 1249
8438 1889
8438 4587
8439 1203
8439 1899
8439 4353
8440 1257
8440 1937
8440 4499
8441 1270
8441 1877
8441 4598
8442 1273
8442 1979
8442 4405
8443 1151
8443 1894
8443 4452
8444 1132
8444 1801
8444 4542
8445 1100
8445 1837
8445 4522
8446 1070
8446 1863
8446 4423
8447 1032
8447 1800
8447 4531
8448 1309
8448 2126
8448 4849
8449 1321
8449 2267
8449 4810
8450 1320
8450 2261
8450 4647
8451 1438
8451 2263
8451 4772
8452 1300
8452 2268
8452 4784
8453 1414
8453 2138
8453 4724
8454 1363
8454 2229
8454 4739
8455 1346
8455 2178
8455 4844
8456 1529
8456 2066
8456 4616
8457 1433
8457 2094
8457 4756
8458 1437
8458 2222
8458 4708
8459 1514
8459 2191
8459 4781
8460 1448
8460 2073
8460 4721
8461 1418
8461 2115
8461 4830
8462 1330
8462 2061
8462 4794
8463 1313
8463 2284
8463 4850
8464 1349
8464 2098
8464 4709
8465 1480
8465 2278
8465 4712
8466 1506
8466 2240
8466 4705
8467 1493
8467 2202
8467 4713
8468 1295
8468 2251
8468 4716
8469 1534
8469 2276
8469 4704
8470 1419
8470 2200
8470 4776
8471 1426
8471 2232
8471 4790
8472 1484
8472 2294
8472 4718
8473 1405
8473 2146
8473 4731
8474 1402
8474 2249
8474 4656
8475 1388
8475 2236
8475 4789
8476 1522
8476 2231
8476 4740
8477 1304
8477 2059
8477 4697
8478 1497
8478 2201
8478 4654
8479 1401
8479 2260
8479 4624
8480 1331
8480 2207
8480 4684
8481 1463
8481 2235
8481 4854
8482 1289
8482 2149
8482 4682
8483 1411
8483 2106
8483 4745
8484 1359
8484 2243
8484 4832
8485 1353
8485 2100
8485 4617
8486 1307
8486 2072
8486 4841
8487 1457
8487 2241
8487 4611
8488 1436
8488 2208
8488 4666
8489 1379
8489 2163
8489 4753
8490 1531
8490 2120
8490 4811
8491 1466
8491 2112
8491 4766
8492 1449
8492 2273
8492 4751
8493 1413
8493 2151
8493 4655
8494 1375
8494 2158
8494 4846
8495 1412
8495 2068
8495 4787
8496 1393
8496 2270
8496 4622
8497 1410
8497 2078
8497 4802
8498 1367
8498 2298
8498 4728
8499 1486
8499 2288
8499 4658
8500 1416
8500 2096
8500 4749
8501 1403
8501 2198
8501 4620
8502 1446
8502 2291
8502 4774
8503 1509
8503 2184
8503 4643
8504 1511
8504 2182
8504 4668
8505 1297
8505 2081
8505 4831
8506 1496
8506 2295
8506 4808
8507 1285
8507 2092
8507 4646
8508 1445
8508 2227
8508 4618
8509 1384
8509 2132
8509 4746
8510 1372
8510 2279
8510 4764
8511 1343
8511 2077
8511 4825
8512 1483
8512 2062
8512 4633
8513 1347
8513 2264
8513 4744
8514 1507
8514 2076
8514 4662
8515 1344
8515 2169
8515 4735
8516 1377
8516 2082
8516 4664
8517 1404
8517 2221
8517 4857
8518 1478
8518 2049
8518 4819
8519 1318
8519 2247
8519 4640
8520 1292
8520 2056
8520 4839
8521 1469
8521 2277
8521 4715
8522 1299
8522 2160
8522 4855
8523 1398
8523 2303
8523 4812
8524 1329
8524 2136
8524 4799
8525 1517
8525 2154
8525 4836
8526 1423
8526 2254
8526 4680
8527 1530
8527 2199
8527 4688
8528 1521
8528 2051
8528 4779
8529 1458
8529 2272
8529 4747
8530 1533
8530 2165
8530 4809
8531 1417
8531 2121
8531 4623
8532 1357
8532 2089
8532 4615
8533 1518
8533 2103
8533 4842
8534 1461
8534 2220
8534 4726
8535 1317
8535 2300
8535 4613
8536 1408
8536 2285
8536 4792
8537 1494
8537 2065
8537 4696
8538 1508
8538 2139
8538 4805
8539 1499
8539 2135
8539 4644
8540 1527
8540 2170
8540 4833
8541 1399
8541 2052
8541 4659
8542 1335
8542 2107
8542 4856
8543 1532
8543 2147
8543 4765
8544 1492
8544 2206
8544 4736
8545 1303
8545 2153
8545 4852
8546 1455
8546 2255
8546 4703
8547 1434
8547 2213
8547 4777
8548 1370
8548 2134
8548 4813
8549 1387
8549 2048
8549 4788
8550 1323
8550 2265
8550 4806
8551 1487
8551 2205
8551 4853
8552 1485
8552 2194
8552 4759
8553 1488
8553 2176
8553 4769
8554 1328
8554 2219
8554 4695
8555 1513
8555 2105
8555 4650
8556 1400
8556 2245
8556 4760
8557 1333
8557 2289
8557 4719
8558 1502
8558 2171
8558 4686
8559 1528
8559 2192
8559 4670
8560 1342
8560 2274
8560 4672
8561 1376
8561 2127
8561 4667
8562 1322
8562 2164
8562 4780
8563 1391
8563 2233
8563 4748
8564 1281
8564 2226
8564 4851
8565 1504
8565 2181
8565 4642
8566 1462
8566 2283
8566 4754
8567 1477
8567 2057
8567 4698
8568 1501
8568 2275
8568 4665
8569 1450
8569 2253
8569 4631
8570 1312
8570 2097
8570 4636
8571 1406
8571 2180
8571 4722
8572 1505
8572 2189
8572 4683
8573 1424
8573 2152
8573 4758
8574 1383
8574 2209
8574 4816
8575 1288
8575 2095
8575 4791
8576 1293
8576 2086
8576 4798
8577 1427
8577 2290
8577 4757
8578 1339
8578 2148
8578 4637
8579 1389
8579 2179
8579 4614
8580 1286
8580 2114
8580 4738
8581 1421
8581 2258
8581 4859
8582 1378
8582 2269
8582 4612
8583 1283
8583 2271
8583 4863
8584 1381
8584 2224
8584 4628
8585 1362
8585 2140
8585 4750
8586 1439
8586 2079
8586 4673
8587 1298
8587 2137
8587 4648
8588 1308
8588 2246
8588 4762
8589 1284
8589 2155
8589 4827
8590 1420
8590 2250
8590 4818
8591 1459
8591 2142
8591 4793
8592 1351
8592 2124
8592 4829
8593 1512
8593 2239
8593 4711
8594 1431
8594 2256
8594 4820
8595 1332
8595 2060
8595 4676
8596 1311
8596 2063
8596 4768
8597 1310
8597 2111
8597 4720
8598 1314
8598 2113
8598 4821
8599 1355
8599 2252
8599 4763
8600 1440
8600 2262
8600 4675
8601 1500
8601 2190
8601 4862
8602 1287
8602 2069
8602 4725
8603 1471
8603 2238
8603 4681
8604 1394
8604 2087
8604 4814
8605 1338
8605 2282
8605 4649
8606 1324
8606 2055
8606 4742
8607 1452
8607 2186
8607 4815
8608 1282
8608 2109
8608 4838
8609 1473
8609 2223
8609 4634
8610 1407
8610 2196
8610 4651
8611 1460
8611 2091
8611 4828
8612 1465
8612 2088
8612 4847
8613 1491
8613 2131
8613 4730
8614 1519
8614 2102
8614 4803
8615 1348
8615 2188
8615 4632
8616 1495
8616 2080
8616 4641
8617 1369
8617 2185
8617 4610
8618 1456
8618 2064
8618 4701
8619 1373
8619 2130
8619 4822
8620 1371
8620 2110
8620 4834
8621 1526
8621 2248
8621 4657
8622 1360
8622 2125
8622 4685
8623 1467
8623 2156
8623 4635
8624 1430
8624 2212
8624 4608
8625 1510
8625 2257
8625 4663
8626 1428
8626 2159
8626 4775
8627 1368
8627 2280
8627 4778
8628 1432
8628 2070
8628 4626
8629 1472
8629 2116
8629 4823
8630 1535
8630 2053
8630 4621
8631 1354
8631 2141
8631 4710
8632 1515
8632 2293
8632 4786
8633 1358
8633 2090
8633 4843
8634 1415
8634 2301
8634 4652
8635 1444
8635 2204
8635 4729
8636 1503
8636 2234
8636 4767
8637 1385
8637 2167
8637 4693
8638 1319
8638 2101
8638 4653
8639 1516
8639 2108
8639 4795
8640 1352
8640 2145
8640 4674
8641 1280
8641 2218
8641 4691
8642 1490
8642 2210
8642 4694
8643 1305
8643 2244
8643 4692
8644 1447
8644 2118
8644 4706
8645 1429
8645 2128
8645 4639
8646 1396
8646 2211
8646 4835
8647 1470
8647 2085
8647 4782
8648 1520
8648 2050
8648 4732
8649 1482
8649 2122
8649 4785
8650 1302
8650 2143
8650 4807
8651 1395
8651 2177
8651 4743
8652 1340
8652 2281
8652 4717
8653 1525
8653 2299
8653 4625
8654 1334
8654 2054
8654 4702
8655 1386
8655 2166
8655 4690
8656 1523
8656 2197
8656 4783
8657 1443
8657 2225
8657 4629
8658 1392
8658 2259
8658 4687
8659 1442
8659 2104
8659 4848
8660 1475
8660 2193
8660 4609
8661 1479
8661 2172
8661 4638
8662 1294
8662 2173
8662 4619
8663 1365
8663 2119
8663 4678
8664 1453
8664 2217
8664 4679
8665 1397
8665 2237
8665 4845
8666 1364
8666 2058
8666 4761
8667 1325
8667 2183
8667 4699
8668 1468
8668 2302
8668 4661
8669 1409
8669 2287
8669 4858
8670 1336
8670 2216
8670 4627
8671 1301
8671 2215
8671 4796
8672 1524
8672 2228
8672 4714
8673 1422
8673 2117
8673 4727
8674 1451
8674 2144
8674 4800
8675 1316
8675 2242
8675 4734
8676 1464
8676 2071
8676 4826
8677 1356
8677 2195
8677 4737
8678 1350
8678 2292
8678 4840
8679 1374
8679 2123
8679 4755
8680 1474
8680 2203
8680 4773
8681 1441
8681 2168
8681 4689
8682 1291
8682 2175
8682 4801
8683 1481
8683 2099
8683 4677
8684 1326
8684 2129
8684 4630
8685 1425
8685 2075
8685 4741
8686 1498
8686 2297
8686 4645
8687 1337
8687 2266
8687 4671
8688 1290
8688 2296
8688 4797
8689 1341
8689 2214
8689 4733
8690 1382
8690 2133
8690 4817
8691 1361
8691 2157
8691 4771
8692 1489
8692 2162
8692 4660
8693 1390
8693 2230
8693 4804
8694 1476
8694 2161
8694 4669
8695 1366
8695 2150
8695 4700
8696 1435
8696 2084
8696 4723
8697 1327
8697 2083
8697 4824
8698 1306
8698 2174
8698 4707
8699 1296
8699 2067
8699 4861
8700 1315
8700 2074
8700 4752
8701 1345
8701 2093
8701 4837
8702 1454
8702 2286
8702 4770
8703 1380
8703 2187
8703 4860
8704 1769
8704 2405
8704 4878
8705 1693
8705 2539
8705 4912
8706 1704
8706 2442
8706 5008
8707 1698
8707 2517
8707 4954
8708 1637
8708 2385
8708 4910
8709 1577
8709 2557
8709 4989
8710 1593
8710 2378
8710 5117
8711 1778
8711 2511
8711 5024
8712 1626
8712 2304
8712 4929
8713 1574
8713 2414
8713 5040
8714 1718
8714 2408
8714 5055
8715 1567
8715 2480
8715 4999
8716 1540
8716 2457
8716 4945
8717 1554
8717 2534
8717 4919
8718 1641
8718 2340
8718 5050
8719 1726
8719 2430
8719 5083
8720 1652
8720 2387
8720 5111
8721 1786
8721 2352
8721 5049
8722 1760
8722 2537
8722 4902
8723 1758
8723 2346
8723 5007
8724 1710
8724 2373
8724 5018
8725 1558
8725 2544
8725 5038
8726 1658
8726 2319
8726 4990
8727 1676
8727 2453
8727 4872
8728 1556
8728 2468
8728 5109
8729 1691
8729 2362
8729 4942
8730 1657
8730 2377
8730 4899
8731 1697
8731 2464
8731 4891
8732 1597
8732 2498
8732 5103
8733 1580
8733 2450
8733 4915
8734 1552
8734 2474
8734 4908
8735 1748
8735 2522
8735 4879
8736 1662
8736 2506
8736 5023
8737 1774
8737 2488
8737 4940
8738 1584
8738 2427
8738 4925
8739 1613
8739 2361
8739 4955
8740 1550
8740 2462
8740 5015
8741 1721
8741 2420
8741 4937
8742 1588
8742 2466
8742 5110
8743 1783
8743 2383
8743 5089
8744 1646
8744 2338
8744 4960
8745 1568
8745 2471
8745 5046
8746 1700
8746 2341
8746 5042
8747 1674
8747 2309
8747 4941
8748 1543
8748 2386
8748 5104
8749 1537
8749 2313
8749 4897
8750 1663
8750 2343
8750 4913
8751 1743
8751 2532
8751 4935
8752 1578
8752 2445
8752 4949
8753 1695
8753 2438
8753 5069
8754 1687
8754 2410
8754 4966
8755 1752
8755 2317
8755 5057
8756 1632
8756 2392
8756 5037
8757 1734
8757 2390
8757 5118
8758 1555
8758 2558
8758 4932
8759 1730
8759 2475
8759 4970
8760 1690
8760 2323
8760 4882
8761 1683
8761 2461
8761 5090
8762 1776
8762 2499
8762 4895
8763 1706
8763 2399
8763 4905
8764 1679
8764 2441
8764 5068
8765 1782
8765 2353
8765 4917
8766 1563
8766 2322
8766 4965
8767 1689
8767 2403
8767 4939
8768 1544
8768 2368
8768 4971
8769 1600
8769 2426
8769 5053
8770 1761
8770 2375
8770 5019
8771 1601
8771 2397
8771 4951
8772 1673
8772 2503
8772 5043
8773 1707
8773 2516
8773 5006
8774 1712
8774 2416
8774 5078
8775 1631
8775 2523
8775 5059
8776 1688
8776 2431
8776 4870
8777 1751
8777 2324
8777 4969
8778 1790
8778 2391
8778 5100
8779 1702
8779 2347
8779 5073
8780 1599
8780 2472
8780 4928
8781 1643
8781 2363
8781 4976
8782 1621
8782 2433
8782 5063
8783 1612
8783 2530
8783 4963
8784 1669
8784 2351
8784 4944
8785 1754
8785 2314
8785 5108
8786 1586
8786 2357
8786 4877
8787 1756
8787 2493
8787 4914
8788 1562
8788 2417
8788 5071
8789 1595
8789 2354
8789 5087
8790 1686
8790 2536
8790 4946
8791 1587
8791 2545
8791 4984
8792 1766
8792 2364
8792 5099
8793 1549
8793 2550
8793 4926
8794 1682
8794 2333
8794 5077
8795 1590
8795 2327
8795 4982
8796 1680
8796 2477
8796 5081
8797 1745
8797 2425
8797 5102
8798 1701
8798 2553
8798 4894
8799 1765
8799 2394
8799 4962
8800 1739
8800 2531
8800 5072
8801 1642
8801 2428
8801 4986
8802 1724
8802 2412
8802 4950
8803 1582
8803 2452
8803 4987
8804 1551
8804 2525
8804 5085
8805 1768
8805 2448
8805 4961
8806 1547
8806 2415
8806 5084
8807 1570
8807 2437
8807 5066
8808 1623
8808 2307
8808 5039
8809 1619
8809 2401
8809 4907
8810 1667
8810 2434
8810 5105
8811 1732
8811 2540
8811 4924
8812 1591
8812 2481
8812 5096
8813 1561
8813 2518
8813 5086
8814 1742
8814 2429
8814 4956
8815 1616
8815 2509
8815 4995
8816 1713
8816 2526
8816 4868
8817 1566
8817 2482
8817 5088
8818 1609
8818 2486
8818 4947
8819 1741
8819 2446
8819 4904
8820 1791
8820 2435
8820 5113
8821 1759
8821 2470
8821 4994
8822 1705
8822 2393
8822 5076
8823 1678
8823 2371
8823 4927
8824 1656
8824 2440
8824 5067
8825 1703
8825 2320
8825 4866
8826 1654
8826 2348
8826 4921
8827 1545
8827 2432
8827 4922
8828 1608
8828 2381
8828 5013
8829 1606
8829 2508
8829 5004
8830 1714
8830 2379
8830 4933
8831 1633
8831 2418
8831 4977
8832 1598
8832 2311
8832 5005
8833 1638
8833 2469
8833 4883
8834 1660
8834 2547
8834 5000
8835 1735
8835 2326
8835 5032
8836 1684
8836 2454
8836 5044
8837 1772
8837 2409
8837 4864
8838 1611
8838 2507
8838 5101
8839 1777
8839 2501
8839 5054
8840 1670
8840 2443
8840 5033
8841 1576
8841 2476
8841 4968
8842 1541
8842 2384
8842 5045
8843 1731
8843 2479
8843 4887
8844 1779
8844 2308
8844 5020
8845 1575
8845 2552
8845 5098
8846 1560
8846 2485
8846 5060
8847 1618
8847 2355
8847 4871
8848 1727
8848 2400
8848 5021
8849 1625
8849 2494
8849 5011
8850 1740
8850 2359
8850 5091
8851 1725
8851 2325
8851 5034
8852 1665
8852 2328
8852 5035
8853 1681
8853 2538
8853 4957
8854 1677
8854 2555
8854 5029
8855 1630
8855 2460
8855 4884
8856 1755
8856 2349
8856 5009
8857 1747
8857 2342
8857 5002
8858 1605
8858 2490
8858 5094
8859 1738
8859 2331
8859 4964
8860 1789
8860 2306
8860 5058
8861 1692
8861 2543
8861 5095
8862 1655
8862 2330
8862 5112
8863 1773
8863 2451
8863 4988
8864 1607
8864 2535
8864 5047
8865 1717
8865 2360
8865 5062
8866 1536
8866 2335
8866 5014
8867 1650
8867 2369
8867 5016
8868 1546
8868 2491
8868 4938
8869 1728
8869 2344
8869 4958
8870 1708
8870 2366
8870 4865
8871 1666
8871 2447
8871 4936
8872 1635
8872 2513
8872 5027
8873 1719
8873 2312
8873 4998
8874 1771
8874 2527
8874 4873
8875 1649
8875 2374
8875 4981
8876 1788
8876 2332
8876 4991
8877 1572
8877 2413
8877 5041
8878 1770
8878 2334
8878 4867
8879 1634
8879 2459
8879 4952
8880 1583
8880 2406
8880 4880
8881 1763
8881 2521
8881 4890
8882 1750
8882 2436
8882 4885
8883 1784
8883 2372
8883 5012
8884 1767
8884 2388
8884 4993
8885 1668
8885 2419
8885 4997
8886 1775
8886 2305
8886 4931
8887 1585
8887 2505
8887 5051
8888 1645
8888 2358
8888 4980
8889 1564
8889 2463
8889 5075
8890 1694
8890 2556
8890 5079
8891 1569
8891 2529
8891 5097
8892 1715
8892 2407
8892 4911
8893 1571
8893 2337
8893 4886
8894 1664
8894 2310
8894 4869
8895 1653
8895 2455
8895 5010
8896 1539
8896 2398
8896 4972
8897 1596
8897 2484
8897 4978
8898 1762
8898 2542
8898 4992
8899 1610
8899 2510
8899 5064
8900 1579
8900 2489
8900 5061
8901 1723
8901 2370
8901 4906
8902 1648
8902 2389
8902 5025
8903 1542
8903 2456
8903 4888
8904 1592
8904 2533
8904 4900
8905 1696
8905 2467
8905 5031
8906 1781
8906 2365
8906 4943
8907 1604
8907 2423
8907 5056
8908 1614
8908 2504
8908 5092
8909 1720
8909 2424
8909 5052
8910 1602
8910 2502
8910 4909
8911 1651
8911 2554
8911 5065
8912 1746
8912 2520
8912 5048
8913 1685
8913 2458
8913 5001
8914 1661
8914 2444
8914 5080
8915 1594
8915 2515
8915 4898
8916 1764
8916 2497
8916 5017
8917 1709
8917 2421
8917 4881
8918 1785
8918 2411
8918 5030
8919 1628
8919 2528
8919 4985
8920 1737
8920 2404
8920 4973
8921 1716
8921 2396
8921 5115
8922 1675
8922 2548
8922 5107
8923 1640
8923 2514
8923 4979
8924 1729
8924 2380
8924 4983
8925 1620
8925 2492
8925 4967
8926 1622
8926 2439
8926 4896
8927 1744
8927 2449
8927 5028
8928 1559
8928 2519
8928 4948
8929 1736
8929 2367
8929 4903
8930 1671
8930 2315
8930 4875
8931 1573
8931 2487
8931 5074
8932 1617
8932 2512
8932 5036
8933 1627
8933 2336
8933 4953
8934 1538
8934 2500
8934 5093
8935 1557
8935 2321
8935 4901
8936 1699
8936 2356
8936 4923
8937 1787
8937 2329
8937 4889
8938 1565
8938 2395
8938 4974
8939 1780
8939 2376
8939 5114
8940 1733
8940 2316
8940 5119
8941 1629
8941 2495
8941 4920
8942 1722
8942 2345
8942 5022
8943 1624
8943 2483
8943 4893
8944 1672
8944 2465
8944 5116
8945 1603
8945 2524
8945 5003
8946 1548
8946 2473
8946 4996
8947 1753
8947 2402
8947 4892
8948 1757
8948 2382
8948 5070
8949 1636
8949 2422
8949 4975
8950 1644
8950 2350
8950 4959
8951 1581
8951 2546
8951 4874
8952 1615
8952 2496
8952 4918
8953 1589
8953 2549
8953 4876
8954 1553
8954 2339
8954 4930
8955 1659
8955 2478
8955 5106
8956 1639
8956 2559
8956 5082
8957 1749
8957 2551
8957 4934
8958 1711
8958 2318
8958 5026
8959 1647
8959 2541
8959 4916
8960 255
8960 2550
8960 4863
8961 3
8961 2395
8961 4795
8962 233
8962 2323
8962 4719
8963 37
8963 2541
8963 4632
8964 65
8964 2330
8964 4702
8965 159
8965 2488
8965 4690
8966 24
8966 2429
8966 4768
8967 84
8967 2337
8967 4616
8968 68
8968 2511
8968 4662
8969 93
8969 2387
8969 4621
8970 145
8970 2409
8970 4637
8971 90
8971 2322
8971 4655
8972 60
8972 2484
8972 4652
8973 18
8973 2335
8973 4615
8974 227
8974 2554
8974 4672
8975 127
8975 2529
8975 4822
8976 82
8976 2393
8976 4718
8977 38
8977 2556
8977 4687
8978 133
8978 2375
8978 4841
8979 9
8979 2372
8979 4725
8980 114
8980 2462
8980 4664
8981 10
8981 2373
8981 4790
8982 152
8982 2344
8982 4715
8983 109
8983 2538
8983 4686
8984 8
8984 2394
8984 4747
8985 200
8985 2412
8985 4831
8986 197
8986 2308
8986 4824
8987 139
8987 2416
8987 4853
8988 242
8988 2481
8988 4698
8989 106
8989 2426
8989 4619
8990 44
8990 2535
8990 4628
8991 94
8991 2348
8991 4697
8992 128
8992 2349
8992 4640
8993 32
8993 2525
8993 4666
8994 222
8994 2314
8994 4625
8995 148
8995 2307
8995 4741
8996 163
8996 2339
8996 4805
8997 49
8997 2389
8997 4669
8998 28
8998 2508
8998 4722
8999 219
8999 2424
8999 4742
9000 162
9000 2460
9000 4678
9001 199
9001 2521
9001 4754
9002 201
9002 2539
9002 4740
9003 22
9003 2305
9003 4830
9004 214
9004 2423
9004 4677
9005 74
9005 2497
9005 4691
9006 190
9006 2498
9006 4746
9007 210
9007 2472
9007 4657
9008 166
9008 2311
9008 4786
9009 123
9009 2436
9009 4613
9010 183
9010 2331
9010 4738
9011 120
9011 2442
9011 4823
9012 176
9012 2385
9012 4670
9013 168
9013 2332
9013 4711
9014 164
9014 2381
9014 4755
9015 137
9015 2505
9015 4812
9016 77
9016 2397
9016 4762
9017 191
9017 2528
9017 4760
9018 100
9018 2489
9018 4839
9019 193
9019 2352
9019 4756
9020 172
9020 2479
9020 4784
9021 20
9021 2341
9021 4673
9022 91
9022 2499
9022 4835
9023 80
9023 2454
9023 4726
9024 50
9024 2524
9024 4627
9025 29
9025 2526
9025 4861
9026 240
9026 2545
9026 4735
9027 41
9027 2512
9027 4856
9028 6
9028 2485
9028 4750
9029 238
9029 2406
9029 4630
9030 203
9030 2400
9030 4807
9031 213
9031 2405
9031 4645
9032 64
9032 2317
9032 4840
9033 96
9033 2350
9033 4635
9034 209
9034 2455
9034 4758
9035 160
9035 2446
9035 4703
9036 98
9036 2418
9036 4806
9037 113
9037 2382
9037 4788
9038 1
9038 2494
9038 4656
9039 236
9039 2435
9039 4794
9040 134
9040 2552
9040 4858
9041 195
9041 2532
9041 4695
9042 97
9042 2467
9042 4708
9043 144
9043 2398
9043 4832
9044 228
9044 2414
9044 4749
9045 56
9045 2432
9045 4779
9046 72
9046 2558
9046 4617
9047 21
9047 2548
9047 4713
9048 124
9048 2320
9048 4611
9049 241
9049 2506
9049 4733
9050 83
9050 2465
9050 4717
9051 153
9051 2522
9051 4817
9052 130
9052 2477
9052 4689
9053 211
9053 2533
9053 4701
9054 254
9054 2319
9054 4634
9055 220
9055 2473
9055 4796
9056 87
9056 2310
9056 4825
9057 43
9057 2478
9057 4818
9058 253
9058 2453
9058 4641
9059 135
9059 2537
9059 4612
9060 221
9060 2327
9060 4639
9061 218
9061 2515
9061 4700
9062 142
9062 2390
9062 4776
9063 42
9063 2417
9063 4791
9064 79
9064 2347
9064 4683
9065 62
9065 2547
9065 4859
9066 5
9066 2364
9066 4737
9067 237
9067 2413
9067 4821
9068 169
9068 2374
9068 4811
9069 231
9069 2434
9069 4684
9070 0
9070 2309
9070 4793
9071 247
9071 2504
9071 4808
9072 110
9072 2542
9072 4648
9073 207
9073 2420
9073 4668
9074 47
9074 2304
9074 4800
9075 230
9075 2492
9075 4727
9076 92
9076 2456
9076 4681
9077 99
9077 2384
9077 4815
9078 187
9078 2517
9078 4829
9079 53
9079 2425
9079 4699
9080 19
9080 2361
9080 4643
9081 184
9081 2536
9081 4766
9082 182
9082 2491
9082 4785
9083 69
9083 2437
9083 4659
9084 33
9084 2328
9084 4862
9085 132
9085 2392
9085 4781
9086 51
9086 2444
9086 4661
9087 235
9087 2422
9087 4855
9088 146
9088 2469
9088 4714
9089 215
9089 2356
9089 4759
9090 217
9090 2363
9090 4813
9091 180
9091 2476
9091 4827
9092 59
9092 2527
9092 4748
9093 202
9093 2514
9093 4842
9094 55
9094 2376
9094 4706
9095 196
9095 2388
9095 4849
9096 35
9096 2475
9096 4734
9097 25
9097 2510
9097 4761
9098 26
9098 2519
9098 4751
9099 54
9099 2402
9099 4642
9100 149
9100 2371
9100 4665
9101 102
9101 2360
9101 4802
9102 167
9102 2551
9102 4649
9103 156
9103 2333
9103 4752
9104 224
9104 2386
9104 4826
9105 161
9105 2516
9105 4626
9106 244
9106 2471
9106 4850
9107 229
9107 2534
9107 4732
9108 95
9108 2509
9108 4671
9109 89
9109 2325
9109 4685
9110 171
9110 2483
9110 4801
9111 101
9111 2549
9111 4731
9112 246
9112 2553
9112 4860
9113 34
9113 2411
9113 4638
9114 208
9114 2458
9114 4769
9115 76
9115 2342
9115 4724
9116 170
9116 2403
9116 4608
9117 147
9117 2343
9117 4814
9118 122
9118 2346
9118 4679
9119 61
9119 2329
9119 4693
9120 116
9120 2357
9120 4704
9121 245
9121 2336
9121 4709
9122 63
9122 2466
9122 4618
9123 198
9123 2340
9123 4833
9124 179
9124 2433
9124 4778
9125 45
9125 2487
9125 4658
9126 252
9126 2383
9126 4631
9127 248
9127 2359
9127 4782
9128 4
9128 2468
9128 4857
9129 17
9129 2451
9129 4783
9130 16
9130 2474
9130 4720
9131 15
9131 2513
9131 4789
9132 48
9132 2313
9132 4730
9133 157
9133 2559
9133 4838
9134 119
9134 2351
9134 4844
9135 36
9135 2396
9135 4692
9136 249
9136 2377
9136 4723
9137 239
9137 2463
9137 4680
9138 178
9138 2355
9138 4757
9139 165
9139 2450
9139 4743
9140 39
9140 2470
9140 4646
9141 23
9141 2378
9141 4622
9142 112
9142 2391
9142 4633
9143 66
9143 2365
9143 4644
9144 107
9144 2438
9144 4846
9145 81
9145 2326
9145 4819
9146 189
9146 2408
9146 4663
9147 232
9147 2306
9147 4728
9148 138
9148 2315
9148 4777
9149 154
9149 2520
9149 4837
9150 40
9150 2415
9150 4739
9151 140
9151 2345
9151 4660
9152 206
9152 2379
9152 4624
9153 186
9153 2461
9153 4674
9154 131
9154 2399
9154 4836
9155 52
9155 2503
9155 4852
9156 251
9156 2518
9156 4848
9157 173
9157 2480
9157 4623
9158 181
9158 2448
9158 4753
9159 103
9159 2523
9159 4745
9160 117
9160 2445
9160 4654
9161 192
9161 2407
9161 4792
9162 243
9162 2324
9162 4787
9163 151
9163 2459
9163 4682
9164 216
9164 2507
9164 4688
9165 27
9165 2546
9165 4667
9166 14
9166 2362
9166 4676
9167 115
9167 2464
9167 4767
9168 129
9168 2449
9168 4744
9169 204
9169 2427
9169 4629
9170 194
9170 2318
9170 4716
9171 108
9171 2316
9171 4804
9172 234
9172 2321
9172 4609
9173 250
9173 2540
9173 4650
9174 12
9174 2358
9174 4771
9175 177
9175 2421
9175 4820
9176 31
9176 2404
9176 4647
9177 188
9177 2312
9177 4797
9178 11
9178 2447
9178 4721
9179 223
9179 2370
9179 4736
9180 7
9180 2368
9180 4707
9181 143
9181 2410
9181 4675
9182 136
9182 2367
9182 4816
9183 30
9183 2353
9183 4845
9184 85
9184 2439
9184 4803
9185 158
9185 2380
9185 4764
9186 141
9186 2334
9186 4828
9187 185
9187 2495
9187 4843
9188 75
9188 2501
9188 4696
9189 71
9189 2366
9189 4847
9190 78
9190 2496
9190 4765
9191 175
9191 2457
9191 4729
9192 126
9192 2555
9192 4694
9193 125
9193 2428
9193 4610
9194 70
9194 2441
9194 4774
9195 226
9195 2500
9195 4834
9196 212
9196 2531
9196 4763
9197 57
9197 2338
9197 4710
9198 118
9198 2452
9198 4798
9199 88
9199 2440
9199 4636
9200 58
9200 2369
9200 4772
9201 225
9201 2401
9201 4770
9202 46
9202 2354
9202 4614
9203 174
9203 2493
9203 4780
9204 150
9204 2419
9204 4854
9205 67
9205 2530
9205 4773
9206 2
9206 2482
9206 4775
9207 105
9207 2543
9207 4705
9208 121
9208 2486
9208 4851
9209 104
9209 2443
9209 4809
9210 205
9210 2544
9210 4651
9211 111
9211 2430
9211 4810
9212 13
9212 2490
9212 4712
9213 155
9213 2502
9213 4620
9214 86
9214 2431
9214 4653
9215 73
9215 2557
9215 4799
9216 372
9216 2781
9216 4973
9217 354
9217 2767
9217 5089
9218 365
9218 2626
9218 4981
9219 505
9219 2729
9219 4949
9220 266
9220 2806
9220 4905
9221 485
9221 2596
9221 5069
9222 378
9222 2639
9222 4935
9223 280
9223 2593
9223 4925
9224 434
9224 2766
9224 5055
9225 414
9225 2784
9225 4917
9226 489
9226 2568
9226 4880
9227 313
9227 2787
9227 4930
9228 384
9228 2720
9228 5097
9229 482
9229 2763
9229 5056
9230 301
9230 2686
9230 5102
9231 388
9231 2681
9231 4963
9232 362
9232 2796
9232 5100
9233 509
9233 2675
9233 4868
9234 451
9234 2621
9234 4882
9235 258
9235 2713
9235 4915
9236 468
9236 2741
9236 4972
9237 476
9237 2612
9237 4997
9238 420
9238 2586
9238 5109
9239 314
9239 2723
9239 5018
9240 328
9240 2571
9240 5077
9241 473
9241 2601
9241 5066
9242 335
9242 2634
9242 5085
9243 450
9243 2774
9243 5000
9244 311
9244 2630
9244 5028
9245 393
9245 2658
9245 4978
9246 446
9246 2748
9246 4985
9247 346
9247 2697
9247 4929
9248 352
9248 2764
9248 4922
9249 309
9249 2583
9249 4928
9250 279
9250 2756
9250 4883
9251 377
9251 2575
9251 4946
9252 273
9252 2726
9252 5074
9253 471
9253 2605
9253 4886
9254 390
9254 2684
9254 5113
9255 359
9255 2790
9255 5067
9256 342
9256 2576
9256 5115
9257 470
9257 2602
9257 5091
9258 439
9258 2641
9258 4906
9259 428
9259 2793
9259 4953
9260 343
9260 2779
9260 4934
9261 443
9261 2646
9261 5104
9262 366
9262 2777
9262 4962
9263 336
9263 2560
9263 5065
9264 472
9264 2651
9264 4951
9265 260
9265 2754
9265 4971
9266 382
9266 2572
9266 5119
9267 462
9267 2807
9267 5105
9268 368
9268 2674
9268 5007
9269 424
9269 2750
9269 5075
9270 417
9270 2765
9270 5088
9271 469
9271 2776
9271 4994
9272 371
9272 2682
9272 5049
9273 350
9273 2580
9273 4907
9274 498
9274 2716
9274 4926
9275 360
9275 2809
9275 4899
9276 487
9276 2701
9276 5078
9277 458
9277 2654
9277 5004
9278 426
9278 2755
9278 5016
9279 427
9279 2811
9279 4918
9280 333
9280 2625
9280 4937
9281 511
9281 2707
9281 4913
9282 403
9282 2661
9282 5108
9283 303
9283 2650
9283 4995
9284 383
9284 2771
9284 5096
9285 500
9285 2592
9285 4947
9286 425
9286 2659
9286 4993
9287 438
9287 2672
9287 4921
9288 316
9288 2632
9288 4902
9289 270
9289 2803
9289 5103
9290 380
9290 2662
9290 4864
9291 295
9291 2725
9291 4968
9292 392
9292 2699
9292 4979
9293 457
9293 2731
9293 4966
9294 330
9294 2687
9294 4900
9295 374
9295 2804
9295 4904
9296 502
9296 2746
9296 5040
9297 395
9297 2769
9297 5043
9298 256
9298 2751
9298 5044
9299 409
9299 2736
9299 4909
9300 436
9300 2714
9300 5017
9301 386
9301 2785
9301 4865
9302 282
9302 2805
9302 5079
9303 327
9303 2702
9303 4911
9304 291
9304 2693
9304 5027
9305 376
9305 2561
9305 5080
9306 455
9306 2761
9306 4977
9307 478
9307 2589
9307 5093
9308 338
9308 2597
9308 4877
9309 396
9309 2617
9309 5087
9310 448
9310 2732
9310 5112
9311 431
9311 2695
9311 5084
9312 268
9312 2663
9312 4939
9313 490
9313 2794
9313 4987
9314 480
9314 2696
9314 5033
9315 483
9315 2780
9315 4992
9316 447
9316 2730
9316 4940
9317 416
9317 2564
9317 5117
9318 348
9318 2813
9318 5107
9319 421
9319 2652
9319 5038
9320 341
9320 2690
9320 5031
9321 312
9321 2606
9321 5094
9322 345
9322 2627
9322 5076
9323 275
9323 2607
9323 5064
9324 397
9324 2645
9324 5063
9325 418
9325 2667
9325 4954
9326 288
9326 2636
9326 5062
9327 484
9327 2637
9327 5013
9328 353
9328 2620
9328 5014
9329 367
9329 2712
9329 4983
9330 492
9330 2563
9330 4948
9331 479
9331 2721
9331 4974
9332 339
9332 2694
9332 4982
9333 283
9333 2815
9333 4998
9334 355
9334 2660
9334 4893
9335 400
9335 2677
9335 5073
9336 308
9336 2753
9336 4895
9337 361
9337 2657
9337 5001
9338 464
9338 2609
9338 5059
9339 356
9339 2688
9339 5003
9340 423
9340 2759
9340 4991
9341 407
9341 2718
9341 5041
9342 497
9342 2800
9342 4990
9343 474
9343 2633
9343 5086
9344 297
9344 2758
9344 5011
9345 401
9345 2812
9345 4976
9346 286
9346 2757
9346 5034
9347 298
9347 2783
9347 5036
9348 337
9348 2570
9348 5053
9349 289
9349 2587
9349 4961
9350 326
9350 2799
9350 4896
9351 267
9351 2709
9351 5101
9352 379
9352 2786
9352 4970
9353 320
9353 2789
9353 4952
9354 488
9354 2594
9354 4945
9355 449
9355 2808
9355 5099
9356 357
9356 2772
9356 5054
9357 456
9357 2782
9357 5068
9358 463
9358 2666
9358 5037
9359 263
9359 2664
9359 4891
9360 391
9360 2610
9360 4879
9361 369
9361 2574
9361 4875
9362 501
9362 2649
9362 5052
9363 413
9363 2734
9363 4884
9364 257
9364 2797
9364 4927
9365 322
9365 2752
9365 5072
9366 486
9366 2673
9366 5002
9367 315
9367 2613
9367 5021
9368 433
9368 2703
9368 4960
9369 419
9369 2573
9369 4919
9370 364
9370 2623
9370 4872
9371 441
9371 2647
9371 4910
9372 281
9372 2581
9372 4908
9373 375
9373 2775
9373 4964
9374 411
9374 2691
9374 4903
9375 461
9375 2671
9375 4897
9376 459
9376 2773
9376 5061
9377 491
9377 2614
9377 4914
9378 370
9378 2710
9378 5092
9379 445
9379 2678
9379 4924
9380 460
9380 2643
9380 4944
9381 398
9381 2670
9381 4965
9382 325
9382 2810
9382 4894
9383 340
9383 2578
9383 4996
9384 304
9384 2760
9384 5042
9385 415
9385 2728
9385 4957
9386 302
9386 2579
9386 5048
9387 399
9387 2740
9387 5039
9388 477
9388 2622
9388 5035
9389 466
9389 2708
9389 4871
9390 284
9390 2747
9390 4955
9391 499
9391 2683
9391 5025
9392 278
9392 2788
9392 5046
9393 324
9393 2798
9393 4958
9394 504
9394 2795
9394 5090
9395 299
9395 2577
9395 5082
9396 481
9396 2685
9396 5030
9397 261
9397 2770
9397 5032
9398 373
9398 2711
9398 4878
9399 358
9399 2739
9399 5116
9400 381
9400 2638
9400 4892
9401 510
9401 2642
9401 5111
9402 412
9402 2801
9402 5024
9403 323
9403 2591
9403 4916
9404 435
9404 2629
9404 5009
9405 475
9405 2724
9405 4887
9406 429
9406 2715
9406 5106
9407 305
9407 2603
9407 4912
9408 296
9408 2814
9408 5045
9409 440
9409 2706
9409 5023
9410 437
9410 2738
9410 5057
9411 287
9411 2604
9411 4870
9412 272
9412 2585
9412 4890
9413 452
9413 2698
9413 5029
9414 442
9414 2749
9414 5114
9415 310
9415 2665
9415 4933
9416 467
9416 2679
9416 5071
9417 259
9417 2704
9417 5083
9418 454
9418 2631
9418 5012
9419 494
9419 2566
9419 5110
9420 318
9420 2742
9420 5022
9421 271
9421 2635
9421 5098
9422 430
9422 2584
9422 4975
9423 385
9423 2668
9423 4936
9424 277
9424 2768
9424 5006
9425 285
9425 2792
9425 4950
9426 332
9426 2762
9426 4932
9427 496
9427 2565
9427 4869
9428 410
9428 2735
9428 4923
9429 306
9429 2618
9429 4885
9430 389
9430 2717
9430 5118
9431 495
9431 2611
9431 4989
9432 300
9432 2692
9432 5070
9433 269
9433 2644
9433 5060
9434 347
9434 2628
9434 4967
9435 334
9435 2569
9435 4956
9436 276
9436 2705
9436 4943
9437 349
9437 2615
9437 4874
9438 406
9438 2562
9438 5050
9439 344
9439 2598
9439 4986
9440 503
9440 2655
9440 5008
9441 402
9441 2599
9441 4980
9442 292
9442 2624
9442 5058
9443 506
9443 2608
9443 4999
9444 262
9444 2567
9444 5019
9445 507
9445 2700
9445 5026
9446 293
9446 2588
9446 4873
9447 351
9447 2616
9447 4988
9448 387
9448 2669
9448 4938
9449 264
9449 2727
9449 4984
9450 290
9450 2778
9450 5005
9451 321
9451 2640
9451 4867
9452 307
9452 2791
9452 4969
9453 404
9453 2595
9453 4931
9454 363
9454 2653
9454 4959
9455 319
9455 2600
9455 4888
9456 422
9456 2582
9456 5015
9457 408
9457 2743
9457 4876
9458 265
9458 2719
9458 4941
9459 294
9459 2745
9459 5095
9460 453
9460 2722
9460 4866
9461 331
9461 2648
9461 5020
9462 329
9462 2733
9462 5010
9463 317
9463 2680
9463 4920
9464 405
9464 2744
9464 4881
9465 444
9465 2619
9465 4898
9466 508
9466 2737
9466 5047
9467 394
9467 2689
9467 5051
9468 274
9468 2802
9468 4889
9469 432
9469 2590
9469 4942
9470 465
9470 2656
9470 4901
9471 493
9471 2676
9471 5081
9472 523
9472 2974
9472 5299
9473 542
9473 3025
9473 5245
9474 577
9474 2923
9474 5174
9475 601
9475 2817
9475 5288
9476 640
9476 2964
9476 5252
9477 746
9477 2908
9477 5372
9478 693
9478 2850
9478 5370
9479 597
9479 2831
9479 5283
9480 578
9480 2836
9480 5316
9481 614
9481 2893
9481 5235
9482 532
9482 2971
9482 5238
9483 637
9483 2826
9483 5363
9484 568
9484 2865
9484 5306
9485 586
9485 2981
9485 5272
9486 690
9486 2983
9486 5300
9487 675
9487 2917
9487 5164
9488 616
9488 3071
9488 5328
9489 624
9489 2952
9489 5198
9490 694
9490 2949
9490 5150
9491 551
9491 2887
9491 5317
9492 521
9492 3039
9492 5339
9493 684
9493 2987
9493 5234
9494 531
9494 2877
9494 5129
9495 698
9495 2833
9495 5178
9496 553
9496 2859
9496 5347
9497 598
9497 2819
9497 5123
9498 638
9498 2951
9498 5312
9499 709
9499 2846
9499 5160
9500 710
9500 2961
9500 5224
9501 668
9501 2848
9501 5211
9502 587
9502 2851
9502 5157
9503 719
9503 2907
9503 5366
9504 627
9504 2911
9504 5197
9505 530
9505 2978
9505 5247
9506 557
9506 2940
9506 5201
9507 595
9507 3026
9507 5217
9508 565
9508 2998
9508 5220
9509 584
9509 2828
9509 5179
9510 547
9510 3045
9510 5355
9511 650
9511 2898
9511 5287
9512 689
9512 3037
9512 5358
9513 682
9513 2901
9513 5281
9514 727
9514 2990
9514 5162
9515 664
9515 2838
9515 5251
9516 718
9516 2993
9516 5169
9517 516
9517 2881
9517 5361
9518 720
9518 3030
9518 5137
9519 634
9519 2950
9519 5237
9520 549
9520 3031
9520 5248
9521 519
9521 2818
9521 5313
9522 543
9522 2841
9522 5356
9523 632
9523 2959
9523 5277
9524 585
9524 2856
9524 5302
9525 702
9525 3002
9525 5318
9526 681
9526 2872
9526 5125
9527 555
9527 2989
9527 5323
9528 704
9528 3065
9528 5332
9529 643
9529 2967
9529 5326
9530 723
9530 3029
9530 5219
9531 754
9531 2829
9531 5246
9532 576
9532 2820
9532 5290
9533 623
9533 2933
9533 5351
9534 676
9534 3059
9534 5195
9535 663
9535 2943
9535 5231
9536 581
9536 3022
9536 5265
9537 545
9537 2968
9537 5261
9538 738
9538 2985
9538 5143
9539 748
9539 3009
9539 5210
9540 728
9540 3046
9540 5233
9541 635
9541 2866
9541 5230
9542 620
9542 3056
9542 5192
9543 717
9543 2935
9543 5202
9544 707
9544 2942
9544 5367
9545 625
9545 2873
9545 5273
9546 554
9546 2862
9546 5166
9547 673
9547 2824
9547 5186
9548 590
9548 2902
9548 5333
9549 763
9549 2953
9549 5291
9550 566
9550 2910
9550 5266
9551 612
9551 2854
9551 5155
9552 711
9552 2896
9552 5170
9553 573
9553 3019
9553 5301
9554 541
9554 2937
9554 5335
9555 721
9555 2995
9555 5320
9556 605
9556 2843
9556 5354
9557 757
9557 3062
9557 5293
9558 764
9558 3006
9558 5259
9559 546
9559 2906
9559 5190
9560 758
9560 2895
9560 5203
9561 613
9561 3008
9561 5269
9562 729
9562 2921
9562 5151
9563 606
9563 2931
9563 5127
9564 762
9564 2870
9564 5184
9565 662
9565 3017
9565 5223
9566 714
9566 2909
9566 5350
9567 756
9567 2919
9567 5215
9568 669
9568 2994
9568 5149
9569 618
9569 2999
9569 5226
9570 765
9570 2965
9570 5263
9571 656
9571 2837
9571 5345
9572 522
9572 2905
9572 5191
9573 683
9573 2963
9573 5303
9574 695
9574 2847
9574 5187
9575 533
9575 2922
9575 5337
9576 560
9576 3052
9576 5121
9577 570
9577 2864
9577 5305
9578 558
9578 2997
9578 5267
9579 602
9579 2853
9579 5295
9580 706
9580 2970
9580 5196
9581 734
9581 2869
9581 5369
9582 686
9582 2885
9582 5175
9583 609
9583 2966
9583 5371
9584 564
9584 2948
9584 5349
9585 730
9585 3038
9585 5362
9586 666
9586 3057
9586 5120
9587 655
9587 3051
9587 5209
9588 563
9588 3020
9588 5368
9589 742
9589 2977
9589 5189
9590 527
9590 2884
9590 5271
9591 652
9591 3058
9591 5260
9592 648
9592 2947
9592 5159
9593 644
9593 3054
9593 5142
9594 713
9594 2958
9594 5308
9595 766
9595 2973
9595 5171
9596 569
9596 2904
9596 5297
9597 607
9597 3007
9597 5185
9598 646
9598 3034
9598 5147
9599 642
9599 2996
9599 5228
9600 544
9600 2929
9600 5138
9601 741
9601 2878
9601 5340
9602 622
9602 3036
9602 5314
9603 692
9603 3042
9603 5279
9604 513
9604 2849
9604 5336
9605 518
9605 2876
9605 5218
9606 572
9606 2925
9606 5165
9607 660
9607 2830
9607 5307
9608 645
9608 2913
9608 5284
9609 594
9609 2852
9609 5141
9610 621
9610 2912
9610 5325
9611 520
9611 2823
9611 5258
9612 653
9612 2914
9612 5341
9613 731
9613 2927
9613 5330
9614 759
9614 3014
9614 5158
9615 680
9615 2932
9615 5156
9616 749
9616 3069
9616 5240
9617 716
9617 3043
9617 5173
9618 548
9618 2903
9618 5152
9619 588
9619 3049
9619 5311
9620 517
9620 3061
9620 5275
9621 661
9621 3024
9621 5132
9622 626
9622 2892
9622 5212
9623 740
9623 2918
9623 5253
9624 512
9624 2883
9624 5296
9625 536
9625 3011
9625 5214
9626 732
9626 2969
9626 5331
9627 733
9627 3063
9627 5285
9628 619
9628 2890
9628 5282
9629 534
9629 2840
9629 5357
9630 559
9630 3053
9630 5139
9631 529
9631 2816
9631 5206
9632 735
9632 2834
9632 5280
9633 629
9633 2955
9633 5242
9634 760
9634 3016
9634 5236
9635 561
9635 2860
9635 5364
9636 540
9636 2874
9636 5304
9637 743
9637 3004
9637 5124
9638 687
9638 2957
9638 5128
9639 651
9639 2960
9639 5145
9640 615
9640 3012
9640 5286
9641 552
9641 3060
9641 5199
9642 611
9642 3041
9642 5276
9643 617
9643 3005
9643 5343
9644 514
9644 2988
9644 5274
9645 567
9645 3070
9645 5375
9646 671
9646 2886
9646 5213
9647 628
9647 2979
9647 5264
9648 679
9648 2916
9648 5329
9649 596
9649 2845
9649 5315
9650 665
9650 2871
9650 5181
9651 688
9651 2882
9651 5352
9652 753
9652 2842
9652 5221
9653 589
9653 2991
9653 5130
9654 712
9654 2984
9654 5172
9655 528
9655 2986
9655 5254
9656 708
9656 2930
9656 5346
9657 525
9657 3068
9657 5225
9658 647
9658 2926
9658 5327
9659 750
9659 3035
9659 5154
9660 696
9660 2956
9660 5168
9661 744
9661 2928
9661 5122
9662 556
9662 2888
9662 5167
9663 737
9663 3027
9663 5310
9664 722
9664 2954
9664 5200
9665 674
9665 2832
9665 5140
9666 751
9666 2891
9666 5338
9667 700
9667 2855
9667 5182
9668 592
9668 2934
9668 5348
9669 574
9669 3021
9669 5208
9670 725
9670 3066
9670 5204
9671 745
9671 3000
9671 5180
9672 654
9672 3023
9672 5360
9673 575
9673 2938
9673 5229
9674 599
9674 2936
9674 5188
9675 677
9675 2992
9675 5148
9676 670
9676 2897
9676 5163
9677 562
9677 3044
9677 5255
9678 736
9678 2880
9678 5216
9679 537
9679 3047
9679 5135
9680 649
9680 3050
9680 5193
9681 535
9681 2867
9681 5207
9682 608
9682 3032
9682 5298
9683 604
9683 2861
9683 5324
9684 631
9684 3010
9684 5144
9685 550
9685 2894
9685 5262
9686 538
9686 3048
9686 5134
9687 672
9687 2915
9687 5249
9688 657
9688 2944
9688 5292
9689 630
9689 2844
9689 5294
9690 658
9690 2920
9690 5232
9691 524
9691 3015
9691 5177
9692 715
9692 2899
9692 5365
9693 724
9693 2941
9693 5205
9694 539
9694 3055
9694 5321
9695 593
9695 2879
9695 5161
9696 697
9696 2875
9696 5359
9697 691
9697 3033
9697 5241
9698 752
9698 3018
9698 5131
9699 639
9699 2924
9699 5309
9700 591
9700 3064
9700 5289
9701 600
9701 2821
9701 5227
9702 739
9702 2946
9702 5153
9703 603
9703 2863
9703 5257
9704 526
9704 2889
9704 5222
9705 571
9705 2900
9705 5244
9706 579
9706 2827
9706 5256
9707 633
9707 3067
9707 5319
9708 580
9708 2858
9708 5353
9709 767
9709 2868
9709 5373
9710 755
9710 2972
9710 5146
9711 685
9711 2982
9711 5243
9712 747
9712 3028
9712 5183
9713 667
9713 3003
9713 5194
9714 678
9714 2857
9714 5322
9715 705
9715 3040
9715 5278
9716 726
9716 2825
9716 5374
9717 699
9717 2976
9717 5344
9718 701
9718 2945
9718 5136
9719 582
9719 2835
9719 5239
9720 761
9720 2822
9720 5270
9721 659
9721 2962
9721 5334
9722 515
9722 2975
9722 5342
9723 641
9723 2939
9723 5126
9724 703
9724 3013
9724 5176
9725 636
9725 2839
9725 5250
9726 610
9726 2980
9726 5133
9727 583
9727 3001
9727 5268
9728 769
9728 3262
9728 3827
9729 994
9729 3108
9729 3829
9730 947
9730 3297
9730 3775
9731 867
9731 3177
9731 3670
9732 944
9732 3276
9732 3729
9733 774
9733 3173
9733 3756
9734 985
9734 3273
9734 3783
9735 983
9735 3132
9735 3674
9736 954
9736 3266
9736 3590
9737 872
9737 3079
9737 3630
9738 919
9738 3102
9738 3768
9739 882
9739 3227
9739 3780
9740 849
9740 3243
9740 3606
9741 940
9741 3318
9741 3645
9742 810
9742 3090
9742 3751
9743 808
9743 3110
9743 3716
9744 974
9744 3137
9744 3708
9745 955
9745 3256
9745 3584
9746 813
9746 3166
9746 3609
9747 943
9747 3195
9747 3825
9748 864
9748 3211
9748 3720
9749 971
9749 3148
9749 3629
9750 827
9750 3249
9750 3707
9751 1008
9751 3252
9751 3818
9752 851
9752 3120
9752 3781
9753 975
9753 3307
9753 3588
9754 1020
9754 3155
9754 3750
9755 820
9755 3200
9755 3753
9756 878
9756 3194
9756 3689
9757 778
9757 3237
9757 3791
9758 996
9758 3205
9758 3603
9759 809
9759 3180
9759 3739
9760 845
9760 3253
9760 3654
9761 927
9761 3139
9761 3763
9762 969
9762 3182
9762 3770
9763 989
9763 3212
9763 3724
9764 1015
9764 3186
9764 3696
9765 855
9765 3152
9765 3635
9766 833
9766 3199
9766 3808
9767 891
9767 3136
9767 3762
9768 949
9768 3143
9768 3788
9769 844
9769 3073
9769 3821
9770 794
9770 3100
9770 3733
9771 938
9771 3113
9771 3593
9772 950
9772 3087
9772 3793
9773 907
9773 3204
9773 3811
9774 887
9774 3188
9774 3669
9775 785
9775 3321
9775 3639
9776 847
9776 3269
9776 3626
9777 1006
9777 3289
9777 3660
9778 939
9778 3085
9778 3657
9779 925
9779 3146
9779 3704
9780 931
9780 3235
9780 3774
9781 873
9781 3279
9781 3622
9782 984
9782 3284
9782 3713
9783 828
9783 3291
9783 3819
9784 961
9784 3206
9784 3731
9785 821
9785 3327
9785 3784
9786 911
9786 3135
9786 3732
9787 933
9787 3326
9787 3649
9788 861
9788 3311
9788 3776
9789 1018
9789 3129
9789 3805
9790 998
9790 3222
9790 3717
9791 926
9791 3083
9791 3642
9792 835
9792 3128
9792 3671
9793 834
9793 3114
9793 3728
9794 997
9794 3214
9794 3662
9795 799
9795 3125
9795 3694
9796 853
9796 3315
9796 3698
9797 923
9797 3157
9797 3585
9798 941
9798 3112
9798 3721
9799 890
9799 3248
9799 3792
9800 782
9800 3231
9800 3667
9801 937
9801 3171
9801 3697
9802 903
9802 3126
9802 3615
9803 999
9803 3198
9803 3703
9804 783
9804 3239
9804 3785
9805 781
9805 3092
9805 3779
9806 982
9806 3303
9806 3673
9807 842
9807 3261
9807 3802
9808 863
9808 3308
9808 3738
9809 968
9809 3236
9809 3769
9810 791
9810 3281
9810 3746
9811 897
9811 3165
9811 3618
9812 977
9812 3175
9812 3663
9813 812
9813 3106
9813 3752
9814 980
9814 3077
9814 3685
9815 880
9815 3217
9815 3772
9816 948
9816 3258
9816 3705
9817 843
9817 3193
9817 3690
9818 792
9818 3225
9818 3737
9819 970
9819 3324
9819 3702
9820 824
9820 3123
9820 3692
9821 803
9821 3230
9821 3754
9822 797
9822 3270
9822 3712
9823 814
9823 3309
9823 3686
9824 879
9824 3242
9824 3735
9825 829
9825 3076
9825 3745
9826 854
9826 3095
9826 3799
9827 1023
9827 3299
9827 3736
9828 965
9828 3144
9828 3719
9829 837
9829 3127
9829 3598
9830 921
9830 3203
9830 3687
9831 946
9831 3254
9831 3602
9832 848
9832 3220
9832 3640
9833 804
9833 3159
9833 3621
9834 800
9834 3215
9834 3796
9835 912
9835 3176
9835 3591
9836 1011
9836 3074
9836 3771
9837 990
9837 3305
9837 3596
9838 932
9838 3149
9838 3782
9839 793
9839 3179
9839 3749
9840 852
9840 3078
9840 3597
9841 916
9841 3290
9841 3607
9842 1002
9842 3310
9842 3711
9843 818
9843 3111
9843 3658
9844 1016
9844 3082
9844 3832
9845 1021
9845 3282
9845 3773
9846 964
9846 3140
9846 3624
9847 896
9847 3161
9847 3637
9848 1000
9848 3232
9848 3761
9849 972
9849 3117
9849 3666
9850 839
9850 3164
9850 3727
9851 893
9851 3174
9851 3820
9852 816
9852 3124
9852 3617
9853 857
9853 3134
9853 3766
9854 875
9854 3150
9854 3813
9855 796
9855 3216
9855 3816
9856 784
9856 3097
9856 3838
9857 866
9857 3192
9857 3730
9858 811
9858 3183
9858 3682
9859 885
9859 3306
9859 3715
9860 895
9860 3226
9860 3589
9861 920
9861 3122
9861 3659
9862 906
9862 3169
9862 3725
9863 979
9863 3302
9863 3815
9864 801
9864 3238
9864 3661
9865 874
9865 3185
9865 3830
9866 850
9866 3115
9866 3800
9867 987
9867 3119
9867 3810
9868 966
9868 3241
9868 3672
9869 888
9869 3101
9869 3600
9870 772
9870 3104
9870 3619
9871 826
9871 3088
9871 3806
9872 869
9872 3229
9872 3778
9873 914
9873 3288
9873 3777
9874 883
9874 3121
9874 3684
9875 856
9875 3147
9875 3801
9876 915
9876 3086
9876 3599
9877 817
9877 3283
9877 3643
9878 789
9878 3156
9878 3632
9879 986
9879 3197
9879 3767
9880 936
9880 3292
9880 3595
9881 993
9881 3131
9881 3823
9882 832
9882 3099
9882 3809
9883 786
9883 3202
9883 3623
9884 1017
9884 3089
9884 3610
9885 802
9885 3081
9885 3740
9886 830
9886 3091
9886 3786
9887 967
9887 3158
9887 3594
9888 770
9888 3240
9888 3790
9889 1014
9889 3271
9889 3734
9890 1012
9890 3312
9890 3653
9891 928
9891 3084
9891 3695
9892 898
9892 3196
9892 3664
9893 806
9893 3280
9893 3797
9894 924
9894 3259
9894 3641
9895 894
9895 3191
9895 3678
9896 995
9896 3210
9896 3789
9897 795
9897 3251
9897 3706
9898 838
9898 3322
9898 3668
9899 886
9899 3153
9899 3656
9900 956
9900 3094
9900 3652
9901 991
9901 3294
9901 3620
9902 871
9902 3275
9902 3683
9903 1022
9903 3105
9903 3837
9904 787
9904 3278
9904 3688
9905 1013
9905 3263
9905 3628
9906 981
9906 3265
9906 3726
9907 976
9907 3181
9907 3699
9908 846
9908 3296
9908 3681
9909 917
9909 3224
9909 3795
9910 973
9910 3163
9910 3608
9911 1007
9911 3257
9911 3693
9912 823
9912 3234
9912 3748
9913 930
9913 3325
9913 3651
9914 960
9914 3247
9914 3765
9915 910
9915 3260
9915 3834
9916 884
9916 3323
9916 3650
9917 807
9917 3268
9917 3646
9918 922
9918 3209
9918 3638
9919 790
9919 3141
9919 3814
9920 825
9920 3167
9920 3679
9921 865
9921 3172
9921 3723
9922 881
9922 3228
9922 3836
9923 1010
9923 3116
9923 3807
9924 958
9924 3250
9924 3824
9925 822
9925 3233
9925 3613
9926 902
9926 3244
9926 3812
9927 831
9927 3300
9927 3714
9928 963
9928 3320
9928 3803
9929 836
9929 3096
9929 3701
9930 934
9930 3098
9930 3710
9931 876
9931 3218
9931 3612
9932 900
9932 3301
9932 3665
9933 962
9933 3145
9933 3826
9934 775
9934 3207
9934 3758
9935 909
9935 3154
9935 3764
9936 868
9936 3162
9936 3794
9937 951
9937 3223
9937 3677
9938 899
9938 3151
9938 3633
9939 918
9939 3295
9939 3691
9940 805
9940 3103
9940 3636
9941 1004
9941 3170
9941 3722
9942 773
9942 3319
9942 3798
9943 942
9943 3189
9943 3700
9944 952
9944 3287
9944 3627
9945 859
9945 3213
9945 3676
9946 780
9946 3286
9946 3675
9947 992
9947 3178
9947 3644
9948 771
9948 3293
9948 3743
9949 1005
9949 3160
9949 3647
9950 858
9950 3313
9950 3601
9951 768
9951 3317
9951 3718
9952 904
9952 3075
9952 3822
9953 798
9953 3184
9953 3611
9954 901
9954 3255
9954 3804
9955 788
9955 3168
9955 3742
9956 929
9956 3208
9956 3759
9957 862
9957 3133
9957 3634
9958 889
9958 3274
9958 3648
9959 870
9959 3190
9959 3760
9960 1001
9960 3072
9960 3817
9961 988
9961 3118
9961 3631
9962 957
9962 3314
9962 3757
9963 840
9963 3272
9963 3587
9964 913
9964 3219
9964 3614
9965 815
9965 3264
9965 3787
9966 953
9966 3080
9966 3831
9967 1003
9967 3316
9967 3709
9968 860
9968 3187
9968 3625
9969 935
9969 3093
9969 3592
9970 1009
9970 3201
9970 3833
9971 777
9971 3246
9971 3744
9972 945
9972 3267
9972 3586
9973 1019
9973 3285
9973 3605
9974 819
9974 3142
9974 3839
9975 892
9975 3304
9975 3828
9976 908
9976 3107
9976 3616
9977 877
9977 3245
9977 3835
9978 841
9978 3298
9978 3680
9979 978
9979 3109
9979 3604
9980 959
9980 3221
9980 3755
9981 776
9981 3130
9981 3747
9982 905
9982 3138
9982 3655
9983 779
9983 3277
9983 3741
9984 1032
9984 3574
9984 3892
9985 1053
9985 3409
9985 3973
9986 1149
9986 3556
9986 4035
9987 1204
9987 3561
9987 3984
9988 1089
9988 3394
9988 3968
9989 1258
9989 3510
9989 4036
9990 1095
9990 3390
9990 4055
9991 1038
9991 3425
9991 3875
9992 1200
9992 3541
9992 3988
9993 1140
9993 3427
9993 4066
9994 1265
9994 3468
9994 3864
9995 1274
9995 3444
9995 3954
9996 1166
9996 3516
9996 3841
9997 1272
9997 3486
9997 3871
9998 1129
9998 3457
9998 3974
9999 1225
9999 3481
9999 3849
10000 1246
10000 3490
10000 3888
10001 1147
10001 3487
10001 4017
10002 1120
10002 3439
10002 4077
10003 1105
10003 3447
10003 3959
10004 1049
10004 3502
10004 4032
10005 1248
10005 3526
10005 3847
10006 1240
10006 3448
10006 4068
10007 1236
10007 3416
10007 3975
10008 1035
10008 3370
10008 3840
10009 1209
10009 3560
10009 3991
10010 1277
10010 3513
10010 3957
10011 1028
10011 3429
10011 3946
10012 1138
10012 3536
10012 3917
10013 1187
10013 3512
10013 3909
10014 1196
10014 3332
10014 3910
10015 1177
10015 3498
10015 3941
10016 1186
10016 3580
10016 3896
10017 1134
10017 3539
10017 4033
10018 1026
10018 3381
10018 3967
10019 1059
10019 3383
10019 3887
10020 1057
10020 3535
10020 3858
10021 1084
10021 3340
10021 3901
10022 1112
10022 3372
10022 3965
10023 1082
10023 3415
10023 3940
10024 1096
10024 3417
10024 4082
10025 1163
10025 3546
10025 3951
10026 1234
10026 3482
10026 4019
10027 1175
10027 3440
10027 3980
10028 1211
10028 3405
10028 4041
10029 1092
10029 3413
10029 4015
10030 1056
10030 3418
10030 3942
10031 1093
10031 3404
10031 3963
10032 1226
10032 3484
10032 4074
10033 1136
10033 3384
10033 4060
10034 1171
10034 3462
10034 3874
10035 1040
10035 3529
10035 3916
10036 1223
10036 3331
10036 3868
10037 1091
10037 3330
10037 4073
10038 1130
10038 3477
10038 3859
10039 1228
10039 3345
10039 3964
10040 1042
10040 3350
10040 4049
10041 1121
10041 3467
10041 4065
10042 1264
10042 3351
10042 3921
10043 1180
10043 3494
10043 3855
10044 1202
10044 3380
10044 3851
10045 1081
10045 3534
10045 3895
10046 1135
10046 3392
10046 4051
10047 1157
10047 3362
10047 3945
10048 1139
10048 3437
10048 4054
10049 1178
10049 3414
10049 3994
10050 1194
10050 3341
10050 3860
10051 1169
10051 3545
10051 4050
10052 1069
10052 3328
10052 4014
10053 1083
10053 3547
10053 3981
10054 1036
10054 3514
10054 4076
10055 1222
10055 3554
10055 4067
10056 1208
10056 3421
10056 4081
10057 1145
10057 3507
10057 4085
10058 1256
10058 3489
10058 3893
10059 1203
10059 3555
10059 3983
10060 1127
10060 3431
10060 4012
10061 1144
10061 3353
10061 4062
10062 1195
10062 3465
10062 4047
10063 1235
10063 3397
10063 3976
10064 1103
10064 3505
10064 4023
10065 1182
10065 3531
10065 4003
10066 1221
10066 3443
10066 4056
10067 1159
10067 3497
10067 4087
10068 1269
10068 3438
10068 3914
10069 1210
10069 3576
10069 3938
10070 1133
10070 3338
10070 3842
10071 1212
10071 3520
10071 3869
10072 1243
10072 3428
10072 3932
10073 1230
10073 3523
10073 4002
10074 1029
10074 3455
10074 4027
10075 1259
10075 3359
10075 3928
10076 1086
10076 3558
10076 3872
10077 1099
10077 3573
10077 4059
10078 1078
10078 3553
10078 4088
10079 1142
10079 3453
10079 4057
10080 1156
10080 3459
10080 3904
10081 1141
10081 3360
10081 3955
10082 1111
10082 3423
10082 4091
10083 1205
10083 3578
10083 3924
10084 1061
10084 3406
10084 4043
10085 1122
10085 3551
10085 3977
10086 1048
10086 3543
10086 3848
10087 1207
10087 3540
10087 4064
10088 1168
10088 3509
10088 3995
10089 1090
10089 3339
10089 3920
10090 1102
10090 3363
10090 4053
10091 1174
10091 3571
10091 3882
10092 1268
10092 3433
10092 3935
10093 1039
10093 3366
10093 3960
10094 1232
10094 3445
10094 3854
10095 1220
10095 3577
10095 3990
10096 1067
10096 3347
10096 3908
10097 1267
10097 3411
10097 3853
10098 1261
10098 3376
10098 3877
10099 1110
10099 3355
10099 3878
10100 1270
10100 3346
10100 3985
10101 1199
10101 3386
10101 3930
10102 1137
10102 3518
10102 3907
10103 1263
10103 3398
10103 3873
10104 1254
10104 3458
10104 3923
10105 1278
10105 3450
10105 3885
10106 1076
10106 3393
10106 4026
10107 1052
10107 3426
10107 3880
10108 1025
10108 3401
10108 3997
10109 1198
10109 3352
10109 4058
10110 1218
10110 3524
10110 3979
10111 1088
10111 3434
10111 4037
10112 1132
10112 3441
10112 4004
10113 1126
10113 3470
10113 4093
10114 1244
10114 3559
10114 3931
10115 1233
10115 3495
10115 4011
10116 1055
10116 3478
10116 4086
10117 1037
10117 3503
10117 4031
10118 1215
10118 3568
10118 3894
10119 1179
10119 3369
10119 3890
10120 1216
10120 3567
10120 4084
10121 1115
10121 3479
10121 3969
10122 1063
10122 3476
10122 3903
10123 1239
10123 3480
10123 3950
10124 1160
10124 3329
10124 3870
10125 1214
10125 3499
10125 4070
10126 1189
10126 3565
10126 3952
10127 1080
10127 3357
10127 4039
10128 1201
10128 3496
10128 3906
10129 1116
10129 3348
10129 4078
10130 1108
10130 3378
10130 3881
10131 1077
10131 3583
10131 4079
10132 1238
10132 3548
10132 3843
10133 1072
10133 3463
10133 3936
10134 1155
10134 3537
10134 3948
10135 1098
10135 3575
10135 4052
10136 1257
10136 3374
10136 4072
10137 1191
10137 3582
10137 3999
10138 1247
10138 3334
10138 4025
10139 1033
10139 3552
10139 3937
10140 1172
10140 3354
10140 4018
10141 1231
10141 3542
10141 4094
10142 1251
10142 3530
10142 3891
10143 1143
10143 3562
10143 4090
10144 1024
10144 3342
10144 4075
10145 1128
10145 3456
10145 3970
10146 1071
10146 3506
10146 3992
10147 1034
10147 3488
10147 4008
10148 1087
10148 3566
10148 4046
10149 1054
10149 3500
10149 3912
10150 1190
10150 3460
10150 3879
10151 1046
10151 3377
10151 4042
10152 1219
10152 3343
10152 4000
10153 1158
10153 3356
10153 3971
10154 1181
10154 3358
10154 3918
10155 1117
10155 3449
10155 3989
10156 1252
10156 3396
10156 4089
10157 1193
10157 3344
10157 4024
10158 1154
10158 3515
10158 3943
10159 1148
10159 3563
10159 3978
10160 1192
10160 3475
10160 3998
10161 1153
10161 3399
10161 3987
10162 1070
10162 3442
10162 3915
10163 1100
10163 3379
10163 3876
10164 1119
10164 3412
10164 4038
10165 1062
10165 3491
10165 3902
10166 1249
10166 3533
10166 3919
10167 1161
10167 3385
10167 4021
10168 1164
10168 3521
10168 3861
10169 1176
10169 3371
10169 4092
10170 1041
10170 3454
10170 3886
10171 1197
10171 3464
10171 3898
10172 1114
10172 3557
10172 3927
10173 1058
10173 3528
10173 3900
10174 1245
10174 3485
10174 3899
10175 1064
10175 3368
10175 3883
10176 1027
10176 3432
10176 4001
10177 1104
10177 3466
10177 4044
10178 1079
10178 3522
10178 4048
10179 1075
10179 3400
10179 3949
10180 1162
10180 3501
10180 4061
10181 1213
10181 3422
10181 3972
10182 1253
10182 3483
10182 3933
10183 1045
10183 3349
10183 3962
10184 1184
10184 3373
10184 4009
10185 1250
10185 3389
10185 3993
10186 1217
10186 3365
10186 4007
10187 1188
10187 3382
10187 4020
10188 1150
10188 3430
10188 3865
10189 1224
10189 3532
10189 3911
10190 1123
10190 3436
10190 4030
10191 1241
10191 3508
10191 3845
10192 1050
10192 3538
10192 3929
10193 1173
10193 3525
10193 4022
10194 1030
10194 3579
10194 3856
10195 1051
10195 3451
10195 3866
10196 1131
10196 3410
10196 3897
10197 1094
10197 3572
10197 3889
10198 1255
10198 3408
10198 3934
10199 1118
10199 3493
10199 4071
10200 1113
10200 3474
10200 3857
10201 1073
10201 3550
10201 3850
10202 1060
10202 3570
10202 3862
10203 1242
10203 3333
10203 3982
10204 1170
10204 3564
10204 3913
10205 1273
10205 3472
10205 4010
10206 1227
10206 3388
10206 4069
10207 1125
10207 3549
10207 3986
10208 1167
10208 3337
10208 3844
10209 1074
10209 3511
10209 3956
10210 1165
10210 3420
10210 4083
10211 1266
10211 3407
10211 4063
10212 1106
10212 3424
10212 3966
10213 1152
10213 3473
10213 4045
10214 1185
10214 3336
10214 4029
10215 1085
10215 3517
10215 3944
10216 1271
10216 3471
10216 3947
10217 1146
10217 3361
10217 3996
10218 1065
10218 3364
10218 4040
10219 1107
10219 3544
10219 3922
10220 1068
10220 3519
10220 4028
10221 1260
10221 3387
10221 3884
10222 1097
10222 3527
10222 3939
10223 1279
10223 3375
10223 3958
10224 1044
10224 3581
10224 3905
10225 1237
10225 3402
10225 4013
10226 1043
10226 3335
10226 3846
10227 1124
10227 3492
10227 3925
10228 1151
10228 3469
10228 3953
10229 1275
10229 3461
10229 3926
10230 1229
10230 3504
10230 4016
10231 1276
10231 3435
10231 3867
10232 1101
10232 3452
10232 4080
10233 1031
10233 3403
10233 4034
10234 1183
10234 3391
10234 4006
10235 1109
10235 3569
10235 4095
10236 1262
10236 3419
10236 4005
10237 1066
10237 3446
10237 3961
10238 1206
10238 3367
10238 3863
10239 1047
10239 3395
10239 3852
10240 1478
10240 2042
10240 4297
10241 1344
10241 2022
10241 4098
10242 1433
10242 1798
10242 4236
10243 1491
10243 1872
10243 4266
10244 1405
10244 1970
10244 4351
10245 1324
10245 1943
10245 4324
10246 1380
10246 1960
10246 4244
10247 1417
10247 1984
10247 4201
10248 1350
10248 2006
10248 4179
10249 1477
10249 2013
10249 4267
10250 1475
10250 2026
10250 4282
10251 1514
10251 2020
10251 4293
10252 1437
10252 1980
10252 4289
10253 1408
10253 1945
10253 4262
10254 1414
10254 1906
10254 4337
10255 1362
10255 1800
10255 4197
10256 1298
10256 1850
10256 4341
10257 1346
10257 1809
10257 4125
10258 1457
10258 1951
10258 4144
10259 1343
10259 1888
10259 4174
10260 1395
10260 1863
10260 4113
10261 1463
10261 1994
10261 4322
10262 1373
10262 1911
10262 4259
10263 1358
10263 1953
10263 4166
10264 1462
10264 1990
10264 4338
10265 1454
10265 1877
10265 4156
10266 1325
10266 1819
10266 4345
10267 1404
10267 1828
10267 4314
10268 1281
10268 1815
10268 4240
10269 1486
10269 1882
10269 4268
10270 1352
10270 1931
10270 4203
10271 1293
10271 1947
10271 4161
10272 1387
10272 1997
10272 4209
10273 1283
10273 1796
10273 4168
10274 1487
10274 1940
10274 4143
10275 1528
10275 1844
10275 4258
10276 1399
10276 2038
10276 4276
10277 1379
10277 1893
10277 4329
10278 1424
10278 1833
10278 4219
10279 1427
10279 1838
10279 4170
10280 1377
10280 1933
10280 4241
10281 1348
10281 1856
10281 4229
10282 1282
10282 2010
10282 4180
10283 1300
10283 1958
10283 4172
10284 1340
10284 1871
10284 4278
10285 1302
10285 2047
10285 4135
10286 1503
10286 2044
10286 4110
10287 1372
10287 1848
10287 4210
10288 1516
10288 1957
10288 4107
10289 1444
10289 1998
10289 4287
10290 1482
10290 1860
10290 4270
10291 1374
10291 2039
10291 4139
10292 1439
10292 1879
10292 4265
10293 1456
10293 1847
10293 4226
10294 1330
10294 1811
10294 4182
10295 1527
10295 1804
10295 4171
10296 1461
10296 1922
10296 4165
10297 1301
10297 1866
10297 4348
10298 1319
10298 1899
10298 4145
10299 1421
10299 2043
10299 4279
10300 1381
10300 2035
10300 4274
10301 1411
10301 1900
10301 4257
10302 1416
10302 1834
10302 4222
10303 1442
10303 1799
10303 4184
10304 1365
10304 2002
10304 4233
10305 1440
10305 2023
10305 4132
10306 1356
10306 1886
10306 4216
10307 1401
10307 1921
10307 4331
10308 1333
10308 1859
10308 4217
10309 1436
10309 1887
10309 4250
10310 1292
10310 1995
10310 4169
10311 1318
10311 1904
10311 4153
10312 1412
10312 1832
10312 4186
10313 1285
10313 1978
10313 4114
10314 1327
10314 1855
10314 4142
10315 1419
10315 1961
10315 4256
10316 1472
10316 1794
10316 4208
10317 1309
10317 2031
10317 4298
10318 1474
10318 1939
10318 4300
10319 1284
10319 1898
10319 4176
10320 1430
10320 1826
10320 4273
10321 1388
10321 1972
10321 4160
10322 1499
10322 1986
10322 4288
10323 1410
10323 1836
10323 4188
10324 1306
10324 2003
10324 4283
10325 1315
10325 2016
10325 4343
10326 1280
10326 1966
10326 4317
10327 1296
10327 1932
10327 4312
10328 1489
10328 1793
10328 4215
10329 1396
10329 2045
10329 4159
10330 1498
10330 1949
10330 4350
10331 1523
10331 1818
10331 4277
10332 1367
10332 1909
10332 4248
10333 1402
10333 2046
10333 4249
10334 1328
10334 1823
10334 4321
10335 1522
10335 1891
10335 4344
10336 1531
10336 1963
10336 4101
10337 1534
10337 1808
10337 4137
10338 1445
10338 1975
10338 4318
10339 1391
10339 1977
10339 4104
10340 1520
10340 1816
10340 4163
10341 1354
10341 1873
10341 4234
10342 1471
10342 1812
10342 4207
10343 1535
10343 1959
10343 4253
10344 1449
10344 1880
10344 4138
10345 1398
10345 1937
10345 4302
10346 1450
10346 1979
10346 4313
10347 1473
10347 1875
10347 4347
10348 1307
10348 1944
10348 4124
10349 1441
10349 1829
10349 4251
10350 1429
10350 1849
10350 4214
10351 1299
10351 1821
10351 4252
10352 1337
10352 1923
10352 4260
10353 1448
10353 2036
10353 4275
10354 1479
10354 1874
10354 4284
10355 1497
10355 1967
10355 4213
10356 1289
10356 1795
10356 4200
10357 1509
10357 1913
10357 4206
10358 1311
10358 1831
10358 4196
10359 1310
10359 2008
10359 4333
10360 1386
10360 1837
10360 4189
10361 1468
10361 2009
10361 4309
10362 1455
10362 1835
10362 4117
10363 1460
10363 1952
10363 4238
10364 1326
10364 1797
10364 4225
10365 1426
10365 2004
10365 4102
10366 1329
10366 1825
10366 4190
10367 1321
10367 1974
10367 4264
10368 1428
10368 1867
10368 4296
10369 1308
10369 1843
10369 4272
10370 1518
10370 1928
10370 4305
10371 1490
10371 2005
10371 4150
10372 1349
10372 1805
10372 4242
10373 1529
10373 1907
10373 4127
10374 1323
10374 1897
10374 4111
10375 1353
10375 1999
10375 4263
10376 1488
10376 1801
10376 4255
10377 1361
10377 1869
10377 4310
10378 1376
10378 1908
10378 4191
10379 1452
10379 1807
10379 4121
10380 1341
10380 2017
10380 4130
10381 1407
10381 1865
10381 4151
10382 1397
10382 1950
10382 4211
10383 1368
10383 1965
10383 4340
10384 1453
10384 1969
10384 4147
10385 1359
10385 1841
10385 4128
10386 1291
10386 2040
10386 4157
10387 1505
10387 1927
10387 4181
10388 1467
10388 1862
10388 4271
10389 1295
10389 1917
10389 4291
10390 1369
10390 1814
10390 4134
10391 1375
10391 1885
10391 4327
10392 1305
10392 1941
10392 4323
10393 1400
10393 1842
10393 4178
10394 1493
10394 1912
10394 4154
10395 1409
10395 2007
10395 4232
10396 1431
10396 2034
10396 4175
10397 1483
10397 1929
10397 4100
10398 1481
10398 1982
10398 4221
10399 1355
10399 2028
10399 4146
10400 1511
10400 1935
10400 4330
10401 1357
10401 1857
10401 4319
10402 1370
10402 1916
10402 4195
10403 1314
10403 2037
10403 4112
10404 1415
10404 1878
10404 4187
10405 1425
10405 1934
10405 4328
10406 1288
10406 2025
10406 4223
10407 1403
10407 1830
10407 4280
10408 1313
10408 1925
10408 4148
10409 1508
10409 1936
10409 4245
10410 1385
10410 1883
10410 4115
10411 1476
10411 1926
10411 4122
10412 1500
10412 1905
10412 4131
10413 1484
10413 1985
10413 4177
10414 1446
10414 1991
10414 4239
10415 1287
10415 1876
10415 4261
10416 1378
10416 1992
10416 4106
10417 1297
10417 1864
10417 4326
10418 1366
10418 1971
10418 4218
10419 1510
10419 2015
10419 4133
10420 1339
10420 2030
10420 4342
10421 1290
10421 1988
10421 4204
10422 1394
10422 1861
10422 4299
10423 1392
10423 1858
10423 4334
10424 1364
10424 1895
10424 4109
10425 1494
10425 1968
10425 4281
10426 1351
10426 2027
10426 4231
10427 1303
10427 1946
10427 4140
10428 1383
10428 2012
10428 4247
10429 1495
10429 1919
10429 4290
10430 1423
10430 1851
10430 4243
10431 1525
10431 1956
10431 4192
10432 1519
10432 1894
10432 4212
10433 1435
10433 1853
10433 4320
10434 1316
10434 1930
10434 4294
10435 1480
10435 1918
10435 4285
10436 1438
10436 2033
10436 4136
10437 1384
10437 1989
10437 4306
10438 1371
10438 1839
10438 4141
10439 1466
10439 1884
10439 4096
10440 1512
10440 1803
10440 4162
10441 1470
10441 1896
10441 4193
10442 1294
10442 1802
10442 4295
10443 1533
10443 1810
10443 4167
10444 1496
10444 2000
10444 4199
10445 1458
10445 1854
10445 4308
10446 1345
10446 1889
10446 4307
10447 1418
10447 2029
10447 4220
10448 1443
10448 1870
10448 4304
10449 1332
10449 1881
10449 4339
10450 1382
10450 1948
10450 4292
10451 1286
10451 1915
10451 4303
10452 1360
10452 1824
10452 4346
10453 1336
10453 1892
10453 4311
10454 1335
10454 1954
10454 4349
10455 1451
10455 1976
10455 4129
10456 1389
10456 1822
10456 4173
10457 1521
10457 1792
10457 4332
10458 1459
10458 2011
10458 4120
10459 1464
10459 1820
10459 4246
10460 1320
10460 1827
10460 4202
10461 1502
10461 2021
10461 4097
10462 1317
10462 1840
10462 4336
10463 1406
10463 1914
10463 4228
10464 1342
10464 1901
10464 4198
10465 1515
10465 2041
10465 4315
10466 1432
10466 1852
10466 4149
10467 1347
10467 1890
10467 4103
10468 1469
10468 1983
10468 4118
10469 1338
10469 1973
10469 4224
10470 1524
10470 1924
10470 4205
10471 1434
10471 2019
10471 4227
10472 1334
10472 1942
10472 4105
10473 1390
10473 1806
10473 4316
10474 1501
10474 1993
10474 4230
10475 1492
10475 1902
10475 4126
10476 1485
10476 1845
10476 4183
10477 1530
10477 1920
10477 4119
10478 1331
10478 1987
10478 4158
10479 1532
10479 2014
10479 4325
10480 1420
10480 1813
10480 4301
10481 1322
10481 1996
10481 4164
10482 1413
10482 2001
10482 4099
10483 1312
10483 2024
10483 4194
10484 1363
10484 1910
10484 4254
10485 1504
10485 1938
10485 4235
10486 1465
10486 1955
10486 4269
10487 1447
10487 1817
10487 4286
10488 1513
10488 2032
10488 4116
10489 1526
10489 1868
10489 4155
10490 1507
10490 1903
10490 4185
10491 1506
10491 1981
10491 4108
10492 1393
10492 1964
10492 4152
10493 1422
10493 1962
10493 4123
10494 1304
10494 2018
10494 4237
10495 1517
10495 1846
10495 4335
10496 1566
10496 2130
10496 4552
10497 1540
10497 2175
10497 4404
10498 1700
10498 2207
10498 4458
10499 1747
10499 2083
10499 4585
10500 1697
10500 2294
10500 4380
10501 1767
10501 2303
10501 4365
10502 1560
10502 2219
10502 4506
10503 1629
10503 2066
10503 4538
10504 1761
10504 2060
10504 4578
10505 1712
10505 2076
10505 4602
10506 1667
10506 2288
10506 4400
10507 1687
10507 2221
10507 4521
10508 1732
10508 2205
10508 4444
10509 1713
10509 2264
10509 4466
10510 1774
10510 2122
10510 4554
10511 1570
10511 2224
10511 4537
10512 1678
10512 2229
10512 4370
10513 1764
10513 2140
10513 4449
10514 1550
10514 2152
10514 4364
10515 1588
10515 2135
10515 4539
10516 1708
10516 2286
10516 4414
10517 1606
10517 2269
10517 4354
10518 1722
10518 2211
10518 4586
10519 1583
10519 2095
10519 4491
10520 1640
10520 2163
10520 4599
10521 1692
10521 2275
10521 4568
10522 1736
10522 2265
10522 4572
10523 1682
10523 2274
10523 4425
10524 1571
10524 2192
10524 4388
10525 1743
10525 2108
10525 4574
10526 1683
10526 2247
10526 4582
10527 1742
10527 2239
10527 4429
10528 1599
10528 2167
10528 4544
10529 1537
10529 2121
10529 4517
10530 1788
10530 2052
10530 4526
10531 1546
10531 2077
10531 4363
10532 1684
10532 2162
10532 4395
10533 1717
10533 2085
10533 4409
10534 1614
10534 2200
10534 4377
10535 1679
10535 2233
10535 4405
10536 1554
10536 2181
10536 4607
10537 1668
10537 2080
10537 4507
10538 1744
10538 2209
10538 4410
10539 1688
10539 2283
10539 4587
10540 1591
10540 2259
10540 4357
10541 1754
10541 2256
10541 4356
10542 1631
10542 2057
10542 4508
10543 1750
10543 2300
10543 4462
10544 1617
10544 2199
10544 4473
10545 1578
10545 2196
10545 4381
10546 1779
10546 2223
10546 4440
10547 1604
10547 2254
10547 4502
10548 1644
10548 2129
10548 4480
10549 1772
10549 2184
10549 4441
10550 1685
10550 2244
10550 4573
10551 1632
10551 2070
10551 4436
10552 1634
10552 2067
10552 4520
10553 1789
10553 2074
10553 4397
10554 1589
10554 2203
10554 4522
10555 1576
10555 2189
10555 4581
10556 1728
10556 2297
10556 4531
10557 1706
10557 2171
10557 4372
10558 1556
10558 2101
10558 4470
10559 1780
10559 2266
10559 4379
10560 1633
10560 2281
10560 4498
10561 1653
10561 2100
10561 4445
10562 1539
10562 2236
10562 4428
10563 1680
10563 2063
10563 4515
10564 1549
10564 2291
10564 4453
10565 1735
10565 2276
10565 4559
10566 1785
10566 2253
10566 4479
10567 1707
10567 2142
10567 4543
10568 1605
10568 2153
10568 4553
10569 1548
10569 2087
10569 4505
10570 1594
10570 2160
10570 4438
10571 1669
10571 2128
10571 4378
10572 1677
10572 2165
10572 4548
10573 1618
10573 2166
10573 4497
10574 1757
10574 2118
10574 4475
10575 1658
10575 2231
10575 4500
10576 1778
10576 2172
10576 4561
10577 1734
10577 2188
10577 4523
10578 1773
10578 2179
10578 4399
10579 1711
10579 2098
10579 4527
10580 1607
10580 2220
10580 4569
10581 1602
10581 2252
10581 4392
10582 1727
10582 2295
10582 4394
10583 1649
10583 2186
10583 4511
10584 1611
10584 2141
10584 4427
10585 1654
10585 2161
10585 4448
10586 1543
10586 2190
10586 4390
10587 1596
10587 2185
10587 4487
10588 1749
10588 2091
10588 4510
10589 1675
10589 2187
10589 4450
10590 1739
10590 2075
10590 4588
10591 1724
10591 2139
10591 4484
10592 1637
10592 2132
10592 4402
10593 1630
10593 2147
10593 4463
10594 1564
10594 2271
10594 4416
10595 1783
10595 2248
10595 4545
10596 1723
10596 2280
10596 4533
10597 1651
10597 2232
10597 4384
10598 1656
10598 2155
10598 4403
10599 1703
10599 2125
10599 4352
10600 1547
10600 2262
10600 4482
10601 1573
10601 2144
10601 4412
10602 1748
10602 2227
10602 4471
10603 1733
10603 2290
10603 4512
10604 1765
10604 2261
10604 4478
10605 1623
10605 2284
10605 4597
10606 1671
10606 2061
10606 4442
10607 1699
10607 2111
10607 4605
10608 1584
10608 2134
10608 4420
10609 1740
10609 2174
10609 4446
10610 1715
10610 2214
10610 4468
10611 1726
10611 2178
10611 4542
10612 1768
10612 2112
10612 4562
10613 1562
10613 2102
10613 4439
10614 1766
10614 2255
10614 4528
10615 1538
10615 2191
10615 4513
10616 1552
10616 2104
10616 4375
10617 1784
10617 2064
10617 4564
10618 1672
10618 2138
10618 4577
10619 1730
10619 2164
10619 4524
10620 1753
10620 2154
10620 4382
10621 1626
10621 2285
10621 4408
10622 1555
10622 2146
10622 4489
10623 1536
10623 2169
10623 4358
10624 1580
10624 2081
10624 4374
10625 1691
10625 2157
10625 4492
10626 1663
10626 2123
10626 4426
10627 1657
10627 2114
10627 4530
10628 1638
10628 2263
10628 4451
10629 1575
10629 2073
10629 4494
10630 1590
10630 2292
10630 4393
10631 1758
10631 2068
10631 4514
10632 1621
10632 2249
10632 4503
10633 1650
10633 2260
10633 4490
10634 1645
10634 2208
10634 4532
10635 1737
10635 2106
10635 4603
10636 1702
10636 2092
10636 4461
10637 1782
10637 2136
10637 4396
10638 1686
10638 2250
10638 4418
10639 1615
10639 2240
10639 4551
10640 1694
10640 2071
10640 4596
10641 1553
10641 2216
10641 4376
10642 1710
10642 2133
10642 4367
10643 1595
10643 2059
10643 4467
10644 1627
10644 2065
10644 4486
10645 1600
10645 2079
10645 4576
10646 1701
10646 2055
10646 4422
10647 1781
10647 2151
10647 4598
10648 1641
10648 2110
10648 4423
10649 1544
10649 2215
10649 4504
10650 1775
10650 2273
10650 4595
10651 1738
10651 2183
10651 4371
10652 1693
10652 2213
10652 4389
10653 1545
10653 2302
10653 4483
10654 1716
10654 2094
10654 4501
10655 1652
10655 2117
10655 4355
10656 1569
10656 2156
10656 4565
10657 1741
10657 2078
10657 4509
10658 1665
10658 2072
10658 4431
10659 1771
10659 2301
10659 4455
10660 1660
10660 2176
10660 4434
10661 1593
10661 2194
10661 4555
10662 1770
10662 2197
10662 4566
10663 1585
10663 2258
10663 4594
10664 1603
10664 2218
10664 4546
10665 1661
10665 2090
10665 4360
10666 1751
10666 2088
10666 4567
10667 1777
10667 2158
10667 4433
10668 1670
10668 2228
10668 4406
10669 1616
10669 2049
10669 4583
10670 1609
10670 2056
10670 4415
10671 1731
10671 2202
10671 4493
10672 1666
10672 2251
10672 4488
10673 1635
10673 2105
10673 4417
10674 1579
10674 2124
10674 4391
10675 1655
10675 2193
10675 4407
10676 1587
10676 2198
10676 4536
10677 1648
10677 2212
10677 4454
10678 1601
10678 2210
10678 4495
10679 1542
10679 2150
10679 4477
10680 1567
10680 2298
10680 4592
10681 1681
10681 2062
10681 4496
10682 1565
10682 2084
10682 4525
10683 1787
10683 2093
10683 4584
10684 1719
10684 2279
10684 4456
10685 1628
10685 2097
10685 4435
10686 1776
10686 2148
10686 4401
10687 1755
10687 2246
10687 4386
10688 1689
10688 2103
10688 4419
10689 1676
10689 2116
10689 4430
10690 1568
10690 2115
10690 4519
10691 1642
10691 2182
10691 4465
10692 1574
10692 2069
10692 4447
10693 1619
10693 2048
10693 4534
10694 1729
10694 2293
10694 4476
10695 1620
10695 2109
10695 4541
10696 1625
10696 2177
10696 4563
10697 1646
10697 2234
10697 4383
10698 1690
10698 2053
10698 4398
10699 1559
10699 2159
10699 4437
10700 1610
10700 2058
10700 4580
10701 1612
10701 2272
10701 4474
10702 1745
10702 2289
10702 4459
10703 1725
10703 2131
10703 4443
10704 1639
10704 2054
10704 4413
10705 1557
10705 2170
10705 4600
10706 1624
10706 2086
10706 4485
10707 1581
10707 2230
10707 4499
10708 1551
10708 2237
10708 4557
10709 1572
10709 2173
10709 4591
10710 1664
10710 2050
10710 4385
10711 1541
10711 2225
10711 4593
10712 1586
10712 2245
10712 4604
10713 1592
10713 2168
10713 4432
10714 1718
10714 2195
10714 4518
10715 1790
10715 2051
10715 4579
10716 1563
10716 2282
10716 4516
10717 1760
10717 2222
10717 4460
10718 1752
10718 2241
10718 4369
10719 1636
10719 2243
10719 4469
10720 1597
10720 2126
10720 4560
10721 1622
10721 2238
10721 4366
10722 1705
10722 2120
10722 4535
10723 1662
10723 2099
10723 4540
10724 1659
10724 2089
10724 4589
10725 1698
10725 2226
10725 4570
10726 1786
10726 2180
10726 4411
10727 1763
10727 2082
10727 4457
10728 1720
10728 2204
10728 4464
10729 1759
10729 2268
10729 4481
10730 1714
10730 2267
10730 4421
10731 1695
10731 2217
10731 4558
10732 1582
10732 2277
10732 4368
10733 1721
10733 2096
10733 4361
10734 1756
10734 2299
10734 4550
10735 1673
10735 2235
10735 4373
10736 1709
10736 2137
10736 4387
10737 1674
10737 2206
10737 4452
10738 1647
10738 2270
10738 4359
10739 1769
10739 2113
10739 4571
10740 1704
10740 2287
10740 4353
10741 1791
10741 2257
10741 4556
10742 1746
10742 2296
10742 4601
10743 1762
10743 2145
10743 4590
10744 1577
10744 2107
10744 4547
10745 1608
10745 2242
10745 4529
10746 1696
10746 2143
10746 4606
10747 1558
10747 2127
10747 4472
10748 1598
10748 2201
10748 4362
10749 1561
10749 2278
10749 4549
10750 1613
10750 2119
10750 4575
10751 1643
10751 2149
10751 4424
