10752 5376 32256
0 1
0 1792
0 3584
1 2
1 1793
1 3585
2 3
2 1794
2 3586
3 4
3 1795
3 3587
4 5
4 1796
4 3588
5 6
5 1797
5 3589
6 7
6 1798
6 3590
7 8
7 1799
7 3591
8 9
8 1800
8 3592
9 10
9 1801
9 3593
10 11
10 1802
10 3594
11 12
11 1803
11 3595
12 13
12 1804
12 3596
13 14
13 1805
13 3597
14 15
14 1806
14 3598
15 16
15 1807
15 3599
16 17
16 1808
16 3600
17 18
17 1809
17 3601
18 19
18 1810
18 3602
19 20
19 1811
19 3603
20 21
20 1812
20 3604
21 22
21 1813
21 3605
22 23
22 1814
22 3606
23 24
23 1815
23 3607
24 25
24 1816
24 3608
25 26
25 1817
25 3609
26 27
26 1818
26 3610
27 28
27 1819
27 3611
28 29
28 1820
28 3612
29 30
29 1821
29 3613
30 31
30 1822
30 3614
31 32
31 1823
31 3615
32 33
32 1824
32 3616
33 34
33 1825
33 3617
34 35
34 1826
34 3618
35 36
35 1827
35 3619
36 37
36 1828
36 3620
37 38
37 1829
37 3621
38 39
38 1830
38 3622
39 40
39 1831
39 3623
40 41
40 1832
40 3624
41 42
41 1833
41 3625
42 43
42 1834
42 3626
43 44
43 1835
43 3627
44 45
44 1836
44 3628
45 46
45 1837
45 3629
46 47
46 1838
46 3630
47 48
47 1839
47 3631
48 49
48 1840
48 3632
49 50
49 1841
49 3633
50 51
50 1842
50 3634
51 52
51 1843
51 3635
52 53
52 1844
52 3636
53 54
53 1845
53 3637
54 55
54 1846
54 3638
55 56
55 1847
55 3639
56 57
56 1848
56 3640
57 58
57 1849
57 3641
58 59
58 1850
58 3642
59 60
59 1851
59 3643
60 61
60 1852
60 3644
61 62
61 1853
61 3645
62 63
62 1854
62 3646
63 64
63 1855
63 3647
64 65
64 1856
64 3648
65 66
65 1857
65 3649
66 67
66 1858
66 3650
67 68
67 1859
67 3651
68 69
68 1860
68 3652
69 70
69 1861
69 3653
70 71
70 1862
70 3654
71 72
71 1863
71 3655
72 73
72 1864
72 3656
73 74
73 1865
73 3657
74 75
74 1866
74 3658
75 76
75 1867
75 3659
76 77
76 1868
76 3660
77 78
77 1869
77 3661
78 79
78 1870
78 3662
79 80
79 1871
79 3663
80 81
80 1872
80 3664
81 82
81 1873
81 3665
82 83
82 1874
82 3666
83 84
83 1875
83 3667
84 85
84 1876
84 3668
85 86
85 1877
85 3669
86 87
86 1878
86 3670
87 88
87 1879
87 3671
88 89
88 1880
88 3672
89 90
89 1881
89 3673
90 91
90 1882
90 3674
91 92
91 1883
91 3675
92 93
92 1884
92 3676
93 94
93 1885
93 3677
94 95
94 1886
94 3678
95 96
95 1887
95 3679
96 97
96 1888
96 3680
97 98
97 1889
97 3681
98 99
98 1890
98 3682
99 100
99 1891
99 3683
100 101
100 1892
100 3684
101 102
101 1893
101 3685
102 103
102 1894
102 3686
103 104
103 1895
103 3687
104 105
104 1896
104 3688
105 106
105 1897
105 3689
106 107
106 1898
106 3690
107 108
107 1899
107 3691
108 109
108 1900
108 3692
109 110
109 1901
109 3693
110 111
110 1902
110 3694
111 112
111 1903
111 3695
112 113
112 1904
112 3696
113 114
113 1905
113 3697
114 115
114 1906
114 3698
115 116
115 1907
115 3699
116 117
116 1908
116 3700
117 118
117 1909
117 3701
118 119
118 1910
118 3702
119 120
119 1911
119 3703
120 121
120 1912
120 3704
121 122
121 1913
121 3705
122 123
122 1914
122 3706
123 124
123 1915
123 3707
124 125
124 1916
124 3708
125 126
125 1917
125 3709
126 127
126 1918
126 3710
127 128
127 1919
127 3711
128 129
128 1920
128 3712
129 130
129 1921
129 3713
130 131
130 1922
130 3714
131 132
131 1923
131 3715
132 133
132 1924
132 3716
133 134
133 1925
133 3717
134 135
134 1926
134 3718
135 136
135 1927
135 3719
136 137
136 1928
136 3720
137 138
137 1929
137 3721
138 139
138 1930
138 3722
139 140
139 1931
139 3723
140 141
140 1932
140 3724
141 142
141 1933
141 3725
142 143
142 1934
142 3726
143 144
143 1935
143 3727
144 145
144 1936
144 3728
145 146
145 1937
145 3729
146 147
146 1938
146 3730
147 148
147 1939
147 3731
148 149
148 1940
148 3732
149 150
149 1941
149 3733
150 151
150 1942
150 3734
151 152
151 1943
151 3735
152 153
152 1944
152 3736
153 154
153 1945
153 3737
154 155
154 1946
154 3738
155 156
155 1947
155 3739
156 157
156 1948
156 3740
157 158
157 1949
157 3741
158 159
158 1950
158 3742
159 160
159 1951
159 3743
160 161
160 1952
160 3744
161 162
161 1953
161 3745
162 163
162 1954
162 3746
163 164
163 1955
163 3747
164 165
164 1956
164 3748
165 166
165 1957
165 3749
166 167
166 1958
166 3750
167 168
167 1959
167 3751
168 169
168 1960
168 3752
169 170
169 1961
169 3753
170 171
170 1962
170 3754
171 172
171 1963
171 3755
172 173
172 1964
172 3756
173 174
173 1965
173 3757
174 175
174 1966
174 3758
175 176
175 1967
175 3759
176 177
176 1968
176 3760
177 178
177 1969
177 3761
178 179
178 1970
178 3762
179 180
179 1971
179 3763
180 181
180 1972
180 3764
181 182
181 1973
181 3765
182 183
182 1974
182 3766
183 184
183 1975
183 3767
184 185
184 1976
184 3768
185 186
185 1977
185 3769
186 187
186 1978
186 3770
187 188
187 1979
187 3771
188 189
188 1980
188 3772
189 190
189 1981
189 3773
190 191
190 1982
190 3774
191 192
191 1983
191 3775
192 193
192 1984
192 3776
193 194
193 1985
193 3777
194 195
194 1986
194 3778
195 196
195 1987
195 3779
196 197
196 1988
196 3780
197 198
197 1989
197 3781
198 199
198 1990
198 3782
199 200
199 1991
199 3783
200 201
200 1992
200 3784
201 202
201 1993
201 3785
202 203
202 1994
202 3786
203 204
203 1995
203 3787
204 205
204 1996
204 3788
205 206
205 1997
205 3789
206 207
206 1998
206 3790
207 208
207 1999
207 3791
208 209
208 2000
208 3792
209 210
209 2001
209 3793
210 211
210 2002
210 3794
211 212
211 2003
211 3795
212 213
212 2004
212 3796
213 214
213 2005
213 3797
214 215
214 2006
214 3798
215 216
215 2007
215 3799
216 217
216 2008
216 3800
217 218
217 2009
217 3801
218 219
218 2010
218 3802
219 220
219 2011
219 3803
220 221
220 2012
220 3804
221 222
221 2013
221 3805
222 223
222 2014
222 3806
223 224
223 2015
223 3807
224 225
224 2016
224 3808
225 226
225 2017
225 3809
226 227
226 2018
226 3810
227 228
227 2019
227 3811
228 229
228 2020
228 3812
229 230
229 2021
229 3813
230 231
230 2022
230 3814
231 232
231 2023
231 3815
232 233
232 2024
232 3816
233 234
233 2025
233 3817
234 235
234 2026
234 3818
235 236
235 2027
235 3819
236 237
236 2028
236 3820
237 238
237 2029
237 3821
238 239
238 2030
238 3822
239 240
239 2031
239 3823
240 241
240 2032
240 3824
241 242
241 2033
241 3825
242 243
242 2034
242 3826
243 244
243 2035
243 3827
244 245
244 2036
244 3828
245 246
245 2037
245 3829
246 247
246 2038
246 3830
247 248
247 2039
247 3831
248 249
248 2040
248 3832
249 250
249 2041
249 3833
250 251
250 2042
250 3834
251 252
251 2043
251 3835
252 253
252 2044
252 3836
253 254
253 2045
253 3837
254 255
254 2046
254 3838
255 0
255 2047
255 3839
256 256
256 2048
256 3840
257 257
257 2049
257 3841
258 258
258 2050
258 3842
259 259
259 2051
259 3843
260 260
260 2052
260 3844
261 261
261 2053
261 3845
262 262
262 2054
262 3846
263 263
263 2055
263 3847
264 264
264 2056
264 3848
265 265
265 2057
265 3849
266 266
266 2058
266 3850
267 267
267 2059
267 3851
268 268
268 2060
268 3852
269 269
269 2061
269 3853
270 270
270 2062
270 3854
271 271
271 2063
271 3855
272 272
272 2064
272 3856
273 273
273 2065
273 3857
274 274
274 2066
274 3858
275 275
275 2067
275 3859
276 276
276 2068
276 3860
277 277
277 2069
277 3861
278 278
278 2070
278 3862
279 279
279 2071
279 3863
280 280
280 2072
280 3864
281 281
281 2073
281 3865
282 282
282 2074
282 3866
283 283
283 2075
283 3867
284 284
284 2076
284 3868
285 285
285 2077
285 3869
286 286
286 2078
286 3870
287 287
287 2079
287 3871
288 288
288 2080
288 3872
289 289
289 2081
289 3873
290 290
290 2082
290 3874
291 291
291 2083
291 3875
292 292
292 2084
292 3876
293 293
293 2085
293 3877
294 294
294 2086
294 3878
295 295
295 2087
295 3879
296 296
296 2088
296 3880
297 297
297 2089
297 3881
298 298
298 2090
298 3882
299 299
299 2091
299 3883
300 300
300 2092
300 3884
301 301
301 2093
301 3885
302 302
302 2094
302 3886
303 303
303 2095
303 3887
304 304
304 2096
304 3888
305 305
305 2097
305 3889
306 306
306 2098
306 3890
307 307
307 2099
307 3891
308 308
308 2100
308 3892
309 309
309 2101
309 3893
310 310
310 2102
310 3894
311 311
311 2103
311 3895
312 312
312 2104
312 3896
313 313
313 2105
313 3897
314 314
314 2106
314 3898
315 315
315 2107
315 3899
316 316
316 2108
316 3900
317 317
317 2109
317 3901
318 318
318 2110
318 3902
319 319
319 2111
319 3903
320 320
320 2112
320 3904
321 321
321 2113
321 3905
322 322
322 2114
322 3906
323 323
323 2115
323 3907
324 324
324 2116
324 3908
325 325
325 2117
325 3909
326 326
326 2118
326 3910
327 327
327 2119
327 3911
328 328
328 2120
328 3912
329 329
329 2121
329 3913
330 330
330 2122
330 3914
331 331
331 2123
331 3915
332 332
332 2124
332 3916
333 333
333 2125
333 3917
334 334
334 2126
334 3918
335 335
335 2127
335 3919
336 336
336 2128
336 3920
337 337
337 2129
337 3921
338 338
338 2130
338 3922
339 339
339 2131
339 3923
340 340
340 2132
340 3924
341 341
341 2133
341 3925
342 342
342 2134
342 3926
343 343
343 2135
343 3927
344 344
344 2136
344 3928
345 345
345 2137
345 3929
346 346
346 2138
346 3930
347 347
347 2139
347 3931
348 348
348 2140
348 3932
349 349
349 2141
349 3933
350 350
350 2142
350 3934
351 351
351 2143
351 3935
352 352
352 2144
352 3936
353 353
353 2145
353 3937
354 354
354 2146
354 3938
355 355
355 2147
355 3939
356 356
356 2148
356 3940
357 357
357 2149
357 3941
358 358
358 2150
358 3942
359 359
359 2151
359 3943
360 360
360 2152
360 3944
361 361
361 2153
361 3945
362 362
362 2154
362 3946
363 363
363 2155
363 3947
364 364
364 2156
364 3948
365 365
365 2157
365 3949
366 366
366 2158
366 3950
367 367
367 2159
367 3951
368 368
368 2160
368 3952
369 369
369 2161
369 3953
370 370
370 2162
370 3954
371 371
371 2163
371 3955
372 372
372 2164
372 3956
373 373
373 2165
373 3957
374 374
374 2166
374 3958
375 375
375 2167
375 3959
376 376
376 2168
376 3960
377 377
377 2169
377 3961
378 378
378 2170
378 3962
379 379
379 2171
379 3963
380 380
380 2172
380 3964
381 381
381 2173
381 3965
382 382
382 2174
382 3966
383 383
383 2175
383 3967
384 384
384 2176
384 3968
385 385
385 2177
385 3969
386 386
386 2178
386 3970
387 387
387 2179
387 3971
388 388
388 2180
388 3972
389 389
389 2181
389 3973
390 390
390 2182
390 3974
391 391
391 2183
391 3975
392 392
392 2184
392 3976
393 393
393 2185
393 3977
394 394
394 2186
394 3978
395 395
395 2187
395 3979
396 396
396 2188
396 3980
397 397
397 2189
397 3981
398 398
398 2190
398 3982
399 399
399 2191
399 3983
400 400
400 2192
400 3984
401 401
401 2193
401 3985
402 402
402 2194
402 3986
403 403
403 2195
403 3987
404 404
404 2196
404 3988
405 405
405 2197
405 3989
406 406
406 2198
406 3990
407 407
407 2199
407 3991
408 408
408 2200
408 3992
409 409
409 2201
409 3993
410 410
410 2202
410 3994
411 411
411 2203
411 3995
412 412
412 2204
412 3996
413 413
413 2205
413 3997
414 414
414 2206
414 3998
415 415
415 2207
415 3999
416 416
416 2208
416 4000
417 417
417 2209
417 4001
418 418
418 2210
418 4002
419 419
419 2211
419 4003
420 420
420 2212
420 4004
421 421
421 2213
421 4005
422 422
422 2214
422 4006
423 423
423 2215
423 4007
424 424
424 2216
424 4008
425 425
425 2217
425 4009
426 426
426 2218
426 4010
427 427
427 2219
427 4011
428 428
428 2220
428 4012
429 429
429 2221
429 4013
430 430
430 2222
430 4014
431 431
431 2223
431 4015
432 432
432 2224
432 4016
433 433
433 2225
433 4017
434 434
434 2226
434 4018
435 435
435 2227
435 4019
436 436
436 2228
436 4020
437 437
437 2229
437 4021
438 438
438 2230
438 4022
439 439
439 2231
439 4023
440 440
440 2232
440 4024
441 441
441 2233
441 4025
442 442
442 2234
442 4026
443 443
443 2235
443 4027
444 444
444 2236
444 4028
445 445
445 2237
445 4029
446 446
446 2238
446 4030
447 447
447 2239
447 4031
448 448
448 2240
448 4032
449 449
449 2241
449 4033
450 450
450 2242
450 4034
451 451
451 2243
451 4035
452 452
452 2244
452 4036
453 453
453 2245
453 4037
454 454
454 2246
454 4038
455 455
455 2247
455 4039
456 456
456 2248
456 4040
457 457
457 2249
457 4041
458 458
458 2250
458 4042
459 459
459 2251
459 4043
460 460
460 2252
460 4044
461 461
461 2253
461 4045
462 462
462 2254
462 4046
463 463
463 2255
463 4047
464 464
464 2256
464 4048
465 465
465 2257
465 4049
466 466
466 2258
466 4050
467 467
467 2259
467 4051
468 468
468 2260
468 4052
469 469
469 2261
469 4053
470 470
470 2262
470 4054
471 471
471 2263
471 4055
472 472
472 2264
472 4056
473 473
473 2265
473 4057
474 474
474 2266
474 4058
475 475
475 2267
475 4059
476 476
476 2268
476 4060
477 477
477 2269
477 4061
478 478
478 2270
478 4062
479 479
479 2271
479 4063
480 480
480 2272
480 4064
481 481
481 2273
481 4065
482 482
482 2274
482 4066
483 483
483 2275
483 4067
484 484
484 2276
484 4068
485 485
485 2277
485 4069
486 486
486 2278
486 4070
487 487
487 2279
487 4071
488 488
488 2280
488 4072
489 489
489 2281
489 4073
490 490
490 2282
490 4074
491 491
491 2283
491 4075
492 492
492 2284
492 4076
493 493
493 2285
493 4077
494 494
494 2286
494 4078
495 495
495 2287
495 4079
496 496
496 2288
496 4080
497 497
497 2289
497 4081
498 498
498 2290
498 4082
499 499
499 2291
499 4083
500 500
500 2292
500 4084
501 501
501 2293
501 4085
502 502
502 2294
502 4086
503 503
503 2295
503 4087
504 504
504 2296
504 4088
505 505
505 2297
505 4089
506 506
506 2298
506 4090
507 507
507 2299
507 4091
508 508
508 2300
508 4092
509 509
509 2301
509 4093
510 510
510 2302
510 4094
511 511
511 2303
511 4095
512 512
512 2304
512 4096
513 513
513 2305
513 4097
514 514
514 2306
514 4098
515 515
515 2307
515 4099
516 516
516 2308
516 4100
517 517
517 2309
517 4101
518 518
518 2310
518 4102
519 519
519 2311
519 4103
520 520
520 2312
520 4104
521 521
521 2313
521 4105
522 522
522 2314
522 4106
523 523
523 2315
523 4107
524 524
524 2316
524 4108
525 525
525 2317
525 4109
526 526
526 2318
526 4110
527 527
527 2319
527 4111
528 528
528 2320
528 4112
529 529
529 2321
529 4113
530 530
530 2322
530 4114
531 531
531 2323
531 4115
532 532
532 2324
532 4116
533 533
533 2325
533 4117
534 534
534 2326
534 4118
535 535
535 2327
535 4119
536 536
536 2328
536 4120
537 537
537 2329
537 4121
538 538
538 2330
538 4122
539 539
539 2331
539 4123
540 540
540 2332
540 4124
541 541
541 2333
541 4125
542 542
542 2334
542 4126
543 543
543 2335
543 4127
544 544
544 2336
544 4128
545 545
545 2337
545 4129
546 546
546 2338
546 4130
547 547
547 2339
547 4131
548 548
548 2340
548 4132
549 549
549 2341
549 4133
550 550
550 2342
550 4134
551 551
551 2343
551 4135
552 552
552 2344
552 4136
553 553
553 2345
553 4137
554 554
554 2346
554 4138
555 555
555 2347
555 4139
556 556
556 2348
556 4140
557 557
557 2349
557 4141
558 558
558 2350
558 4142
559 559
559 2351
559 4143
560 560
560 2352
560 4144
561 561
561 2353
561 4145
562 562
562 2354
562 4146
563 563
563 2355
563 4147
564 564
564 2356
564 4148
565 565
565 2357
565 4149
566 566
566 2358
566 4150
567 567
567 2359
567 4151
568 568
568 2360
568 4152
569 569
569 2361
569 4153
570 570
570 2362
570 4154
571 571
571 2363
571 4155
572 572
572 2364
572 4156
573 573
573 2365
573 4157
574 574
574 2366
574 4158
575 575
575 2367
575 4159
576 576
576 2368
576 4160
577 577
577 2369
577 4161
578 578
578 2370
578 4162
579 579
579 2371
579 4163
580 580
580 2372
580 4164
581 581
581 2373
581 4165
582 582
582 2374
582 4166
583 583
583 2375
583 4167
584 584
584 2376
584 4168
585 585
585 2377
585 4169
586 586
586 2378
586 4170
587 587
587 2379
587 4171
588 588
588 2380
588 4172
589 589
589 2381
589 4173
590 590
590 2382
590 4174
591 591
591 2383
591 4175
592 592
592 2384
592 4176
593 593
593 2385
593 4177
594 594
594 2386
594 4178
595 595
595 2387
595 4179
596 596
596 2388
596 4180
597 597
597 2389
597 4181
598 598
598 2390
598 4182
599 599
599 2391
599 4183
600 600
600 2392
600 4184
601 601
601 2393
601 4185
602 602
602 2394
602 4186
603 603
603 2395
603 4187
604 604
604 2396
604 4188
605 605
605 2397
605 4189
606 606
606 2398
606 4190
607 607
607 2399
607 4191
608 608
608 2400
608 4192
609 609
609 2401
609 4193
610 610
610 2402
610 4194
611 611
611 2403
611 4195
612 612
612 2404
612 4196
613 613
613 2405
613 4197
614 614
614 2406
614 4198
615 615
615 2407
615 4199
616 616
616 2408
616 4200
617 617
617 2409
617 4201
618 618
618 2410
618 4202
619 619
619 2411
619 4203
620 620
620 2412
620 4204
621 621
621 2413
621 4205
622 622
622 2414
622 4206
623 623
623 2415
623 4207
624 624
624 2416
624 4208
625 625
625 2417
625 4209
626 626
626 2418
626 4210
627 627
627 2419
627 4211
628 628
628 2420
628 4212
629 629
629 2421
629 4213
630 630
630 2422
630 4214
631 631
631 2423
631 4215
632 632
632 2424
632 4216
633 633
633 2425
633 4217
634 634
634 2426
634 4218
635 635
635 2427
635 4219
636 636
636 2428
636 4220
637 637
637 2429
637 4221
638 638
638 2430
638 4222
639 639
639 2431
639 4223
640 640
640 2432
640 4224
641 641
641 2433
641 4225
642 642
642 2434
642 4226
643 643
643 2435
643 4227
644 644
644 2436
644 4228
645 645
645 2437
645 4229
646 646
646 2438
646 4230
647 647
647 2439
647 4231
648 648
648 2440
648 4232
649 649
649 2441
649 4233
650 650
650 2442
650 4234
651 651
651 2443
651 4235
652 652
652 2444
652 4236
653 653
653 2445
653 4237
654 654
654 2446
654 4238
655 655
655 2447
655 4239
656 656
656 2448
656 4240
657 657
657 2449
657 4241
658 658
658 2450
658 4242
659 659
659 2451
659 4243
660 660
660 2452
660 4244
661 661
661 2453
661 4245
662 662
662 2454
662 4246
663 663
663 2455
663 4247
664 664
664 2456
664 4248
665 665
665 2457
665 4249
666 666
666 2458
666 4250
667 667
667 2459
667 4251
668 668
668 2460
668 4252
669 669
669 2461
669 4253
670 670
670 2462
670 4254
671 671
671 2463
671 4255
672 672
672 2464
672 4256
673 673
673 2465
673 4257
674 674
674 2466
674 4258
675 675
675 2467
675 4259
676 676
676 2468
676 4260
677 677
677 2469
677 4261
678 678
678 2470
678 4262
679 679
679 2471
679 4263
680 680
680 2472
680 4264
681 681
681 2473
681 4265
682 682
682 2474
682 4266
683 683
683 2475
683 4267
684 684
684 2476
684 4268
685 685
685 2477
685 4269
686 686
686 2478
686 4270
687 687
687 2479
687 4271
688 688
688 2480
688 4272
689 689
689 2481
689 4273
690 690
690 2482
690 4274
691 691
691 2483
691 4275
692 692
692 2484
692 4276
693 693
693 2485
693 4277
694 694
694 2486
694 4278
695 695
695 2487
695 4279
696 696
696 2488
696 4280
697 697
697 2489
697 4281
698 698
698 2490
698 4282
699 699
699 2491
699 4283
700 700
700 2492
700 4284
701 701
701 2493
701 4285
702 702
702 2494
702 4286
703 703
703 2495
703 4287
704 704
704 2496
704 4288
705 705
705 2497
705 4289
706 706
706 2498
706 4290
707 707
707 2499
707 4291
708 708
708 2500
708 4292
709 709
709 2501
709 4293
710 710
710 2502
710 4294
711 711
711 2503
711 4295
712 712
712 2504
712 4296
713 713
713 2505
713 4297
714 714
714 2506
714 4298
715 715
715 2507
715 4299
716 716
716 2508
716 4300
717 717
717 2509
717 4301
718 718
718 2510
718 4302
719 719
719 2511
719 4303
720 720
720 2512
720 4304
721 721
721 2513
721 4305
722 722
722 2514
722 4306
723 723
723 2515
723 4307
724 724
724 2516
724 4308
725 725
725 2517
725 4309
726 726
726 2518
726 4310
727 727
727 2519
727 4311
728 728
728 2520
728 4312
729 729
729 2521
729 4313
730 730
730 2522
730 4314
731 731
731 2523
731 4315
732 732
732 2524
732 4316
733 733
733 2525
733 4317
734 734
734 2526
734 4318
735 735
735 2527
735 4319
736 736
736 2528
736 4320
737 737
737 2529
737 4321
738 738
738 2530
738 4322
739 739
739 2531
739 4323
740 740
740 2532
740 4324
741 741
741 2533
741 4325
742 742
742 2534
742 4326
743 743
743 2535
743 4327
744 744
744 2536
744 4328
745 745
745 2537
745 4329
746 746
746 2538
746 4330
747 747
747 2539
747 4331
748 748
748 2540
748 4332
749 749
749 2541
749 4333
750 750
750 2542
750 4334
751 751
751 2543
751 4335
752 752
752 2544
752 4336
753 753
753 2545
753 4337
754 754
754 2546
754 4338
755 755
755 2547
755 4339
756 756
756 2548
756 4340
757 757
757 2549
757 4341
758 758
758 2550
758 4342
759 759
759 2551
759 4343
760 760
760 2552
760 4344
761 761
761 2553
761 4345
762 762
762 2554
762 4346
763 763
763 2555
763 4347
764 764
764 2556
764 4348
765 765
765 2557
765 4349
766 766
766 2558
766 4350
767 767
767 2559
767 4351
768 768
768 2560
768 4352
769 769
769 2561
769 4353
770 770
770 2562
770 4354
771 771
771 2563
771 4355
772 772
772 2564
772 4356
773 773
773 2565
773 4357
774 774
774 2566
774 4358
775 775
775 2567
775 4359
776 776
776 2568
776 4360
777 777
777 2569
777 4361
778 778
778 2570
778 4362
779 779
779 2571
779 4363
780 780
780 2572
780 4364
781 781
781 2573
781 4365
782 782
782 2574
782 4366
783 783
783 2575
783 4367
784 784
784 2576
784 4368
785 785
785 2577
785 4369
786 786
786 2578
786 4370
787 787
787 2579
787 4371
788 788
788 2580
788 4372
789 789
789 2581
789 4373
790 790
790 2582
790 4374
791 791
791 2583
791 4375
792 792
792 2584
792 4376
793 793
793 2585
793 4377
794 794
794 2586
794 4378
795 795
795 2587
795 4379
796 796
796 2588
796 4380
797 797
797 2589
797 4381
798 798
798 2590
798 4382
799 799
799 2591
799 4383
800 800
800 2592
800 4384
801 801
801 2593
801 4385
802 802
802 2594
802 4386
803 803
803 2595
803 4387
804 804
804 2596
804 4388
805 805
805 2597
805 4389
806 806
806 2598
806 4390
807 807
807 2599
807 4391
808 808
808 2600
808 4392
809 809
809 2601
809 4393
810 810
810 2602
810 4394
811 811
811 2603
811 4395
812 812
812 2604
812 4396
813 813
813 2605
813 4397
814 814
814 2606
814 4398
815 815
815 2607
815 4399
816 816
816 2608
816 4400
817 817
817 2609
817 4401
818 818
818 2610
818 4402
819 819
819 2611
819 4403
820 820
820 2612
820 4404
821 821
821 2613
821 4405
822 822
822 2614
822 4406
823 823
823 2615
823 4407
824 824
824 2616
824 4408
825 825
825 2617
825 4409
826 826
826 2618
826 4410
827 827
827 2619
827 4411
828 828
828 2620
828 4412
829 829
829 2621
829 4413
830 830
830 2622
830 4414
831 831
831 2623
831 4415
832 832
832 2624
832 4416
833 833
833 2625
833 4417
834 834
834 2626
834 4418
835 835
835 2627
835 4419
836 836
836 2628
836 4420
837 837
837 2629
837 4421
838 838
838 2630
838 4422
839 839
839 2631
839 4423
840 840
840 2632
840 4424
841 841
841 2633
841 4425
842 842
842 2634
842 4426
843 843
843 2635
843 4427
844 844
844 2636
844 4428
845 845
845 2637
845 4429
846 846
846 2638
846 4430
847 847
847 2639
847 4431
848 848
848 2640
848 4432
849 849
849 2641
849 4433
850 850
850 2642
850 4434
851 851
851 2643
851 4435
852 852
852 2644
852 4436
853 853
853 2645
853 4437
854 854
854 2646
854 4438
855 855
855 2647
855 4439
856 856
856 2648
856 4440
857 857
857 2649
857 4441
858 858
858 2650
858 4442
859 859
859 2651
859 4443
860 860
860 2652
860 4444
861 861
861 2653
861 4445
862 862
862 2654
862 4446
863 863
863 2655
863 4447
864 864
864 2656
864 4448
865 865
865 2657
865 4449
866 866
866 2658
866 4450
867 867
867 2659
867 4451
868 868
868 2660
868 4452
869 869
869 2661
869 4453
870 870
870 2662
870 4454
871 871
871 2663
871 4455
872 872
872 2664
872 4456
873 873
873 2665
873 4457
874 874
874 2666
874 4458
875 875
875 2667
875 4459
876 876
876 2668
876 4460
877 877
877 2669
877 4461
878 878
878 2670
878 4462
879 879
879 2671
879 4463
880 880
880 2672
880 4464
881 881
881 2673
881 4465
882 882
882 2674
882 4466
883 883
883 2675
883 4467
884 884
884 2676
884 4468
885 885
885 2677
885 4469
886 886
886 2678
886 4470
887 887
887 2679
887 4471
888 888
888 2680
888 4472
889 889
889 2681
889 4473
890 890
890 2682
890 4474
891 891
891 2683
891 4475
892 892
892 2684
892 4476
893 893
893 2685
893 4477
894 894
894 2686
894 4478
895 895
895 2687
895 4479
896 896
896 2688
896 4480
897 897
897 2689
897 4481
898 898
898 2690
898 4482
899 899
899 2691
899 4483
900 900
900 2692
900 4484
901 901
901 2693
901 4485
902 902
902 2694
902 4486
903 903
903 2695
903 4487
904 904
904 2696
904 4488
905 905
905 2697
905 4489
906 906
906 2698
906 4490
907 907
907 2699
907 4491
908 908
908 2700
908 4492
909 909
909 2701
909 4493
910 910
910 2702
910 4494
911 911
911 2703
911 4495
912 912
912 2704
912 4496
913 913
913 2705
913 4497
914 914
914 2706
914 4498
915 915
915 2707
915 4499
916 916
916 2708
916 4500
917 917
917 2709
917 4501
918 918
918 2710
918 4502
919 919
919 2711
919 4503
920 920
920 2712
920 4504
921 921
921 2713
921 4505
922 922
922 2714
922 4506
923 923
923 2715
923 4507
924 924
924 2716
924 4508
925 925
925 2717
925 4509
926 926
926 2718
926 4510
927 927
927 2719
927 4511
928 928
928 2720
928 4512
929 929
929 2721
929 4513
930 930
930 2722
930 4514
931 931
931 2723
931 4515
932 932
932 2724
932 4516
933 933
933 2725
933 4517
934 934
934 2726
934 4518
935 935
935 2727
935 4519
936 936
936 2728
936 4520
937 937
937 2729
937 4521
938 938
938 2730
938 4522
939 939
939 2731
939 4523
940 940
940 2732
940 4524
941 941
941 2733
941 4525
942 942
942 2734
942 4526
943 943
943 2735
943 4527
944 944
944 2736
944 4528
945 945
945 2737
945 4529
946 946
946 2738
946 4530
947 947
947 2739
947 4531
948 948
948 2740
948 4532
949 949
949 2741
949 4533
950 950
950 2742
950 4534
951 951
951 2743
951 4535
952 952
952 2744
952 4536
953 953
953 2745
953 4537
954 954
954 2746
954 4538
955 955
955 2747
955 4539
956 956
956 2748
956 4540
957 957
957 2749
957 4541
958 958
958 2750
958 4542
959 959
959 2751
959 4543
960 960
960 2752
960 4544
961 961
961 2753
961 4545
962 962
962 2754
962 4546
963 963
963 2755
963 4547
964 964
964 2756
964 4548
965 965
965 2757
965 4549
966 966
966 2758
966 4550
967 967
967 2759
967 4551
968 968
968 2760
968 4552
969 969
969 2761
969 4553
970 970
970 2762
970 4554
971 971
971 2763
971 4555
972 972
972 2764
972 4556
973 973
973 2765
973 4557
974 974
974 2766
974 4558
975 975
975 2767
975 4559
976 976
976 2768
976 4560
977 977
977 2769
977 4561
978 978
978 2770
978 4562
979 979
979 2771
979 4563
980 980
980 2772
980 4564
981 981
981 2773
981 4565
982 982
982 2774
982 4566
983 983
983 2775
983 4567
984 984
984 2776
984 4568
985 985
985 2777
985 4569
986 986
986 2778
986 4570
987 987
987 2779
987 4571
988 988
988 2780
988 4572
989 989
989 2781
989 4573
990 990
990 2782
990 4574
991 991
991 2783
991 4575
992 992
992 2784
992 4576
993 993
993 2785
993 4577
994 994
994 2786
994 4578
995 995
995 2787
995 4579
996 996
996 2788
996 4580
997 997
997 2789
997 4581
998 998
998 2790
998 4582
999 999
999 2791
999 4583
1000 1000
1000 2792
1000 4584
1001 1001
1001 2793
1001 4585
1002 1002
1002 2794
1002 4586
1003 1003
1003 2795
1003 4587
1004 1004
1004 2796
1004 4588
1005 1005
1005 2797
1005 4589
1006 1006
1006 2798
1006 4590
1007 1007
1007 2799
1007 4591
1008 1008
1008 2800
1008 4592
1009 1009
1009 2801
1009 4593
1010 1010
1010 2802
1010 4594
1011 1011
1011 2803
1011 4595
1012 1012
1012 2804
1012 4596
1013 1013
1013 2805
1013 4597
1014 1014
1014 2806
1014 4598
1015 1015
1015 2807
1015 4599
1016 1016
1016 2808
1016 4600
1017 1017
1017 2809
1017 4601
1018 1018
1018 2810
1018 4602
1019 1019
1019 2811
1019 4603
1020 1020
1020 2812
1020 4604
1021 1021
1021 2813
1021 4605
1022 1022
1022 2814
1022 4606
1023 1023
1023 2815
1023 4607
1024 1024
1024 2816
1024 4608
1025 1025
1025 2817
1025 4609
1026 1026
1026 2818
1026 4610
1027 1027
1027 2819
1027 4611
1028 1028
1028 2820
1028 4612
1029 1029
1029 2821
1029 4613
1030 1030
1030 2822
1030 4614
1031 1031
1031 2823
1031 4615
1032 1032
1032 2824
1032 4616
1033 1033
1033 2825
1033 4617
1034 1034
1034 2826
1034 4618
1035 1035
1035 2827
1035 4619
1036 1036
1036 2828
1036 4620
1037 1037
1037 2829
1037 4621
1038 1038
1038 2830
1038 4622
1039 1039
1039 2831
1039 4623
1040 1040
1040 2832
1040 4624
1041 1041
1041 2833
1041 4625
1042 1042
1042 2834
1042 4626
1043 1043
1043 2835
1043 4627
1044 1044
1044 2836
1044 4628
1045 1045
1045 2837
1045 4629
1046 1046
1046 2838
1046 4630
1047 1047
1047 2839
1047 4631
1048 1048
1048 2840
1048 4632
1049 1049
1049 2841
1049 4633
1050 1050
1050 2842
1050 4634
1051 1051
1051 2843
1051 4635
1052 1052
1052 2844
1052 4636
1053 1053
1053 2845
1053 4637
1054 1054
1054 2846
1054 4638
1055 1055
1055 2847
1055 4639
1056 1056
1056 2848
1056 4640
1057 1057
1057 2849
1057 4641
1058 1058
1058 2850
1058 4642
1059 1059
1059 2851
1059 4643
1060 1060
1060 2852
1060 4644
1061 1061
1061 2853
1061 4645
1062 1062
1062 2854
1062 4646
1063 1063
1063 2855
1063 4647
1064 1064
1064 2856
1064 4648
1065 1065
1065 2857
1065 4649
1066 1066
1066 2858
1066 4650
1067 1067
1067 2859
1067 4651
1068 1068
1068 2860
1068 4652
1069 1069
1069 2861
1069 4653
1070 1070
1070 2862
1070 4654
1071 1071
1071 2863
1071 4655
1072 1072
1072 2864
1072 4656
1073 1073
1073 2865
1073 4657
1074 1074
1074 2866
1074 4658
1075 1075
1075 2867
1075 4659
1076 1076
1076 2868
1076 4660
1077 1077
1077 2869
1077 4661
1078 1078
1078 2870
1078 4662
1079 1079
1079 2871
1079 4663
1080 1080
1080 2872
1080 4664
1081 1081
1081 2873
1081 4665
1082 1082
1082 2874
1082 4666
1083 1083
1083 2875
1083 4667
1084 1084
1084 2876
1084 4668
1085 1085
1085 2877
1085 4669
1086 1086
1086 2878
1086 4670
1087 1087
1087 2879
1087 4671
1088 1088
1088 2880
1088 4672
1089 1089
1089 2881
1089 4673
1090 1090
1090 2882
1090 4674
1091 1091
1091 2883
1091 4675
1092 1092
1092 2884
1092 4676
1093 1093
1093 2885
1093 4677
1094 1094
1094 2886
1094 4678
1095 1095
1095 2887
1095 4679
1096 1096
1096 2888
1096 4680
1097 1097
1097 2889
1097 4681
1098 1098
1098 2890
1098 4682
1099 1099
1099 2891
1099 4683
1100 1100
1100 2892
1100 4684
1101 1101
1101 2893
1101 4685
1102 1102
1102 2894
1102 4686
1103 1103
1103 2895
1103 4687
1104 1104
1104 2896
1104 4688
1105 1105
1105 2897
1105 4689
1106 1106
1106 2898
1106 4690
1107 1107
1107 2899
1107 4691
1108 1108
1108 2900
1108 4692
1109 1109
1109 2901
1109 4693
1110 1110
1110 2902
1110 4694
1111 1111
1111 2903
1111 4695
1112 1112
1112 2904
1112 4696
1113 1113
1113 2905
1113 4697
1114 1114
1114 2906
1114 4698
1115 1115
1115 2907
1115 4699
1116 1116
1116 2908
1116 4700
1117 1117
1117 2909
1117 4701
1118 1118
1118 2910
1118 4702
1119 1119
1119 2911
1119 4703
1120 1120
1120 2912
1120 4704
1121 1121
1121 2913
1121 4705
1122 1122
1122 2914
1122 4706
1123 1123
1123 2915
1123 4707
1124 1124
1124 2916
1124 4708
1125 1125
1125 2917
1125 4709
1126 1126
1126 2918
1126 4710
1127 1127
1127 2919
1127 4711
1128 1128
1128 2920
1128 4712
1129 1129
1129 2921
1129 4713
1130 1130
1130 2922
1130 4714
1131 1131
1131 2923
1131 4715
1132 1132
1132 2924
1132 4716
1133 1133
1133 2925
1133 4717
1134 1134
1134 2926
1134 4718
1135 1135
1135 2927
1135 4719
1136 1136
1136 2928
1136 4720
1137 1137
1137 2929
1137 4721
1138 1138
1138 2930
1138 4722
1139 1139
1139 2931
1139 4723
1140 1140
1140 2932
1140 4724
1141 1141
1141 2933
1141 4725
1142 1142
1142 2934
1142 4726
1143 1143
1143 2935
1143 4727
1144 1144
1144 2936
1144 4728
1145 1145
1145 2937
1145 4729
1146 1146
1146 2938
1146 4730
1147 1147
1147 2939
1147 4731
1148 1148
1148 2940
1148 4732
1149 1149
1149 2941
1149 4733
1150 1150
1150 2942
1150 4734
1151 1151
1151 2943
1151 4735
1152 1152
1152 2944
1152 4736
1153 1153
1153 2945
1153 4737
1154 1154
1154 2946
1154 4738
1155 1155
1155 2947
1155 4739
1156 1156
1156 2948
1156 4740
1157 1157
1157 2949
1157 4741
1158 1158
1158 2950
1158 4742
1159 1159
1159 2951
1159 4743
1160 1160
1160 2952
1160 4744
1161 1161
1161 2953
1161 4745
1162 1162
1162 2954
1162 4746
1163 1163
1163 2955
1163 4747
1164 1164
1164 2956
1164 4748
1165 1165
1165 2957
1165 4749
1166 1166
1166 2958
1166 4750
1167 1167
1167 2959
1167 4751
1168 1168
1168 2960
1168 4752
1169 1169
1169 2961
1169 4753
1170 1170
1170 2962
1170 4754
1171 1171
1171 2963
1171 4755
1172 1172
1172 2964
1172 4756
1173 1173
1173 2965
1173 4757
1174 1174
1174 2966
1174 4758
1175 1175
1175 2967
1175 4759
1176 1176
1176 2968
1176 4760
1177 1177
1177 2969
1177 4761
1178 1178
1178 2970
1178 4762
1179 1179
1179 2971
1179 4763
1180 1180
1180 2972
1180 4764
1181 1181
1181 2973
1181 4765
1182 1182
1182 2974
1182 4766
1183 1183
1183 2975
1183 4767
1184 1184
1184 2976
1184 4768
1185 1185
1185 2977
1185 4769
1186 1186
1186 2978
1186 4770
1187 1187
1187 2979
1187 4771
1188 1188
1188 2980
1188 4772
1189 1189
1189 2981
1189 4773
1190 1190
1190 2982
1190 4774
1191 1191
1191 2983
1191 4775
1192 1192
1192 2984
1192 4776
1193 1193
1193 2985
1193 4777
1194 1194
1194 2986
1194 4778
1195 1195
1195 2987
1195 4779
1196 1196
1196 2988
1196 4780
1197 1197
1197 2989
1197 4781
1198 1198
1198 2990
1198 4782
1199 1199
1199 2991
1199 4783
1200 1200
1200 2992
1200 4784
1201 1201
1201 2993
1201 4785
1202 1202
1202 2994
1202 4786
1203 1203
1203 2995
1203 4787
1204 1204
1204 2996
1204 4788
1205 1205
1205 2997
1205 4789
1206 1206
1206 2998
1206 4790
1207 1207
1207 2999
1207 4791
1208 1208
1208 3000
1208 4792
1209 1209
1209 3001
1209 4793
1210 1210
1210 3002
1210 4794
1211 1211
1211 3003
1211 4795
1212 1212
1212 3004
1212 4796
1213 1213
1213 3005
1213 4797
1214 1214
1214 3006
1214 4798
1215 1215
1215 3007
1215 4799
1216 1216
1216 3008
1216 4800
1217 1217
1217 3009
1217 4801
1218 1218
1218 3010
1218 4802
1219 1219
1219 3011
1219 4803
1220 1220
1220 3012
1220 4804
1221 1221
1221 3013
1221 4805
1222 1222
1222 3014
1222 4806
1223 1223
1223 3015
1223 4807
1224 1224
1224 3016
1224 4808
1225 1225
1225 3017
1225 4809
1226 1226
1226 3018
1226 4810
1227 1227
1227 3019
1227 4811
1228 1228
1228 3020
1228 4812
1229 1229
1229 3021
1229 4813
1230 1230
1230 3022
1230 4814
1231 1231
1231 3023
1231 4815
1232 1232
1232 3024
1232 4816
1233 1233
1233 3025
1233 4817
1234 1234
1234 3026
1234 4818
1235 1235
1235 3027
1235 4819
1236 1236
1236 3028
1236 4820
1237 1237
1237 3029
1237 4821
1238 1238
1238 3030
1238 4822
1239 1239
1239 3031
1239 4823
1240 1240
1240 3032
1240 4824
1241 1241
1241 3033
1241 4825
1242 1242
1242 3034
1242 4826
1243 1243
1243 3035
1243 4827
1244 1244
1244 3036
1244 4828
1245 1245
1245 3037
1245 4829
1246 1246
1246 3038
1246 4830
1247 1247
1247 3039
1247 4831
1248 1248
1248 3040
1248 4832
1249 1249
1249 3041
1249 4833
1250 1250
1250 3042
1250 4834
1251 1251
1251 3043
1251 4835
1252 1252
1252 3044
1252 4836
1253 1253
1253 3045
1253 4837
1254 1254
1254 3046
1254 4838
1255 1255
1255 3047
1255 4839
1256 1256
1256 3048
1256 4840
1257 1257
1257 3049
1257 4841
1258 1258
1258 3050
1258 4842
1259 1259
1259 3051
1259 4843
1260 1260
1260 3052
1260 4844
1261 1261
1261 3053
1261 4845
1262 1262
1262 3054
1262 4846
1263 1263
1263 3055
1263 4847
1264 1264
1264 3056
1264 4848
1265 1265
1265 3057
1265 4849
1266 1266
1266 3058
1266 4850
1267 1267
1267 3059
1267 4851
1268 1268
1268 3060
1268 4852
1269 1269
1269 3061
1269 4853
1270 1270
1270 3062
1270 4854
1271 1271
1271 3063
1271 4855
1272 1272
1272 3064
1272 4856
1273 1273
1273 3065
1273 4857
1274 1274
1274 3066
1274 4858
1275 1275
1275 3067
1275 4859
1276 1276
1276 3068
1276 4860
1277 1277
1277 3069
1277 4861
1278 1278
1278 3070
1278 4862
1279 1279
1279 3071
1279 4863
1280 1280
1280 3072
1280 4864
1281 1281
1281 3073
1281 4865
1282 1282
1282 3074
1282 4866
1283 1283
1283 3075
1283 4867
1284 1284
1284 3076
1284 4868
1285 1285
1285 3077
1285 4869
1286 1286
1286 3078
1286 4870
1287 1287
1287 3079
1287 4871
1288 1288
1288 3080
1288 4872
1289 1289
1289 3081
1289 4873
1290 1290
1290 3082
1290 4874
1291 1291
1291 3083
1291 4875
1292 1292
1292 3084
1292 4876
1293 1293
1293 3085
1293 4877
1294 1294
1294 3086
1294 4878
1295 1295
1295 3087
1295 4879
1296 1296
1296 3088
1296 4880
1297 1297
1297 3089
1297 4881
1298 1298
1298 3090
1298 4882
1299 1299
1299 3091
1299 4883
1300 1300
1300 3092
1300 4884
1301 1301
1301 3093
1301 4885
1302 1302
1302 3094
1302 4886
1303 1303
1303 3095
1303 4887
1304 1304
1304 3096
1304 4888
1305 1305
1305 3097
1305 4889
1306 1306
1306 3098
1306 4890
1307 1307
1307 3099
1307 4891
1308 1308
1308 3100
1308 4892
1309 1309
1309 3101
1309 4893
1310 1310
1310 3102
1310 4894
1311 1311
1311 3103
1311 4895
1312 1312
1312 3104
1312 4896
1313 1313
1313 3105
1313 4897
1314 1314
1314 3106
1314 4898
1315 1315
1315 3107
1315 4899
1316 1316
1316 3108
1316 4900
1317 1317
1317 3109
1317 4901
1318 1318
1318 3110
1318 4902
1319 1319
1319 3111
1319 4903
1320 1320
1320 3112
1320 4904
1321 1321
1321 3113
1321 4905
1322 1322
1322 3114
1322 4906
1323 1323
1323 3115
1323 4907
1324 1324
1324 3116
1324 4908
1325 1325
1325 3117
1325 4909
1326 1326
1326 3118
1326 4910
1327 1327
1327 3119
1327 4911
1328 1328
1328 3120
1328 4912
1329 1329
1329 3121
1329 4913
1330 1330
1330 3122
1330 4914
1331 1331
1331 3123
1331 4915
1332 1332
1332 3124
1332 4916
1333 1333
1333 3125
1333 4917
1334 1334
1334 3126
1334 4918
1335 1335
1335 3127
1335 4919
1336 1336
1336 3128
1336 4920
1337 1337
1337 3129
1337 4921
1338 1338
1338 3130
1338 4922
1339 1339
1339 3131
1339 4923
1340 1340
1340 3132
1340 4924
1341 1341
1341 3133
1341 4925
1342 1342
1342 3134
1342 4926
1343 1343
1343 3135
1343 4927
1344 1344
1344 3136
1344 4928
1345 1345
1345 3137
1345 4929
1346 1346
1346 3138
1346 4930
1347 1347
1347 3139
1347 4931
1348 1348
1348 3140
1348 4932
1349 1349
1349 3141
1349 4933
1350 1350
1350 3142
1350 4934
1351 1351
1351 3143
1351 4935
1352 1352
1352 3144
1352 4936
1353 1353
1353 3145
1353 4937
1354 1354
1354 3146
1354 4938
1355 1355
1355 3147
1355 4939
1356 1356
1356 3148
1356 4940
1357 1357
1357 3149
1357 4941
1358 1358
1358 3150
1358 4942
1359 1359
1359 3151
1359 4943
1360 1360
1360 3152
1360 4944
1361 1361
1361 3153
1361 4945
1362 1362
1362 3154
1362 4946
1363 1363
1363 3155
1363 4947
1364 1364
1364 3156
1364 4948
1365 1365
1365 3157
1365 4949
1366 1366
1366 3158
1366 4950
1367 1367
1367 3159
1367 4951
1368 1368
1368 3160
1368 4952
1369 1369
1369 3161
1369 4953
1370 1370
1370 3162
1370 4954
1371 1371
1371 3163
1371 4955
1372 1372
1372 3164
1372 4956
1373 1373
1373 3165
1373 4957
1374 1374
1374 3166
1374 4958
1375 1375
1375 3167
1375 4959
1376 1376
1376 3168
1376 4960
1377 1377
1377 3169
1377 4961
1378 1378
1378 3170
1378 4962
1379 1379
1379 3171
1379 4963
1380 1380
1380 3172
1380 4964
1381 1381
1381 3173
1381 4965
1382 1382
1382 3174
1382 4966
1383 1383
1383 3175
1383 4967
1384 1384
1384 3176
1384 4968
1385 1385
1385 3177
1385 4969
1386 1386
1386 3178
1386 4970
1387 1387
1387 3179
1387 4971
1388 1388
1388 3180
1388 4972
1389 1389
1389 3181
1389 4973
1390 1390
1390 3182
1390 4974
1391 1391
1391 3183
1391 4975
1392 1392
1392 3184
1392 4976
1393 1393
1393 3185
1393 4977
1394 1394
1394 3186
1394 4978
1395 1395
1395 3187
1395 4979
1396 1396
1396 3188
1396 4980
1397 1397
1397 3189
1397 4981
1398 1398
1398 3190
1398 4982
1399 1399
1399 3191
1399 4983
1400 1400
1400 3192
1400 4984
1401 1401
1401 3193
1401 4985
1402 1402
1402 3194
1402 4986
1403 1403
1403 3195
1403 4987
1404 1404
1404 3196
1404 4988
1405 1405
1405 3197
1405 4989
1406 1406
1406 3198
1406 4990
1407 1407
1407 3199
1407 4991
1408 1408
1408 3200
1408 4992
1409 1409
1409 3201
1409 4993
1410 1410
1410 3202
1410 4994
1411 1411
1411 3203
1411 4995
1412 1412
1412 3204
1412 4996
1413 1413
1413 3205
1413 4997
1414 1414
1414 3206
1414 4998
1415 1415
1415 3207
1415 4999
1416 1416
1416 3208
1416 5000
1417 1417
1417 3209
1417 5001
1418 1418
1418 3210
1418 5002
1419 1419
1419 3211
1419 5003
1420 1420
1420 3212
1420 5004
1421 1421
1421 3213
1421 5005
1422 1422
1422 3214
1422 5006
1423 1423
1423 3215
1423 5007
1424 1424
1424 3216
1424 5008
1425 1425
1425 3217
1425 5009
1426 1426
1426 3218
1426 5010
1427 1427
1427 3219
1427 5011
1428 1428
1428 3220
1428 5012
1429 1429
1429 3221
1429 5013
1430 1430
1430 3222
1430 5014
1431 1431
1431 3223
1431 5015
1432 1432
1432 3224
1432 5016
1433 1433
1433 3225
1433 5017
1434 1434
1434 3226
1434 5018
1435 1435
1435 3227
1435 5019
1436 1436
1436 3228
1436 5020
1437 1437
1437 3229
1437 5021
1438 1438
1438 3230
1438 5022
1439 1439
1439 3231
1439 5023
1440 1440
1440 3232
1440 5024
1441 1441
1441 3233
1441 5025
1442 1442
1442 3234
1442 5026
1443 1443
1443 3235
1443 5027
1444 1444
1444 3236
1444 5028
1445 1445
1445 3237
1445 5029
1446 1446
1446 3238
1446 5030
1447 1447
1447 3239
1447 5031
1448 1448
1448 3240
1448 5032
1449 1449
1449 3241
1449 5033
1450 1450
1450 3242
1450 5034
1451 1451
1451 3243
1451 5035
1452 1452
1452 3244
1452 5036
1453 1453
1453 3245
1453 5037
1454 1454
1454 3246
1454 5038
1455 1455
1455 3247
1455 5039
1456 1456
1456 3248
1456 5040
1457 1457
1457 3249
1457 5041
1458 1458
1458 3250
1458 5042
1459 1459
1459 3251
1459 5043
1460 1460
1460 3252
1460 5044
1461 1461
1461 3253
1461 5045
1462 1462
1462 3254
1462 5046
1463 1463
1463 3255
1463 5047
1464 1464
1464 3256
1464 5048
1465 1465
1465 3257
1465 5049
1466 1466
1466 3258
1466 5050
1467 1467
1467 3259
1467 5051
1468 1468
1468 3260
1468 5052
1469 1469
1469 3261
1469 5053
1470 1470
1470 3262
1470 5054
1471 1471
1471 3263
1471 5055
1472 1472
1472 3264
1472 5056
1473 1473
1473 3265
1473 5057
1474 1474
1474 3266
1474 5058
1475 1475
1475 3267
1475 5059
1476 1476
1476 3268
1476 5060
1477 1477
1477 3269
1477 5061
1478 1478
1478 3270
1478 5062
1479 1479
1479 3271
1479 5063
1480 1480
1480 3272
1480 5064
1481 1481
1481 3273
1481 5065
1482 1482
1482 3274
1482 5066
1483 1483
1483 3275
1483 5067
1484 1484
1484 3276
1484 5068
1485 1485
1485 3277
1485 5069
1486 1486
1486 3278
1486 5070
1487 1487
1487 3279
1487 5071
1488 1488
1488 3280
1488 5072
1489 1489
1489 3281
1489 5073
1490 1490
1490 3282
1490 5074
1491 1491
1491 3283
1491 5075
1492 1492
1492 3284
1492 5076
1493 1493
1493 3285
1493 5077
1494 1494
1494 3286
1494 5078
1495 1495
1495 3287
1495 5079
1496 1496
1496 3288
1496 5080
1497 1497
1497 3289
1497 5081
1498 1498
1498 3290
1498 5082
1499 1499
1499 3291
1499 5083
1500 1500
1500 3292
1500 5084
1501 1501
1501 3293
1501 5085
1502 1502
1502 3294
1502 5086
1503 1503
1503 3295
1503 5087
1504 1504
1504 3296
1504 5088
1505 1505
1505 3297
1505 5089
1506 1506
1506 3298
1506 5090
1507 1507
1507 3299
1507 5091
1508 1508
1508 3300
1508 5092
1509 1509
1509 3301
1509 5093
1510 1510
1510 3302
1510 5094
1511 1511
1511 3303
1511 5095
1512 1512
1512 3304
1512 5096
1513 1513
1513 3305
1513 5097
1514 1514
1514 3306
1514 5098
1515 1515
1515 3307
1515 5099
1516 1516
1516 3308
1516 5100
1517 1517
1517 3309
1517 5101
1518 1518
1518 3310
1518 5102
1519 1519
1519 3311
1519 5103
1520 1520
1520 3312
1520 5104
1521 1521
1521 3313
1521 5105
1522 1522
1522 3314
1522 5106
1523 1523
1523 3315
1523 5107
1524 1524
1524 3316
1524 5108
1525 1525
1525 3317
1525 5109
1526 1526
1526 3318
1526 5110
1527 1527
1527 3319
1527 5111
1528 1528
1528 3320
1528 5112
1529 1529
1529 3321
1529 5113
1530 1530
1530 3322
1530 5114
1531 1531
1531 3323
1531 5115
1532 1532
1532 3324
1532 5116
1533 1533
1533 3325
1533 5117
1534 1534
1534 3326
1534 5118
1535 1535
1535 3327
1535 5119
1536 1536
1536 3328
1536 5120
1537 1537
1537 3329
1537 5121
1538 1538
1538 3330
1538 5122
1539 1539
1539 3331
1539 5123
1540 1540
1540 3332
1540 5124
1541 1541
1541 3333
1541 5125
1542 1542
1542 3334
1542 5126
1543 1543
1543 3335
1543 5127
1544 1544
1544 3336
1544 5128
1545 1545
1545 3337
1545 5129
1546 1546
1546 3338
1546 5130
1547 1547
1547 3339
1547 5131
1548 1548
1548 3340
1548 5132
1549 1549
1549 3341
1549 5133
1550 1550
1550 3342
1550 5134
1551 1551
1551 3343
1551 5135
1552 1552
1552 3344
1552 5136
1553 1553
1553 3345
1553 5137
1554 1554
1554 3346
1554 5138
1555 1555
1555 3347
1555 5139
1556 1556
1556 3348
1556 5140
1557 1557
1557 3349
1557 5141
1558 1558
1558 3350
1558 5142
1559 1559
1559 3351
1559 5143
1560 1560
1560 3352
1560 5144
1561 1561
1561 3353
1561 5145
1562 1562
1562 3354
1562 5146
1563 1563
1563 3355
1563 5147
1564 1564
1564 3356
1564 5148
1565 1565
1565 3357
1565 5149
1566 1566
1566 3358
1566 5150
1567 1567
1567 3359
1567 5151
1568 1568
1568 3360
1568 5152
1569 1569
1569 3361
1569 5153
1570 1570
1570 3362
1570 5154
1571 1571
1571 3363
1571 5155
1572 1572
1572 3364
1572 5156
1573 1573
1573 3365
1573 5157
1574 1574
1574 3366
1574 5158
1575 1575
1575 3367
1575 5159
1576 1576
1576 3368
1576 5160
1577 1577
1577 3369
1577 5161
1578 1578
1578 3370
1578 5162
1579 1579
1579 3371
1579 5163
1580 1580
1580 3372
1580 5164
1581 1581
1581 3373
1581 5165
1582 1582
1582 3374
1582 5166
1583 1583
1583 3375
1583 5167
1584 1584
1584 3376
1584 5168
1585 1585
1585 3377
1585 5169
1586 1586
1586 3378
1586 5170
1587 1587
1587 3379
1587 5171
1588 1588
1588 3380
1588 5172
1589 1589
1589 3381
1589 5173
1590 1590
1590 3382
1590 5174
1591 1591
1591 3383
1591 5175
1592 1592
1592 3384
1592 5176
1593 1593
1593 3385
1593 5177
1594 1594
1594 3386
1594 5178
1595 1595
1595 3387
1595 5179
1596 1596
1596 3388
1596 5180
1597 1597
1597 3389
1597 5181
1598 1598
1598 3390
1598 5182
1599 1599
1599 3391
1599 5183
1600 1600
1600 3392
1600 5184
1601 1601
1601 3393
1601 5185
1602 1602
1602 3394
1602 5186
1603 1603
1603 3395
1603 5187
1604 1604
1604 3396
1604 5188
1605 1605
1605 3397
1605 5189
1606 1606
1606 3398
1606 5190
1607 1607
1607 3399
1607 5191
1608 1608
1608 3400
1608 5192
1609 1609
1609 3401
1609 5193
1610 1610
1610 3402
1610 5194
1611 1611
1611 3403
1611 5195
1612 1612
1612 3404
1612 5196
1613 1613
1613 3405
1613 5197
1614 1614
1614 3406
1614 5198
1615 1615
1615 3407
1615 5199
1616 1616
1616 3408
1616 5200
1617 1617
1617 3409
1617 5201
1618 1618
1618 3410
1618 5202
1619 1619
1619 3411
1619 5203
1620 1620
1620 3412
1620 5204
1621 1621
1621 3413
1621 5205
1622 1622
1622 3414
1622 5206
1623 1623
1623 3415
1623 5207
1624 1624
1624 3416
1624 5208
1625 1625
1625 3417
1625 5209
1626 1626
1626 3418
1626 5210
1627 1627
1627 3419
1627 5211
1628 1628
1628 3420
1628 5212
1629 1629
1629 3421
1629 5213
1630 1630
1630 3422
1630 5214
1631 1631
1631 3423
1631 5215
1632 1632
1632 3424
1632 5216
1633 1633
1633 3425
1633 5217
1634 1634
1634 3426
1634 5218
1635 1635
1635 3427
1635 5219
1636 1636
1636 3428
1636 5220
1637 1637
1637 3429
1637 5221
1638 1638
1638 3430
1638 5222
1639 1639
1639 3431
1639 5223
1640 1640
1640 3432
1640 5224
1641 1641
1641 3433
1641 5225
1642 1642
1642 3434
1642 5226
1643 1643
1643 3435
1643 5227
1644 1644
1644 3436
1644 5228
1645 1645
1645 3437
1645 5229
1646 1646
1646 3438
1646 5230
1647 1647
1647 3439
1647 5231
1648 1648
1648 3440
1648 5232
1649 1649
1649 3441
1649 5233
1650 1650
1650 3442
1650 5234
1651 1651
1651 3443
1651 5235
1652 1652
1652 3444
1652 5236
1653 1653
1653 3445
1653 5237
1654 1654
1654 3446
1654 5238
1655 1655
1655 3447
1655 5239
1656 1656
1656 3448
1656 5240
1657 1657
1657 3449
1657 5241
1658 1658
1658 3450
1658 5242
1659 1659
1659 3451
1659 5243
1660 1660
1660 3452
1660 5244
1661 1661
1661 3453
1661 5245
1662 1662
1662 3454
1662 5246
1663 1663
1663 3455
1663 5247
1664 1664
1664 3456
1664 5248
1665 1665
1665 3457
1665 5249
1666 1666
1666 3458
1666 5250
1667 1667
1667 3459
1667 5251
1668 1668
1668 3460
1668 5252
1669 1669
1669 3461
1669 5253
1670 1670
1670 3462
1670 5254
1671 1671
1671 3463
1671 5255
1672 1672
1672 3464
1672 5256
1673 1673
1673 3465
1673 5257
1674 1674
1674 3466
1674 5258
1675 1675
1675 3467
1675 5259
1676 1676
1676 3468
1676 5260
1677 1677
1677 3469
1677 5261
1678 1678
1678 3470
1678 5262
1679 1679
1679 3471
1679 5263
1680 1680
1680 3472
1680 5264
1681 1681
1681 3473
1681 5265
1682 1682
1682 3474
1682 5266
1683 1683
1683 3475
1683 5267
1684 1684
1684 3476
1684 5268
1685 1685
1685 3477
1685 5269
1686 1686
1686 3478
1686 5270
1687 1687
1687 3479
1687 5271
1688 1688
1688 3480
1688 5272
1689 1689
1689 3481
1689 5273
1690 1690
1690 3482
1690 5274
1691 1691
1691 3483
1691 5275
1692 1692
1692 3484
1692 5276
1693 1693
1693 3485
1693 5277
1694 1694
1694 3486
1694 5278
1695 1695
1695 3487
1695 5279
1696 1696
1696 3488
1696 5280
1697 1697
1697 3489
1697 5281
1698 1698
1698 3490
1698 5282
1699 1699
1699 3491
1699 5283
1700 1700
1700 3492
1700 5284
1701 1701
1701 3493
1701 5285
1702 1702
1702 3494
1702 5286
1703 1703
1703 3495
1703 5287
1704 1704
1704 3496
1704 5288
1705 1705
1705 3497
1705 5289
1706 1706
1706 3498
1706 5290
1707 1707
1707 3499
1707 5291
1708 1708
1708 3500
1708 5292
1709 1709
1709 3501
1709 5293
1710 1710
1710 3502
1710 5294
1711 1711
1711 3503
1711 5295
1712 1712
1712 3504
1712 5296
1713 1713
1713 3505
1713 5297
1714 1714
1714 3506
1714 5298
1715 1715
1715 3507
1715 5299
1716 1716
1716 3508
1716 5300
1717 1717
1717 3509
1717 5301
1718 1718
1718 3510
1718 5302
1719 1719
1719 3511
1719 5303
1720 1720
1720 3512
1720 5304
1721 1721
1721 3513
1721 5305
1722 1722
1722 3514
1722 5306
1723 1723
1723 3515
1723 5307
1724 1724
1724 3516
1724 5308
1725 1725
1725 3517
1725 5309
1726 1726
1726 3518
1726 5310
1727 1727
1727 3519
1727 5311
1728 1728
1728 3520
1728 5312
1729 1729
1729 3521
1729 5313
1730 1730
1730 3522
1730 5314
1731 1731
1731 3523
1731 5315
1732 1732
1732 3524
1732 5316
1733 1733
1733 3525
1733 5317
1734 1734
1734 3526
1734 5318
1735 1735
1735 3527
1735 5319
1736 1736
1736 3528
1736 5320
1737 1737
1737 3529
1737 5321
1738 1738
1738 3530
1738 5322
1739 1739
1739 3531
1739 5323
1740 1740
1740 3532
1740 5324
1741 1741
1741 3533
1741 5325
1742 1742
1742 3534
1742 5326
1743 1743
1743 3535
1743 5327
1744 1744
1744 3536
1744 5328
1745 1745
1745 3537
1745 5329
1746 1746
1746 3538
1746 5330
1747 1747
1747 3539
1747 5331
1748 1748
1748 3540
1748 5332
1749 1749
1749 3541
1749 5333
1750 1750
1750 3542
1750 5334
1751 1751
1751 3543
1751 5335
1752 1752
1752 3544
1752 5336
1753 1753
1753 3545
1753 5337
1754 1754
1754 3546
1754 5338
1755 1755
1755 3547
1755 5339
1756 1756
1756 3548
1756 5340
1757 1757
1757 3549
1757 5341
1758 1758
1758 3550
1758 5342
1759 1759
1759 3551
1759 5343
1760 1760
1760 3552
1760 5344
1761 1761
1761 3553
1761 5345
1762 1762
1762 3554
1762 5346
1763 1763
1763 3555
1763 5347
1764 1764
1764 3556
1764 5348
1765 1765
1765 3557
1765 5349
1766 1766
1766 3558
1766 5350
1767 1767
1767 3559
1767 5351
1768 1768
1768 3560
1768 5352
1769 1769
1769 3561
1769 5353
1770 1770
1770 3562
1770 5354
1771 1771
1771 3563
1771 5355
1772 1772
1772 3564
1772 5356
1773 1773
1773 3565
1773 5357
1774 1774
1774 3566
1774 5358
1775 1775
1775 3567
1775 5359
1776 1776
1776 3568
1776 5360
1777 1777
1777 3569
1777 5361
1778 1778
1778 3570
1778 5362
1779 1779
1779 3571
1779 5363
1780 1780
1780 3572
1780 5364
1781 1781
1781 3573
1781 5365
1782 1782
1782 3574
1782 5366
1783 1783
1783 3575
1783 5367
1784 1784
1784 3576
1784 5368
1785 1785
1785 3577
1785 5369
1786 1786
1786 3578
1786 5370
1787 1787
1787 3579
1787 5371
1788 1788
1788 3580
1788 5372
1789 1789
1789 3581
1789 5373
1790 1790
1790 3582
1790 5374
1791 1791
1791 3583
1791 5375
1792 0
1792 3328
1792 4864
1793 1
1793 3329
1793 4865
1794 2
1794 3330
1794 4866
1795 3
1795 3331
1795 4867
1796 4
1796 3332
1796 4868
1797 5
1797 3333
1797 4869
1798 6
1798 3334
1798 4870
1799 7
1799 3335
1799 4871
1800 8
1800 3336
1800 4872
1801 9
1801 3337
1801 4873
1802 10
1802 3338
1802 4874
1803 11
1803 3339
1803 4875
1804 12
1804 3340
1804 4876
1805 13
1805 3341
1805 4877
1806 14
1806 3342
1806 4878
1807 15
1807 3343
1807 4879
1808 16
1808 3344
1808 4880
1809 17
1809 3345
1809 4881
1810 18
1810 3346
1810 4882
1811 19
1811 3347
1811 4883
1812 20
1812 3348
1812 4884
1813 21
1813 3349
1813 4885
1814 22
1814 3350
1814 4886
1815 23
1815 3351
1815 4887
1816 24
1816 3352
1816 4888
1817 25
1817 3353
1817 4889
1818 26
1818 3354
1818 4890
1819 27
1819 3355
1819 4891
1820 28
1820 3356
1820 4892
1821 29
1821 3357
1821 4893
1822 30
1822 3358
1822 4894
1823 31
1823 3359
1823 4895
1824 32
1824 3360
1824 4896
1825 33
1825 3361
1825 4897
1826 34
1826 3362
1826 4898
1827 35
1827 3363
1827 4899
1828 36
1828 3364
1828 4900
1829 37
1829 3365
1829 4901
1830 38
1830 3366
1830 4902
1831 39
1831 3367
1831 4903
1832 40
1832 3368
1832 4904
1833 41
1833 3369
1833 4905
1834 42
1834 3370
1834 4906
1835 43
1835 3371
1835 4907
1836 44
1836 3372
1836 4908
1837 45
1837 3373
1837 4909
1838 46
1838 3374
1838 4910
1839 47
1839 3375
1839 4911
1840 48
1840 3376
1840 4912
1841 49
1841 3377
1841 4913
1842 50
1842 3378
1842 4914
1843 51
1843 3379
1843 4915
1844 52
1844 3380
1844 4916
1845 53
1845 3381
1845 4917
1846 54
1846 3382
1846 4918
1847 55
1847 3383
1847 4919
1848 56
1848 3384
1848 4920
1849 57
1849 3385
1849 4921
1850 58
1850 3386
1850 4922
1851 59
1851 3387
1851 4923
1852 60
1852 3388
1852 4924
1853 61
1853 3389
1853 4925
1854 62
1854 3390
1854 4926
1855 63
1855 3391
1855 4927
1856 64
1856 3392
1856 4928
1857 65
1857 3393
1857 4929
1858 66
1858 3394
1858 4930
1859 67
1859 3395
1859 4931
1860 68
1860 3396
1860 4932
1861 69
1861 3397
1861 4933
1862 70
1862 3398
1862 4934
1863 71
1863 3399
1863 4935
1864 72
1864 3400
1864 4936
1865 73
1865 3401
1865 4937
1866 74
1866 3402
1866 4938
1867 75
1867 3403
1867 4939
1868 76
1868 3404
1868 4940
1869 77
1869 3405
1869 4941
1870 78
1870 3406
1870 4942
1871 79
1871 3407
1871 4943
1872 80
1872 3408
1872 4944
1873 81
1873 3409
1873 4945
1874 82
1874 3410
1874 4946
1875 83
1875 3411
1875 4947
1876 84
1876 3412
1876 4948
1877 85
1877 3413
1877 4949
1878 86
1878 3414
1878 4950
1879 87
1879 3415
1879 4951
1880 88
1880 3416
1880 4952
1881 89
1881 3417
1881 4953
1882 90
1882 3418
1882 4954
1883 91
1883 3419
1883 4955
1884 92
1884 3420
1884 4956
1885 93
1885 3421
1885 4957
1886 94
1886 3422
1886 4958
1887 95
1887 3423
1887 4959
1888 96
1888 3424
1888 4960
1889 97
1889 3425
1889 4961
1890 98
1890 3426
1890 4962
1891 99
1891 3427
1891 4963
1892 100
1892 3428
1892 4964
1893 101
1893 3429
1893 4965
1894 102
1894 3430
1894 4966
1895 103
1895 3431
1895 4967
1896 104
1896 3432
1896 4968
1897 105
1897 3433
1897 4969
1898 106
1898 3434
1898 4970
1899 107
1899 3435
1899 4971
1900 108
1900 3436
1900 4972
1901 109
1901 3437
1901 4973
1902 110
1902 3438
1902 4974
1903 111
1903 3439
1903 4975
1904 112
1904 3440
1904 4976
1905 113
1905 3441
1905 4977
1906 114
1906 3442
1906 4978
1907 115
1907 3443
1907 4979
1908 116
1908 3444
1908 4980
1909 117
1909 3445
1909 4981
1910 118
1910 3446
1910 4982
1911 119
1911 3447
1911 4983
1912 120
1912 3448
1912 4984
1913 121
1913 3449
1913 4985
1914 122
1914 3450
1914 4986
1915 123
1915 3451
1915 4987
1916 124
1916 3452
1916 4988
1917 125
1917 3453
1917 4989
1918 126
1918 3454
1918 4990
1919 127
1919 3455
1919 4991
1920 128
1920 3456
1920 4992
1921 129
1921 3457
1921 4993
1922 130
1922 3458
1922 4994
1923 131
1923 3459
1923 4995
1924 132
1924 3460
1924 4996
1925 133
1925 3461
1925 4997
1926 134
1926 3462
1926 4998
1927 135
1927 3463
1927 4999
1928 136
1928 3464
1928 5000
1929 137
1929 3465
1929 5001
1930 138
1930 3466
1930 5002
1931 139
1931 3467
1931 5003
1932 140
1932 3468
1932 5004
1933 141
1933 3469
1933 5005
1934 142
1934 3470
1934 5006
1935 143
1935 3471
1935 5007
1936 144
1936 3472
1936 5008
1937 145
1937 3473
1937 5009
1938 146
1938 3474
1938 5010
1939 147
1939 3475
1939 5011
1940 148
1940 3476
1940 5012
1941 149
1941 3477
1941 5013
1942 150
1942 3478
1942 5014
1943 151
1943 3479
1943 5015
1944 152
1944 3480
1944 5016
1945 153
1945 3481
1945 5017
1946 154
1946 3482
1946 5018
1947 155
1947 3483
1947 5019
1948 156
1948 3484
1948 5020
1949 157
1949 3485
1949 5021
1950 158
1950 3486
1950 5022
1951 159
1951 3487
1951 5023
1952 160
1952 3488
1952 5024
1953 161
1953 3489
1953 5025
1954 162
1954 3490
1954 5026
1955 163
1955 3491
1955 5027
1956 164
1956 3492
1956 5028
1957 165
1957 3493
1957 5029
1958 166
1958 3494
1958 5030
1959 167
1959 3495
1959 5031
1960 168
1960 3496
1960 5032
1961 169
1961 3497
1961 5033
1962 170
1962 3498
1962 5034
1963 171
1963 3499
1963 5035
1964 172
1964 3500
1964 5036
1965 173
1965 3501
1965 5037
1966 174
1966 3502
1966 5038
1967 175
1967 3503
1967 5039
1968 176
1968 3504
1968 5040
1969 177
1969 3505
1969 5041
1970 178
1970 3506
1970 5042
1971 179
1971 3507
1971 5043
1972 180
1972 3508
1972 5044
1973 181
1973 3509
1973 5045
1974 182
1974 3510
1974 5046
1975 183
1975 3511
1975 5047
1976 184
1976 3512
1976 5048
1977 185
1977 3513
1977 5049
1978 186
1978 3514
1978 5050
1979 187
1979 3515
1979 5051
1980 188
1980 3516
1980 5052
1981 189
1981 3517
1981 5053
1982 190
1982 3518
1982 5054
1983 191
1983 3519
1983 5055
1984 192
1984 3520
1984 5056
1985 193
1985 3521
1985 5057
1986 194
1986 3522
1986 5058
1987 195
1987 3523
1987 5059
1988 196
1988 3524
1988 5060
1989 197
1989 3525
1989 5061
1990 198
1990 3526
1990 5062
1991 199
1991 3527
1991 5063
1992 200
1992 3528
1992 5064
1993 201
1993 3529
1993 5065
1994 202
1994 3530
1994 5066
1995 203
1995 3531
1995 5067
1996 204
1996 3532
1996 5068
1997 205
1997 3533
1997 5069
1998 206
1998 3534
1998 5070
1999 207
1999 3535
1999 5071
2000 208
2000 3536
2000 5072
2001 209
2001 3537
2001 5073
2002 210
2002 3538
2002 5074
2003 211
2003 3539
2003 5075
2004 212
2004 3540
2004 5076
2005 213
2005 3541
2005 5077
2006 214
2006 3542
2006 5078
2007 215
2007 3543
2007 5079
2008 216
2008 3544
2008 5080
2009 217
2009 3545
2009 5081
2010 218
2010 3546
2010 5082
2011 219
2011 3547
2011 5083
2012 220
2012 3548
2012 5084
2013 221
2013 3549
2013 5085
2014 222
2014 3550
2014 5086
2015 223
2015 3551
2015 5087
2016 224
2016 3552
2016 5088
2017 225
2017 3553
2017 5089
2018 226
2018 3554
2018 5090
2019 227
2019 3555
2019 5091
2020 228
2020 3556
2020 5092
2021 229
2021 3557
2021 5093
2022 230
2022 3558
2022 5094
2023 231
2023 3559
2023 5095
2024 232
2024 3560
2024 5096
2025 233
2025 3561
2025 5097
2026 234
2026 3562
2026 5098
2027 235
2027 3563
2027 5099
2028 236
2028 3564
2028 5100
2029 237
2029 3565
2029 5101
2030 238
2030 3566
2030 5102
2031 239
2031 3567
2031 5103
2032 240
2032 3568
2032 5104
2033 241
2033 3569
2033 5105
2034 242
2034 3570
2034 5106
2035 243
2035 3571
2035 5107
2036 244
2036 3572
2036 5108
2037 245
2037 3573
2037 5109
2038 246
2038 3574
2038 5110
2039 247
2039 3575
2039 5111
2040 248
2040 3576
2040 5112
2041 249
2041 3577
2041 5113
2042 250
2042 3578
2042 5114
2043 251
2043 3579
2043 5115
2044 252
2044 3580
2044 5116
2045 253
2045 3581
2045 5117
2046 254
2046 3582
2046 5118
2047 255
2047 3583
2047 5119
2048 256
2048 1792
2048 5120
2049 257
2049 1793
2049 5121
2050 258
2050 1794
2050 5122
2051 259
2051 1795
2051 5123
2052 260
2052 1796
2052 5124
2053 261
2053 1797
2053 5125
2054 262
2054 1798
2054 5126
2055 263
2055 1799
2055 5127
2056 264
2056 1800
2056 5128
2057 265
2057 1801
2057 5129
2058 266
2058 1802
2058 5130
2059 267
2059 1803
2059 5131
2060 268
2060 1804
2060 5132
2061 269
2061 1805
2061 5133
2062 270
2062 1806
2062 5134
2063 271
2063 1807
2063 5135
2064 272
2064 1808
2064 5136
2065 273
2065 1809
2065 5137
2066 274
2066 1810
2066 5138
2067 275
2067 1811
2067 5139
2068 276
2068 1812
2068 5140
2069 277
2069 1813
2069 5141
2070 278
2070 1814
2070 5142
2071 279
2071 1815
2071 5143
2072 280
2072 1816
2072 5144
2073 281
2073 1817
2073 5145
2074 282
2074 1818
2074 5146
2075 283
2075 1819
2075 5147
2076 284
2076 1820
2076 5148
2077 285
2077 1821
2077 5149
2078 286
2078 1822
2078 5150
2079 287
2079 1823
2079 5151
2080 288
2080 1824
2080 5152
2081 289
2081 1825
2081 5153
2082 290
2082 1826
2082 5154
2083 291
2083 1827
2083 5155
2084 292
2084 1828
2084 5156
2085 293
2085 1829
2085 5157
2086 294
2086 1830
2086 5158
2087 295
2087 1831
2087 5159
2088 296
2088 1832
2088 5160
2089 297
2089 1833
2089 5161
2090 298
2090 1834
2090 5162
2091 299
2091 1835
2091 5163
2092 300
2092 1836
2092 5164
2093 301
2093 1837
2093 5165
2094 302
2094 1838
2094 5166
2095 303
2095 1839
2095 5167
2096 304
2096 1840
2096 5168
2097 305
2097 1841
2097 5169
2098 306
2098 1842
2098 5170
2099 307
2099 1843
2099 5171
2100 308
2100 1844
2100 5172
2101 309
2101 1845
2101 5173
2102 310
2102 1846
2102 5174
2103 311
2103 1847
2103 5175
2104 312
2104 1848
2104 5176
2105 313
2105 1849
2105 5177
2106 314
2106 1850
2106 5178
2107 315
2107 1851
2107 5179
2108 316
2108 1852
2108 5180
2109 317
2109 1853
2109 5181
2110 318
2110 1854
2110 5182
2111 319
2111 1855
2111 5183
2112 320
2112 1856
2112 5184
2113 321
2113 1857
2113 5185
2114 322
2114 1858
2114 5186
2115 323
2115 1859
2115 5187
2116 324
2116 1860
2116 5188
2117 325
2117 1861
2117 5189
2118 326
2118 1862
2118 5190
2119 327
2119 1863
2119 5191
2120 328
2120 1864
2120 5192
2121 329
2121 1865
2121 5193
2122 330
2122 1866
2122 5194
2123 331
2123 1867
2123 5195
2124 332
2124 1868
2124 5196
2125 333
2125 1869
2125 5197
2126 334
2126 1870
2126 5198
2127 335
2127 1871
2127 5199
2128 336
2128 1872
2128 5200
2129 337
2129 1873
2129 5201
2130 338
2130 1874
2130 5202
2131 339
2131 1875
2131 5203
2132 340
2132 1876
2132 5204
2133 341
2133 1877
2133 5205
2134 342
2134 1878
2134 5206
2135 343
2135 1879
2135 5207
2136 344
2136 1880
2136 5208
2137 345
2137 1881
2137 5209
2138 346
2138 1882
2138 5210
2139 347
2139 1883
2139 5211
2140 348
2140 1884
2140 5212
2141 349
2141 1885
2141 5213
2142 350
2142 1886
2142 5214
2143 351
2143 1887
2143 5215
2144 352
2144 1888
2144 5216
2145 353
2145 1889
2145 5217
2146 354
2146 1890
2146 5218
2147 355
2147 1891
2147 5219
2148 356
2148 1892
2148 5220
2149 357
2149 1893
2149 5221
2150 358
2150 1894
2150 5222
2151 359
2151 1895
2151 5223
2152 360
2152 1896
2152 5224
2153 361
2153 1897
2153 5225
2154 362
2154 1898
2154 5226
2155 363
2155 1899
2155 5227
2156 364
2156 1900
2156 5228
2157 365
2157 1901
2157 5229
2158 366
2158 1902
2158 5230
2159 367
2159 1903
2159 5231
2160 368
2160 1904
2160 5232
2161 369
2161 1905
2161 5233
2162 370
2162 1906
2162 5234
2163 371
2163 1907
2163 5235
2164 372
2164 1908
2164 5236
2165 373
2165 1909
2165 5237
2166 374
2166 1910
2166 5238
2167 375
2167 1911
2167 5239
2168 376
2168 1912
2168 5240
2169 377
2169 1913
2169 5241
2170 378
2170 1914
2170 5242
2171 379
2171 1915
2171 5243
2172 380
2172 1916
2172 5244
2173 381
2173 1917
2173 5245
2174 382
2174 1918
2174 5246
2175 383
2175 1919
2175 5247
2176 384
2176 1920
2176 5248
2177 385
2177 1921
2177 5249
2178 386
2178 1922
2178 5250
2179 387
2179 1923
2179 5251
2180 388
2180 1924
2180 5252
2181 389
2181 1925
2181 5253
2182 390
2182 1926
2182 5254
2183 391
2183 1927
2183 5255
2184 392
2184 1928
2184 5256
2185 393
2185 1929
2185 5257
2186 394
2186 1930
2186 5258
2187 395
2187 1931
2187 5259
2188 396
2188 1932
2188 5260
2189 397
2189 1933
2189 5261
2190 398
2190 1934
2190 5262
2191 399
2191 1935
2191 5263
2192 400
2192 1936
2192 5264
2193 401
2193 1937
2193 5265
2194 402
2194 1938
2194 5266
2195 403
2195 1939
2195 5267
2196 404
2196 1940
2196 5268
2197 405
2197 1941
2197 5269
2198 406
2198 1942
2198 5270
2199 407
2199 1943
2199 5271
2200 408
2200 1944
2200 5272
2201 409
2201 1945
2201 5273
2202 410
2202 1946
2202 5274
2203 411
2203 1947
2203 5275
2204 412
2204 1948
2204 5276
2205 413
2205 1949
2205 5277
2206 414
2206 1950
2206 5278
2207 415
2207 1951
2207 5279
2208 416
2208 1952
2208 5280
2209 417
2209 1953
2209 5281
2210 418
2210 1954
2210 5282
2211 419
2211 1955
2211 5283
2212 420
2212 1956
2212 5284
2213 421
2213 1957
2213 5285
2214 422
2214 1958
2214 5286
2215 423
2215 1959
2215 5287
2216 424
2216 1960
2216 5288
2217 425
2217 1961
2217 5289
2218 426
2218 1962
2218 5290
2219 427
2219 1963
2219 5291
2220 428
2220 1964
2220 5292
2221 429
2221 1965
2221 5293
2222 430
2222 1966
2222 5294
2223 431
2223 1967
2223 5295
2224 432
2224 1968
2224 5296
2225 433
2225 1969
2225 5297
2226 434
2226 1970
2226 5298
2227 435
2227 1971
2227 5299
2228 436
2228 1972
2228 5300
2229 437
2229 1973
2229 5301
2230 438
2230 1974
2230 5302
2231 439
2231 1975
2231 5303
2232 440
2232 1976
2232 5304
2233 441
2233 1977
2233 5305
2234 442
2234 1978
2234 5306
2235 443
2235 1979
2235 5307
2236 444
2236 1980
2236 5308
2237 445
2237 1981
2237 5309
2238 446
2238 1982
2238 5310
2239 447
2239 1983
2239 5311
2240 448
2240 1984
2240 5312
2241 449
2241 1985
2241 5313
2242 450
2242 1986
2242 5314
2243 451
2243 1987
2243 5315
2244 452
2244 1988
2244 5316
2245 453
2245 1989
2245 5317
2246 454
2246 1990
2246 5318
2247 455
2247 1991
2247 5319
2248 456
2248 1992
2248 5320
2249 457
2249 1993
2249 5321
2250 458
2250 1994
2250 5322
2251 459
2251 1995
2251 5323
2252 460
2252 1996
2252 5324
2253 461
2253 1997
2253 5325
2254 462
2254 1998
2254 5326
2255 463
2255 1999
2255 5327
2256 464
2256 2000
2256 5328
2257 465
2257 2001
2257 5329
2258 466
2258 2002
2258 5330
2259 467
2259 2003
2259 5331
2260 468
2260 2004
2260 5332
2261 469
2261 2005
2261 5333
2262 470
2262 2006
2262 5334
2263 471
2263 2007
2263 5335
2264 472
2264 2008
2264 5336
2265 473
2265 2009
2265 5337
2266 474
2266 2010
2266 5338
2267 475
2267 2011
2267 5339
2268 476
2268 2012
2268 5340
2269 477
2269 2013
2269 5341
2270 478
2270 2014
2270 5342
2271 479
2271 2015
2271 5343
2272 480
2272 2016
2272 5344
2273 481
2273 2017
2273 5345
2274 482
2274 2018
2274 5346
2275 483
2275 2019
2275 5347
2276 484
2276 2020
2276 5348
2277 485
2277 2021
2277 5349
2278 486
2278 2022
2278 5350
2279 487
2279 2023
2279 5351
2280 488
2280 2024
2280 5352
2281 489
2281 2025
2281 5353
2282 490
2282 2026
2282 5354
2283 491
2283 2027
2283 5355
2284 492
2284 2028
2284 5356
2285 493
2285 2029
2285 5357
2286 494
2286 2030
2286 5358
2287 495
2287 2031
2287 5359
2288 496
2288 2032
2288 5360
2289 497
2289 2033
2289 5361
2290 498
2290 2034
2290 5362
2291 499
2291 2035
2291 5363
2292 500
2292 2036
2292 5364
2293 501
2293 2037
2293 5365
2294 502
2294 2038
2294 5366
2295 503
2295 2039
2295 5367
2296 504
2296 2040
2296 5368
2297 505
2297 2041
2297 5369
2298 506
2298 2042
2298 5370
2299 507
2299 2043
2299 5371
2300 508
2300 2044
2300 5372
2301 509
2301 2045
2301 5373
2302 510
2302 2046
2302 5374
2303 511
2303 2047
2303 5375
2304 512
2304 2048
2304 3584
2305 513
2305 2049
2305 3585
2306 514
2306 2050
2306 3586
2307 515
2307 2051
2307 3587
2308 516
2308 2052
2308 3588
2309 517
2309 2053
2309 3589
2310 518
2310 2054
2310 3590
2311 519
2311 2055
2311 3591
2312 520
2312 2056
2312 3592
2313 521
2313 2057
2313 3593
2314 522
2314 2058
2314 3594
2315 523
2315 2059
2315 3595
2316 524
2316 2060
2316 3596
2317 525
2317 2061
2317 3597
2318 526
2318 2062
2318 3598
2319 527
2319 2063
2319 3599
2320 528
2320 2064
2320 3600
2321 529
2321 2065
2321 3601
2322 530
2322 2066
2322 3602
2323 531
2323 2067
2323 3603
2324 532
2324 2068
2324 3604
2325 533
2325 2069
2325 3605
2326 534
2326 2070
2326 3606
2327 535
2327 2071
2327 3607
2328 536
2328 2072
2328 3608
2329 537
2329 2073
2329 3609
2330 538
2330 2074
2330 3610
2331 539
2331 2075
2331 3611
2332 540
2332 2076
2332 3612
2333 541
2333 2077
2333 3613
2334 542
2334 2078
2334 3614
2335 543
2335 2079
2335 3615
2336 544
2336 2080
2336 3616
2337 545
2337 2081
2337 3617
2338 546
2338 2082
2338 3618
2339 547
2339 2083
2339 3619
2340 548
2340 2084
2340 3620
2341 549
2341 2085
2341 3621
2342 550
2342 2086
2342 3622
2343 551
2343 2087
2343 3623
2344 552
2344 2088
2344 3624
2345 553
2345 2089
2345 3625
2346 554
2346 2090
2346 3626
2347 555
2347 2091
2347 3627
2348 556
2348 2092
2348 3628
2349 557
2349 2093
2349 3629
2350 558
2350 2094
2350 3630
2351 559
2351 2095
2351 3631
2352 560
2352 2096
2352 3632
2353 561
2353 2097
2353 3633
2354 562
2354 2098
2354 3634
2355 563
2355 2099
2355 3635
2356 564
2356 2100
2356 3636
2357 565
2357 2101
2357 3637
2358 566
2358 2102
2358 3638
2359 567
2359 2103
2359 3639
2360 568
2360 2104
2360 3640
2361 569
2361 2105
2361 3641
2362 570
2362 2106
2362 3642
2363 571
2363 2107
2363 3643
2364 572
2364 2108
2364 3644
2365 573
2365 2109
2365 3645
2366 574
2366 2110
2366 3646
2367 575
2367 2111
2367 3647
2368 576
2368 2112
2368 3648
2369 577
2369 2113
2369 3649
2370 578
2370 2114
2370 3650
2371 579
2371 2115
2371 3651
2372 580
2372 2116
2372 3652
2373 581
2373 2117
2373 3653
2374 582
2374 2118
2374 3654
2375 583
2375 2119
2375 3655
2376 584
2376 2120
2376 3656
2377 585
2377 2121
2377 3657
2378 586
2378 2122
2378 3658
2379 587
2379 2123
2379 3659
2380 588
2380 2124
2380 3660
2381 589
2381 2125
2381 3661
2382 590
2382 2126
2382 3662
2383 591
2383 2127
2383 3663
2384 592
2384 2128
2384 3664
2385 593
2385 2129
2385 3665
2386 594
2386 2130
2386 3666
2387 595
2387 2131
2387 3667
2388 596
2388 2132
2388 3668
2389 597
2389 2133
2389 3669
2390 598
2390 2134
2390 3670
2391 599
2391 2135
2391 3671
2392 600
2392 2136
2392 3672
2393 601
2393 2137
2393 3673
2394 602
2394 2138
2394 3674
2395 603
2395 2139
2395 3675
2396 604
2396 2140
2396 3676
2397 605
2397 2141
2397 3677
2398 606
2398 2142
2398 3678
2399 607
2399 2143
2399 3679
2400 608
2400 2144
2400 3680
2401 609
2401 2145
2401 3681
2402 610
2402 2146
2402 3682
2403 611
2403 2147
2403 3683
2404 612
2404 2148
2404 3684
2405 613
2405 2149
2405 3685
2406 614
2406 2150
2406 3686
2407 615
2407 2151
2407 3687
2408 616
2408 2152
2408 3688
2409 617
2409 2153
2409 3689
2410 618
2410 2154
2410 3690
2411 619
2411 2155
2411 3691
2412 620
2412 2156
2412 3692
2413 621
2413 2157
2413 3693
2414 622
2414 2158
2414 3694
2415 623
2415 2159
2415 3695
2416 624
2416 2160
2416 3696
2417 625
2417 2161
2417 3697
2418 626
2418 2162
2418 3698
2419 627
2419 2163
2419 3699
2420 628
2420 2164
2420 3700
2421 629
2421 2165
2421 3701
2422 630
2422 2166
2422 3702
2423 631
2423 2167
2423 3703
2424 632
2424 2168
2424 3704
2425 633
2425 2169
2425 3705
2426 634
2426 2170
2426 3706
2427 635
2427 2171
2427 3707
2428 636
2428 2172
2428 3708
2429 637
2429 2173
2429 3709
2430 638
2430 2174
2430 3710
2431 639
2431 2175
2431 3711
2432 640
2432 2176
2432 3712
2433 641
2433 2177
2433 3713
2434 642
2434 2178
2434 3714
2435 643
2435 2179
2435 3715
2436 644
2436 2180
2436 3716
2437 645
2437 2181
2437 3717
2438 646
2438 2182
2438 3718
2439 647
2439 2183
2439 3719
2440 648
2440 2184
2440 3720
2441 649
2441 2185
2441 3721
2442 650
2442 2186
2442 3722
2443 651
2443 2187
2443 3723
2444 652
2444 2188
2444 3724
2445 653
2445 2189
2445 3725
2446 654
2446 2190
2446 3726
2447 655
2447 2191
2447 3727
2448 656
2448 2192
2448 3728
2449 657
2449 2193
2449 3729
2450 658
2450 2194
2450 3730
2451 659
2451 2195
2451 3731
2452 660
2452 2196
2452 3732
2453 661
2453 2197
2453 3733
2454 662
2454 2198
2454 3734
2455 663
2455 2199
2455 3735
2456 664
2456 2200
2456 3736
2457 665
2457 2201
2457 3737
2458 666
2458 2202
2458 3738
2459 667
2459 2203
2459 3739
2460 668
2460 2204
2460 3740
2461 669
2461 2205
2461 3741
2462 670
2462 2206
2462 3742
2463 671
2463 2207
2463 3743
2464 672
2464 2208
2464 3744
2465 673
2465 2209
2465 3745
2466 674
2466 2210
2466 3746
2467 675
2467 2211
2467 3747
2468 676
2468 2212
2468 3748
2469 677
2469 2213
2469 3749
2470 678
2470 2214
2470 3750
2471 679
2471 2215
2471 3751
2472 680
2472 2216
2472 3752
2473 681
2473 2217
2473 3753
2474 682
2474 2218
2474 3754
2475 683
2475 2219
2475 3755
2476 684
2476 2220
2476 3756
2477 685
2477 2221
2477 3757
2478 686
2478 2222
2478 3758
2479 687
2479 2223
2479 3759
2480 688
2480 2224
2480 3760
2481 689
2481 2225
2481 3761
2482 690
2482 2226
2482 3762
2483 691
2483 2227
2483 3763
2484 692
2484 2228
2484 3764
2485 693
2485 2229
2485 3765
2486 694
2486 2230
2486 3766
2487 695
2487 2231
2487 3767
2488 696
2488 2232
2488 3768
2489 697
2489 2233
2489 3769
2490 698
2490 2234
2490 3770
2491 699
2491 2235
2491 3771
2492 700
2492 2236
2492 3772
2493 701
2493 2237
2493 3773
2494 702
2494 2238
2494 3774
2495 703
2495 2239
2495 3775
2496 704
2496 2240
2496 3776
2497 705
2497 2241
2497 3777
2498 706
2498 2242
2498 3778
2499 707
2499 2243
2499 3779
2500 708
2500 2244
2500 3780
2501 709
2501 2245
2501 3781
2502 710
2502 2246
2502 3782
2503 711
2503 2247
2503 3783
2504 712
2504 2248
2504 3784
2505 713
2505 2249
2505 3785
2506 714
2506 2250
2506 3786
2507 715
2507 2251
2507 3787
2508 716
2508 2252
2508 3788
2509 717
2509 2253
2509 3789
2510 718
2510 2254
2510 3790
2511 719
2511 2255
2511 3791
2512 720
2512 2256
2512 3792
2513 721
2513 2257
2513 3793
2514 722
2514 2258
2514 3794
2515 723
2515 2259
2515 3795
2516 724
2516 2260
2516 3796
2517 725
2517 2261
2517 3797
2518 726
2518 2262
2518 3798
2519 727
2519 2263
2519 3799
2520 728
2520 2264
2520 3800
2521 729
2521 2265
2521 3801
2522 730
2522 2266
2522 3802
2523 731
2523 2267
2523 3803
2524 732
2524 2268
2524 3804
2525 733
2525 2269
2525 3805
2526 734
2526 2270
2526 3806
2527 735
2527 2271
2527 3807
2528 736
2528 2272
2528 3808
2529 737
2529 2273
2529 3809
2530 738
2530 2274
2530 3810
2531 739
2531 2275
2531 3811
2532 740
2532 2276
2532 3812
2533 741
2533 2277
2533 3813
2534 742
2534 2278
2534 3814
2535 743
2535 2279
2535 3815
2536 744
2536 2280
2536 3816
2537 745
2537 2281
2537 3817
2538 746
2538 2282
2538 3818
2539 747
2539 2283
2539 3819
2540 748
2540 2284
2540 3820
2541 749
2541 2285
2541 3821
2542 750
2542 2286
2542 3822
2543 751
2543 2287
2543 3823
2544 752
2544 2288
2544 3824
2545 753
2545 2289
2545 3825
2546 754
2546 2290
2546 3826
2547 755
2547 2291
2547 3827
2548 756
2548 2292
2548 3828
2549 757
2549 2293
2549 3829
2550 758
2550 2294
2550 3830
2551 759
2551 2295
2551 3831
2552 760
2552 2296
2552 3832
2553 761
2553 2297
2553 3833
2554 762
2554 2298
2554 3834
2555 763
2555 2299
2555 3835
2556 764
2556 2300
2556 3836
2557 765
2557 2301
2557 3837
2558 766
2558 2302
2558 3838
2559 767
2559 2303
2559 3839
2560 768
2560 2304
2560 3840
2561 769
2561 2305
2561 3841
2562 770
2562 2306
2562 3842
2563 771
2563 2307
2563 3843
2564 772
2564 2308
2564 3844
2565 773
2565 2309
2565 3845
2566 774
2566 2310
2566 3846
2567 775
2567 2311
2567 3847
2568 776
2568 2312
2568 3848
2569 777
2569 2313
2569 3849
2570 778
2570 2314
2570 3850
2571 779
2571 2315
2571 3851
2572 780
2572 2316
2572 3852
2573 781
2573 2317
2573 3853
2574 782
2574 2318
2574 3854
2575 783
2575 2319
2575 3855
2576 784
2576 2320
2576 3856
2577 785
2577 2321
2577 3857
2578 786
2578 2322
2578 3858
2579 787
2579 2323
2579 3859
2580 788
2580 2324
2580 3860
2581 789
2581 2325
2581 3861
2582 790
2582 2326
2582 3862
2583 791
2583 2327
2583 3863
2584 792
2584 2328
2584 3864
2585 793
2585 2329
2585 3865
2586 794
2586 2330
2586 3866
2587 795
2587 2331
2587 3867
2588 796
2588 2332
2588 3868
2589 797
2589 2333
2589 3869
2590 798
2590 2334
2590 3870
2591 799
2591 2335
2591 3871
2592 800
2592 2336
2592 3872
2593 801
2593 2337
2593 3873
2594 802
2594 2338
2594 3874
2595 803
2595 2339
2595 3875
2596 804
2596 2340
2596 3876
2597 805
2597 2341
2597 3877
2598 806
2598 2342
2598 3878
2599 807
2599 2343
2599 3879
2600 808
2600 2344
2600 3880
2601 809
2601 2345
2601 3881
2602 810
2602 2346
2602 3882
2603 811
2603 2347
2603 3883
2604 812
2604 2348
2604 3884
2605 813
2605 2349
2605 3885
2606 814
2606 2350
2606 3886
2607 815
2607 2351
2607 3887
2608 816
2608 2352
2608 3888
2609 817
2609 2353
2609 3889
2610 818
2610 2354
2610 3890
2611 819
2611 2355
2611 3891
2612 820
2612 2356
2612 3892
2613 821
2613 2357
2613 3893
2614 822
2614 2358
2614 3894
2615 823
2615 2359
2615 3895
2616 824
2616 2360
2616 3896
2617 825
2617 2361
2617 3897
2618 826
2618 2362
2618 3898
2619 827
2619 2363
2619 3899
2620 828
2620 2364
2620 3900
2621 829
2621 2365
2621 3901
2622 830
2622 2366
2622 3902
2623 831
2623 2367
2623 3903
2624 832
2624 2368
2624 3904
2625 833
2625 2369
2625 3905
2626 834
2626 2370
2626 3906
2627 835
2627 2371
2627 3907
2628 836
2628 2372
2628 3908
2629 837
2629 2373
2629 3909
2630 838
2630 2374
2630 3910
2631 839
2631 2375
2631 3911
2632 840
2632 2376
2632 3912
2633 841
2633 2377
2633 3913
2634 842
2634 2378
2634 3914
2635 843
2635 2379
2635 3915
2636 844
2636 2380
2636 3916
2637 845
2637 2381
2637 3917
2638 846
2638 2382
2638 3918
2639 847
2639 2383
2639 3919
2640 848
2640 2384
2640 3920
2641 849
2641 2385
2641 3921
2642 850
2642 2386
2642 3922
2643 851
2643 2387
2643 3923
2644 852
2644 2388
2644 3924
2645 853
2645 2389
2645 3925
2646 854
2646 2390
2646 3926
2647 855
2647 2391
2647 3927
2648 856
2648 2392
2648 3928
2649 857
2649 2393
2649 3929
2650 858
2650 2394
2650 3930
2651 859
2651 2395
2651 3931
2652 860
2652 2396
2652 3932
2653 861
2653 2397
2653 3933
2654 862
2654 2398
2654 3934
2655 863
2655 2399
2655 3935
2656 864
2656 2400
2656 3936
2657 865
2657 2401
2657 3937
2658 866
2658 2402
2658 3938
2659 867
2659 2403
2659 3939
2660 868
2660 2404
2660 3940
2661 869
2661 2405
2661 3941
2662 870
2662 2406
2662 3942
2663 871
2663 2407
2663 3943
2664 872
2664 2408
2664 3944
2665 873
2665 2409
2665 3945
2666 874
2666 2410
2666 3946
2667 875
2667 2411
2667 3947
2668 876
2668 2412
2668 3948
2669 877
2669 2413
2669 3949
2670 878
2670 2414
2670 3950
2671 879
2671 2415
2671 3951
2672 880
2672 2416
2672 3952
2673 881
2673 2417
2673 3953
2674 882
2674 2418
2674 3954
2675 883
2675 2419
2675 3955
2676 884
2676 2420
2676 3956
2677 885
2677 2421
2677 3957
2678 886
2678 2422
2678 3958
2679 887
2679 2423
2679 3959
2680 888
2680 2424
2680 3960
2681 889
2681 2425
2681 3961
2682 890
2682 2426
2682 3962
2683 891
2683 2427
2683 3963
2684 892
2684 2428
2684 3964
2685 893
2685 2429
2685 3965
2686 894
2686 2430
2686 3966
2687 895
2687 2431
2687 3967
2688 896
2688 2432
2688 3968
2689 897
2689 2433
2689 3969
2690 898
2690 2434
2690 3970
2691 899
2691 2435
2691 3971
2692 900
2692 2436
2692 3972
2693 901
2693 2437
2693 3973
2694 902
2694 2438
2694 3974
2695 903
2695 2439
2695 3975
2696 904
2696 2440
2696 3976
2697 905
2697 2441
2697 3977
2698 906
2698 2442
2698 3978
2699 907
2699 2443
2699 3979
2700 908
2700 2444
2700 3980
2701 909
2701 2445
2701 3981
2702 910
2702 2446
2702 3982
2703 911
2703 2447
2703 3983
2704 912
2704 2448
2704 3984
2705 913
2705 2449
2705 3985
2706 914
2706 2450
2706 3986
2707 915
2707 2451
2707 3987
2708 916
2708 2452
2708 3988
2709 917
2709 2453
2709 3989
2710 918
2710 2454
2710 3990
2711 919
2711 2455
2711 3991
2712 920
2712 2456
2712 3992
2713 921
2713 2457
2713 3993
2714 922
2714 2458
2714 3994
2715 923
2715 2459
2715 3995
2716 924
2716 2460
2716 3996
2717 925
2717 2461
2717 3997
2718 926
2718 2462
2718 3998
2719 927
2719 2463
2719 3999
2720 928
2720 2464
2720 4000
2721 929
2721 2465
2721 4001
2722 930
2722 2466
2722 4002
2723 931
2723 2467
2723 4003
2724 932
2724 2468
2724 4004
2725 933
2725 2469
2725 4005
2726 934
2726 2470
2726 4006
2727 935
2727 2471
2727 4007
2728 936
2728 2472
2728 4008
2729 937
2729 2473
2729 4009
2730 938
2730 2474
2730 4010
2731 939
2731 2475
2731 4011
2732 940
2732 2476
2732 4012
2733 941
2733 2477
2733 4013
2734 942
2734 2478
2734 4014
2735 943
2735 2479
2735 4015
2736 944
2736 2480
2736 4016
2737 945
2737 2481
2737 4017
2738 946
2738 2482
2738 4018
2739 947
2739 2483
2739 4019
2740 948
2740 2484
2740 4020
2741 949
2741 2485
2741 4021
2742 950
2742 2486
2742 4022
2743 951
2743 2487
2743 4023
2744 952
2744 2488
2744 4024
2745 953
2745 2489
2745 4025
2746 954
2746 2490
2746 4026
2747 955
2747 2491
2747 4027
2748 956
2748 2492
2748 4028
2749 957
2749 2493
2749 4029
2750 958
2750 2494
2750 4030
2751 959
2751 2495
2751 4031
2752 960
2752 2496
2752 4032
2753 961
2753 2497
2753 4033
2754 962
2754 2498
2754 4034
2755 963
2755 2499
2755 4035
2756 964
2756 2500
2756 4036
2757 965
2757 2501
2757 4037
2758 966
2758 2502
2758 4038
2759 967
2759 2503
2759 4039
2760 968
2760 2504
2760 4040
2761 969
2761 2505
2761 4041
2762 970
2762 2506
2762 4042
2763 971
2763 2507
2763 4043
2764 972
2764 2508
2764 4044
2765 973
2765 2509
2765 4045
2766 974
2766 2510
2766 4046
2767 975
2767 2511
2767 4047
2768 976
2768 2512
2768 4048
2769 977
2769 2513
2769 4049
2770 978
2770 2514
2770 4050
2771 979
2771 2515
2771 4051
2772 980
2772 2516
2772 4052
2773 981
2773 2517
2773 4053
2774 982
2774 2518
2774 4054
2775 983
2775 2519
2775 4055
2776 984
2776 2520
2776 4056
2777 985
2777 2521
2777 4057
2778 986
2778 2522
2778 4058
2779 987
2779 2523
2779 4059
2780 988
2780 2524
2780 4060
2781 989
2781 2525
2781 4061
2782 990
2782 2526
2782 4062
2783 991
2783 2527
2783 4063
2784 992
2784 2528
2784 4064
2785 993
2785 2529
2785 4065
2786 994
2786 2530
2786 4066
2787 995
2787 2531
2787 4067
2788 996
2788 2532
2788 4068
2789 997
2789 2533
2789 4069
2790 998
2790 2534
2790 4070
2791 999
2791 2535
2791 4071
2792 1000
2792 2536
2792 4072
2793 1001
2793 2537
2793 4073
2794 1002
2794 2538
2794 4074
2795 1003
2795 2539
2795 4075
2796 1004
2796 2540
2796 4076
2797 1005
2797 2541
2797 4077
2798 1006
2798 2542
2798 4078
2799 1007
2799 2543
2799 4079
2800 1008
2800 2544
2800 4080
2801 1009
2801 2545
2801 4081
2802 1010
2802 2546
2802 4082
2803 1011
2803 2547
2803 4083
2804 1012
2804 2548
2804 4084
2805 1013
2805 2549
2805 4085
2806 1014
2806 2550
2806 4086
2807 1015
2807 2551
2807 4087
2808 1016
2808 2552
2808 4088
2809 1017
2809 2553
2809 4089
2810 1018
2810 2554
2810 4090
2811 1019
2811 2555
2811 4091
2812 1020
2812 2556
2812 4092
2813 1021
2813 2557
2813 4093
2814 1022
2814 2558
2814 4094
2815 1023
2815 2559
2815 4095
2816 1024
2816 2560
2816 4096
2817 1025
2817 2561
2817 4097
2818 1026
2818 2562
2818 4098
2819 1027
2819 2563
2819 4099
2820 1028
2820 2564
2820 4100
2821 1029
2821 2565
2821 4101
2822 1030
2822 2566
2822 4102
2823 1031
2823 2567
2823 4103
2824 1032
2824 2568
2824 4104
2825 1033
2825 2569
2825 4105
2826 1034
2826 2570
2826 4106
2827 1035
2827 2571
2827 4107
2828 1036
2828 2572
2828 4108
2829 1037
2829 2573
2829 4109
2830 1038
2830 2574
2830 4110
2831 1039
2831 2575
2831 4111
2832 1040
2832 2576
2832 4112
2833 1041
2833 2577
2833 4113
2834 1042
2834 2578
2834 4114
2835 1043
2835 2579
2835 4115
2836 1044
2836 2580
2836 4116
2837 1045
2837 2581
2837 4117
2838 1046
2838 2582
2838 4118
2839 1047
2839 2583
2839 4119
2840 1048
2840 2584
2840 4120
2841 1049
2841 2585
2841 4121
2842 1050
2842 2586
2842 4122
2843 1051
2843 2587
2843 4123
2844 1052
2844 2588
2844 4124
2845 1053
2845 2589
2845 4125
2846 1054
2846 2590
2846 4126
2847 1055
2847 2591
2847 4127
2848 1056
2848 2592
2848 4128
2849 1057
2849 2593
2849 4129
2850 1058
2850 2594
2850 4130
2851 1059
2851 2595
2851 4131
2852 1060
2852 2596
2852 4132
2853 1061
2853 2597
2853 4133
2854 1062
2854 2598
2854 4134
2855 1063
2855 2599
2855 4135
2856 1064
2856 2600
2856 4136
2857 1065
2857 2601
2857 4137
2858 1066
2858 2602
2858 4138
2859 1067
2859 2603
2859 4139
2860 1068
2860 2604
2860 4140
2861 1069
2861 2605
2861 4141
2862 1070
2862 2606
2862 4142
2863 1071
2863 2607
2863 4143
2864 1072
2864 2608
2864 4144
2865 1073
2865 2609
2865 4145
2866 1074
2866 2610
2866 4146
2867 1075
2867 2611
2867 4147
2868 1076
2868 2612
2868 4148
2869 1077
2869 2613
2869 4149
2870 1078
2870 2614
2870 4150
2871 1079
2871 2615
2871 4151
2872 1080
2872 2616
2872 4152
2873 1081
2873 2617
2873 4153
2874 1082
2874 2618
2874 4154
2875 1083
2875 2619
2875 4155
2876 1084
2876 2620
2876 4156
2877 1085
2877 2621
2877 4157
2878 1086
2878 2622
2878 4158
2879 1087
2879 2623
2879 4159
2880 1088
2880 2624
2880 4160
2881 1089
2881 2625
2881 4161
2882 1090
2882 2626
2882 4162
2883 1091
2883 2627
2883 4163
2884 1092
2884 2628
2884 4164
2885 1093
2885 2629
2885 4165
2886 1094
2886 2630
2886 4166
2887 1095
2887 2631
2887 4167
2888 1096
2888 2632
2888 4168
2889 1097
2889 2633
2889 4169
2890 1098
2890 2634
2890 4170
2891 1099
2891 2635
2891 4171
2892 1100
2892 2636
2892 4172
2893 1101
2893 2637
2893 4173
2894 1102
2894 2638
2894 4174
2895 1103
2895 2639
2895 4175
2896 1104
2896 2640
2896 4176
2897 1105
2897 2641
2897 4177
2898 1106
2898 2642
2898 4178
2899 1107
2899 2643
2899 4179
2900 1108
2900 2644
2900 4180
2901 1109
2901 2645
2901 4181
2902 1110
2902 2646
2902 4182
2903 1111
2903 2647
2903 4183
2904 1112
2904 2648
2904 4184
2905 1113
2905 2649
2905 4185
2906 1114
2906 2650
2906 4186
2907 1115
2907 2651
2907 4187
2908 1116
2908 2652
2908 4188
2909 1117
2909 2653
2909 4189
2910 1118
2910 2654
2910 4190
2911 1119
2911 2655
2911 4191
2912 1120
2912 2656
2912 4192
2913 1121
2913 2657
2913 4193
2914 1122
2914 2658
2914 4194
2915 1123
2915 2659
2915 4195
2916 1124
2916 2660
2916 4196
2917 1125
2917 2661
2917 4197
2918 1126
2918 2662
2918 4198
2919 1127
2919 2663
2919 4199
2920 1128
2920 2664
2920 4200
2921 1129
2921 2665
2921 4201
2922 1130
2922 2666
2922 4202
2923 1131
2923 2667
2923 4203
2924 1132
2924 2668
2924 4204
2925 1133
2925 2669
2925 4205
2926 1134
2926 2670
2926 4206
2927 1135
2927 2671
2927 4207
2928 1136
2928 2672
2928 4208
2929 1137
2929 2673
2929 4209
2930 1138
2930 2674
2930 4210
2931 1139
2931 2675
2931 4211
2932 1140
2932 2676
2932 4212
2933 1141
2933 2677
2933 4213
2934 1142
2934 2678
2934 4214
2935 1143
2935 2679
2935 4215
2936 1144
2936 2680
2936 4216
2937 1145
2937 2681
2937 4217
2938 1146
2938 2682
2938 4218
2939 1147
2939 2683
2939 4219
2940 1148
2940 2684
2940 4220
2941 1149
2941 2685
2941 4221
2942 1150
2942 2686
2942 4222
2943 1151
2943 2687
2943 4223
2944 1152
2944 2688
2944 4224
2945 1153
2945 2689
2945 4225
2946 1154
2946 2690
2946 4226
2947 1155
2947 2691
2947 4227
2948 1156
2948 2692
2948 4228
2949 1157
2949 2693
2949 4229
2950 1158
2950 2694
2950 4230
2951 1159
2951 2695
2951 4231
2952 1160
2952 2696
2952 4232
2953 1161
2953 2697
2953 4233
2954 1162
2954 2698
2954 4234
2955 1163
2955 2699
2955 4235
2956 1164
2956 2700
2956 4236
2957 1165
2957 2701
2957 4237
2958 1166
2958 2702
2958 4238
2959 1167
2959 2703
2959 4239
2960 1168
2960 2704
2960 4240
2961 1169
2961 2705
2961 4241
2962 1170
2962 2706
2962 4242
2963 1171
2963 2707
2963 4243
2964 1172
2964 2708
2964 4244
2965 1173
2965 2709
2965 4245
2966 1174
2966 2710
2966 4246
2967 1175
2967 2711
2967 4247
2968 1176
2968 2712
2968 4248
2969 1177
2969 2713
2969 4249
2970 1178
2970 2714
2970 4250
2971 1179
2971 2715
2971 4251
2972 1180
2972 2716
2972 4252
2973 1181
2973 2717
2973 4253
2974 1182
2974 2718
2974 4254
2975 1183
2975 2719
2975 4255
2976 1184
2976 2720
2976 4256
2977 1185
2977 2721
2977 4257
2978 1186
2978 2722
2978 4258
2979 1187
2979 2723
2979 4259
2980 1188
2980 2724
2980 4260
2981 1189
2981 2725
2981 4261
2982 1190
2982 2726
2982 4262
2983 1191
2983 2727
2983 4263
2984 1192
2984 2728
2984 4264
2985 1193
2985 2729
2985 4265
2986 1194
2986 2730
2986 4266
2987 1195
2987 2731
2987 4267
2988 1196
2988 2732
2988 4268
2989 1197
2989 2733
2989 4269
2990 1198
2990 2734
2990 4270
2991 1199
2991 2735
2991 4271
2992 1200
2992 2736
2992 4272
2993 1201
2993 2737
2993 4273
2994 1202
2994 2738
2994 4274
2995 1203
2995 2739
2995 4275
2996 1204
2996 2740
2996 4276
2997 1205
2997 2741
2997 4277
2998 1206
2998 2742
2998 4278
2999 1207
2999 2743
2999 4279
3000 1208
3000 2744
3000 4280
3001 1209
3001 2745
3001 4281
3002 1210
3002 2746
3002 4282
3003 1211
3003 2747
3003 4283
3004 1212
3004 2748
3004 4284
3005 1213
3005 2749
3005 4285
3006 1214
3006 2750
3006 4286
3007 1215
3007 2751
3007 4287
3008 1216
3008 2752
3008 4288
3009 1217
3009 2753
3009 4289
3010 1218
3010 2754
3010 4290
3011 1219
3011 2755
3011 4291
3012 1220
3012 2756
3012 4292
3013 1221
3013 2757
3013 4293
3014 1222
3014 2758
3014 4294
3015 1223
3015 2759
3015 4295
3016 1224
3016 2760
3016 4296
3017 1225
3017 2761
3017 4297
3018 1226
3018 2762
3018 4298
3019 1227
3019 2763
3019 4299
3020 1228
3020 2764
3020 4300
3021 1229
3021 2765
3021 4301
3022 1230
3022 2766
3022 4302
3023 1231
3023 2767
3023 4303
3024 1232
3024 2768
3024 4304
3025 1233
3025 2769
3025 4305
3026 1234
3026 2770
3026 4306
3027 1235
3027 2771
3027 4307
3028 1236
3028 2772
3028 4308
3029 1237
3029 2773
3029 4309
3030 1238
3030 2774
3030 4310
3031 1239
3031 2775
3031 4311
3032 1240
3032 2776
3032 4312
3033 1241
3033 2777
3033 4313
3034 1242
3034 2778
3034 4314
3035 1243
3035 2779
3035 4315
3036 1244
3036 2780
3036 4316
3037 1245
3037 2781
3037 4317
3038 1246
3038 2782
3038 4318
3039 1247
3039 2783
3039 4319
3040 1248
3040 2784
3040 4320
3041 1249
3041 2785
3041 4321
3042 1250
3042 2786
3042 4322
3043 1251
3043 2787
3043 4323
3044 1252
3044 2788
3044 4324
3045 1253
3045 2789
3045 4325
3046 1254
3046 2790
3046 4326
3047 1255
3047 2791
3047 4327
3048 1256
3048 2792
3048 4328
3049 1257
3049 2793
3049 4329
3050 1258
3050 2794
3050 4330
3051 1259
3051 2795
3051 4331
3052 1260
3052 2796
3052 4332
3053 1261
3053 2797
3053 4333
3054 1262
3054 2798
3054 4334
3055 1263
3055 2799
3055 4335
3056 1264
3056 2800
3056 4336
3057 1265
3057 2801
3057 4337
3058 1266
3058 2802
3058 4338
3059 1267
3059 2803
3059 4339
3060 1268
3060 2804
3060 4340
3061 1269
3061 2805
3061 4341
3062 1270
3062 2806
3062 4342
3063 1271
3063 2807
3063 4343
3064 1272
3064 2808
3064 4344
3065 1273
3065 2809
3065 4345
3066 1274
3066 2810
3066 4346
3067 1275
3067 2811
3067 4347
3068 1276
3068 2812
3068 4348
3069 1277
3069 2813
3069 4349
3070 1278
3070 2814
3070 4350
3071 1279
3071 2815
3071 4351
3072 1280
3072 2816
3072 4352
3073 1281
3073 2817
3073 4353
3074 1282
3074 2818
3074 4354
3075 1283
3075 2819
3075 4355
3076 1284
3076 2820
3076 4356
3077 1285
3077 2821
3077 4357
3078 1286
3078 2822
3078 4358
3079 1287
3079 2823
3079 4359
3080 1288
3080 2824
3080 4360
3081 1289
3081 2825
3081 4361
3082 1290
3082 2826
3082 4362
3083 1291
3083 2827
3083 4363
3084 1292
3084 2828
3084 4364
3085 1293
3085 2829
3085 4365
3086 1294
3086 2830
3086 4366
3087 1295
3087 2831
3087 4367
3088 1296
3088 2832
3088 4368
3089 1297
3089 2833
3089 4369
3090 1298
3090 2834
3090 4370
3091 1299
3091 2835
3091 4371
3092 1300
3092 2836
3092 4372
3093 1301
3093 2837
3093 4373
3094 1302
3094 2838
3094 4374
3095 1303
3095 2839
3095 4375
3096 1304
3096 2840
3096 4376
3097 1305
3097 2841
3097 4377
3098 1306
3098 2842
3098 4378
3099 1307
3099 2843
3099 4379
3100 1308
3100 2844
3100 4380
3101 1309
3101 2845
3101 4381
3102 1310
3102 2846
3102 4382
3103 1311
3103 2847
3103 4383
3104 1312
3104 2848
3104 4384
3105 1313
3105 2849
3105 4385
3106 1314
3106 2850
3106 4386
3107 1315
3107 2851
3107 4387
3108 1316
3108 2852
3108 4388
3109 1317
3109 2853
3109 4389
3110 1318
3110 2854
3110 4390
3111 1319
3111 2855
3111 4391
3112 1320
3112 2856
3112 4392
3113 1321
3113 2857
3113 4393
3114 1322
3114 2858
3114 4394
3115 1323
3115 2859
3115 4395
3116 1324
3116 2860
3116 4396
3117 1325
3117 2861
3117 4397
3118 1326
3118 2862
3118 4398
3119 1327
3119 2863
3119 4399
3120 1328
3120 2864
3120 4400
3121 1329
3121 2865
3121 4401
3122 1330
3122 2866
3122 4402
3123 1331
3123 2867
3123 4403
3124 1332
3124 2868
3124 4404
3125 1333
3125 2869
3125 4405
3126 1334
3126 2870
3126 4406
3127 1335
3127 2871
3127 4407
3128 1336
3128 2872
3128 4408
3129 1337
3129 2873
3129 4409
3130 1338
3130 2874
3130 4410
3131 1339
3131 2875
3131 4411
3132 1340
3132 2876
3132 4412
3133 1341
3133 2877
3133 4413
3134 1342
3134 2878
3134 4414
3135 1343
3135 2879
3135 4415
3136 1344
3136 2880
3136 4416
3137 1345
3137 2881
3137 4417
3138 1346
3138 2882
3138 4418
3139 1347
3139 2883
3139 4419
3140 1348
3140 2884
3140 4420
3141 1349
3141 2885
3141 4421
3142 1350
3142 2886
3142 4422
3143 1351
3143 2887
3143 4423
3144 1352
3144 2888
3144 4424
3145 1353
3145 2889
3145 4425
3146 1354
3146 2890
3146 4426
3147 1355
3147 2891
3147 4427
3148 1356
3148 2892
3148 4428
3149 1357
3149 2893
3149 4429
3150 1358
3150 2894
3150 4430
3151 1359
3151 2895
3151 4431
3152 1360
3152 2896
3152 4432
3153 1361
3153 2897
3153 4433
3154 1362
3154 2898
3154 4434
3155 1363
3155 2899
3155 4435
3156 1364
3156 2900
3156 4436
3157 1365
3157 2901
3157 4437
3158 1366
3158 2902
3158 4438
3159 1367
3159 2903
3159 4439
3160 1368
3160 2904
3160 4440
3161 1369
3161 2905
3161 4441
3162 1370
3162 2906
3162 4442
3163 1371
3163 2907
3163 4443
3164 1372
3164 2908
3164 4444
3165 1373
3165 2909
3165 4445
3166 1374
3166 2910
3166 4446
3167 1375
3167 2911
3167 4447
3168 1376
3168 2912
3168 4448
3169 1377
3169 2913
3169 4449
3170 1378
3170 2914
3170 4450
3171 1379
3171 2915
3171 4451
3172 1380
3172 2916
3172 4452
3173 1381
3173 2917
3173 4453
3174 1382
3174 2918
3174 4454
3175 1383
3175 2919
3175 4455
3176 1384
3176 2920
3176 4456
3177 1385
3177 2921
3177 4457
3178 1386
3178 2922
3178 4458
3179 1387
3179 2923
3179 4459
3180 1388
3180 2924
3180 4460
3181 1389
3181 2925
3181 4461
3182 1390
3182 2926
3182 4462
3183 1391
3183 2927
3183 4463
3184 1392
3184 2928
3184 4464
3185 1393
3185 2929
3185 4465
3186 1394
3186 2930
3186 4466
3187 1395
3187 2931
3187 4467
3188 1396
3188 2932
3188 4468
3189 1397
3189 2933
3189 4469
3190 1398
3190 2934
3190 4470
3191 1399
3191 2935
3191 4471
3192 1400
3192 2936
3192 4472
3193 1401
3193 2937
3193 4473
3194 1402
3194 2938
3194 4474
3195 1403
3195 2939
3195 4475
3196 1404
3196 2940
3196 4476
3197 1405
3197 2941
3197 4477
3198 1406
3198 2942
3198 4478
3199 1407
3199 2943
3199 4479
3200 1408
3200 2944
3200 4480
3201 1409
3201 2945
3201 4481
3202 1410
3202 2946
3202 4482
3203 1411
3203 2947
3203 4483
3204 1412
3204 2948
3204 4484
3205 1413
3205 2949
3205 4485
3206 1414
3206 2950
3206 4486
3207 1415
3207 2951
3207 4487
3208 1416
3208 2952
3208 4488
3209 1417
3209 2953
3209 4489
3210 1418
3210 2954
3210 4490
3211 1419
3211 2955
3211 4491
3212 1420
3212 2956
3212 4492
3213 1421
3213 2957
3213 4493
3214 1422
3214 2958
3214 4494
3215 1423
3215 2959
3215 4495
3216 1424
3216 2960
3216 4496
3217 1425
3217 2961
3217 4497
3218 1426
3218 2962
3218 4498
3219 1427
3219 2963
3219 4499
3220 1428
3220 2964
3220 4500
3221 1429
3221 2965
3221 4501
3222 1430
3222 2966
3222 4502
3223 1431
3223 2967
3223 4503
3224 1432
3224 2968
3224 4504
3225 1433
3225 2969
3225 4505
3226 1434
3226 2970
3226 4506
3227 1435
3227 2971
3227 4507
3228 1436
3228 2972
3228 4508
3229 1437
3229 2973
3229 4509
3230 1438
3230 2974
3230 4510
3231 1439
3231 2975
3231 4511
3232 1440
3232 2976
3232 4512
3233 1441
3233 2977
3233 4513
3234 1442
3234 2978
3234 4514
3235 1443
3235 2979
3235 4515
3236 1444
3236 2980
3236 4516
3237 1445
3237 2981
3237 4517
3238 1446
3238 2982
3238 4518
3239 1447
3239 2983
3239 4519
3240 1448
3240 2984
3240 4520
3241 1449
3241 2985
3241 4521
3242 1450
3242 2986
3242 4522
3243 1451
3243 2987
3243 4523
3244 1452
3244 2988
3244 4524
3245 1453
3245 2989
3245 4525
3246 1454
3246 2990
3246 4526
3247 1455
3247 2991
3247 4527
3248 1456
3248 2992
3248 4528
3249 1457
3249 2993
3249 4529
3250 1458
3250 2994
3250 4530
3251 1459
3251 2995
3251 4531
3252 1460
3252 2996
3252 4532
3253 1461
3253 2997
3253 4533
3254 1462
3254 2998
3254 4534
3255 1463
3255 2999
3255 4535
3256 1464
3256 3000
3256 4536
3257 1465
3257 3001
3257 4537
3258 1466
3258 3002
3258 4538
3259 1467
3259 3003
3259 4539
3260 1468
3260 3004
3260 4540
3261 1469
3261 3005
3261 4541
3262 1470
3262 3006
3262 4542
3263 1471
3263 3007
3263 4543
3264 1472
3264 3008
3264 4544
3265 1473
3265 3009
3265 4545
3266 1474
3266 3010
3266 4546
3267 1475
3267 3011
3267 4547
3268 1476
3268 3012
3268 4548
3269 1477
3269 3013
3269 4549
3270 1478
3270 3014
3270 4550
3271 1479
3271 3015
3271 4551
3272 1480
3272 3016
3272 4552
3273 1481
3273 3017
3273 4553
3274 1482
3274 3018
3274 4554
3275 1483
3275 3019
3275 4555
3276 1484
3276 3020
3276 4556
3277 1485
3277 3021
3277 4557
3278 1486
3278 3022
3278 4558
3279 1487
3279 3023
3279 4559
3280 1488
3280 3024
3280 4560
3281 1489
3281 3025
3281 4561
3282 1490
3282 3026
3282 4562
3283 1491
3283 3027
3283 4563
3284 1492
3284 3028
3284 4564
3285 1493
3285 3029
3285 4565
3286 1494
3286 3030
3286 4566
3287 1495
3287 3031
3287 4567
3288 1496
3288 3032
3288 4568
3289 1497
3289 3033
3289 4569
3290 1498
3290 3034
3290 4570
3291 1499
3291 3035
3291 4571
3292 1500
3292 3036
3292 4572
3293 1501
3293 3037
3293 4573
3294 1502
3294 3038
3294 4574
3295 1503
3295 3039
3295 4575
3296 1504
3296 3040
3296 4576
3297 1505
3297 3041
3297 4577
3298 1506
3298 3042
3298 4578
3299 1507
3299 3043
3299 4579
3300 1508
3300 3044
3300 4580
3301 1509
3301 3045
3301 4581
3302 1510
3302 3046
3302 4582
3303 1511
3303 3047
3303 4583
3304 1512
3304 3048
3304 4584
3305 1513
3305 3049
3305 4585
3306 1514
3306 3050
3306 4586
3307 1515
3307 3051
3307 4587
3308 1516
3308 3052
3308 4588
3309 1517
3309 3053
3309 4589
3310 1518
3310 3054
3310 4590
3311 1519
3311 3055
3311 4591
3312 1520
3312 3056
3312 4592
3313 1521
3313 3057
3313 4593
3314 1522
3314 3058
3314 4594
3315 1523
3315 3059
3315 4595
3316 1524
3316 3060
3316 4596
3317 1525
3317 3061
3317 4597
3318 1526
3318 3062
3318 4598
3319 1527
3319 3063
3319 4599
3320 1528
3320 3064
3320 4600
3321 1529
3321 3065
3321 4601
3322 1530
3322 3066
3322 4602
3323 1531
3323 3067
3323 4603
3324 1532
3324 3068
3324 4604
3325 1533
3325 3069
3325 4605
3326 1534
3326 3070
3326 4606
3327 1535
3327 3071
3327 4607
3328 1536
3328 3072
3328 4608
3329 1537
3329 3073
3329 4609
3330 1538
3330 3074
3330 4610
3331 1539
3331 3075
3331 4611
3332 1540
3332 3076
3332 4612
3333 1541
3333 3077
3333 4613
3334 1542
3334 3078
3334 4614
3335 1543
3335 3079
3335 4615
3336 1544
3336 3080
3336 4616
3337 1545
3337 3081
3337 4617
3338 1546
3338 3082
3338 4618
3339 1547
3339 3083
3339 4619
3340 1548
3340 3084
3340 4620
3341 1549
3341 3085
3341 4621
3342 1550
3342 3086
3342 4622
3343 1551
3343 3087
3343 4623
3344 1552
3344 3088
3344 4624
3345 1553
3345 3089
3345 4625
3346 1554
3346 3090
3346 4626
3347 1555
3347 3091
3347 4627
3348 1556
3348 3092
3348 4628
3349 1557
3349 3093
3349 4629
3350 1558
3350 3094
3350 4630
3351 1559
3351 3095
3351 4631
3352 1560
3352 3096
3352 4632
3353 1561
3353 3097
3353 4633
3354 1562
3354 3098
3354 4634
3355 1563
3355 3099
3355 4635
3356 1564
3356 3100
3356 4636
3357 1565
3357 3101
3357 4637
3358 1566
3358 3102
3358 4638
3359 1567
3359 3103
3359 4639
3360 1568
3360 3104
3360 4640
3361 1569
3361 3105
3361 4641
3362 1570
3362 3106
3362 4642
3363 1571
3363 3107
3363 4643
3364 1572
3364 3108
3364 4644
3365 1573
3365 3109
3365 4645
3366 1574
3366 3110
3366 4646
3367 1575
3367 3111
3367 4647
3368 1576
3368 3112
3368 4648
3369 1577
3369 3113
3369 4649
3370 1578
3370 3114
3370 4650
3371 1579
3371 3115
3371 4651
3372 1580
3372 3116
3372 4652
3373 1581
3373 3117
3373 4653
3374 1582
3374 3118
3374 4654
3375 1583
3375 3119
3375 4655
3376 1584
3376 3120
3376 4656
3377 1585
3377 3121
3377 4657
3378 1586
3378 3122
3378 4658
3379 1587
3379 3123
3379 4659
3380 1588
3380 3124
3380 4660
3381 1589
3381 3125
3381 4661
3382 1590
3382 3126
3382 4662
3383 1591
3383 3127
3383 4663
3384 1592
3384 3128
3384 4664
3385 1593
3385 3129
3385 4665
3386 1594
3386 3130
3386 4666
3387 1595
3387 3131
3387 4667
3388 1596
3388 3132
3388 4668
3389 1597
3389 3133
3389 4669
3390 1598
3390 3134
3390 4670
3391 1599
3391 3135
3391 4671
3392 1600
3392 3136
3392 4672
3393 1601
3393 3137
3393 4673
3394 1602
3394 3138
3394 4674
3395 1603
3395 3139
3395 4675
3396 1604
3396 3140
3396 4676
3397 1605
3397 3141
3397 4677
3398 1606
3398 3142
3398 4678
3399 1607
3399 3143
3399 4679
3400 1608
3400 3144
3400 4680
3401 1609
3401 3145
3401 4681
3402 1610
3402 3146
3402 4682
3403 1611
3403 3147
3403 4683
3404 1612
3404 3148
3404 4684
3405 1613
3405 3149
3405 4685
3406 1614
3406 3150
3406 4686
3407 1615
3407 3151
3407 4687
3408 1616
3408 3152
3408 4688
3409 1617
3409 3153
3409 4689
3410 1618
3410 3154
3410 4690
3411 1619
3411 3155
3411 4691
3412 1620
3412 3156
3412 4692
3413 1621
3413 3157
3413 4693
3414 1622
3414 3158
3414 4694
3415 1623
3415 3159
3415 4695
3416 1624
3416 3160
3416 4696
3417 1625
3417 3161
3417 4697
3418 1626
3418 3162
3418 4698
3419 1627
3419 3163
3419 4699
3420 1628
3420 3164
3420 4700
3421 1629
3421 3165
3421 4701
3422 1630
3422 3166
3422 4702
3423 1631
3423 3167
3423 4703
3424 1632
3424 3168
3424 4704
3425 1633
3425 3169
3425 4705
3426 1634
3426 3170
3426 4706
3427 1635
3427 3171
3427 4707
3428 1636
3428 3172
3428 4708
3429 1637
3429 3173
3429 4709
3430 1638
3430 3174
3430 4710
3431 1639
3431 3175
3431 4711
3432 1640
3432 3176
3432 4712
3433 1641
3433 3177
3433 4713
3434 1642
3434 3178
3434 4714
3435 1643
3435 3179
3435 4715
3436 1644
3436 3180
3436 4716
3437 1645
3437 3181
3437 4717
3438 1646
3438 3182
3438 4718
3439 1647
3439 3183
3439 4719
3440 1648
3440 3184
3440 4720
3441 1649
3441 3185
3441 4721
3442 1650
3442 3186
3442 4722
3443 1651
3443 3187
3443 4723
3444 1652
3444 3188
3444 4724
3445 1653
3445 3189
3445 4725
3446 1654
3446 3190
3446 4726
3447 1655
3447 3191
3447 4727
3448 1656
3448 3192
3448 4728
3449 1657
3449 3193
3449 4729
3450 1658
3450 3194
3450 4730
3451 1659
3451 3195
3451 4731
3452 1660
3452 3196
3452 4732
3453 1661
3453 3197
3453 4733
3454 1662
3454 3198
3454 4734
3455 1663
3455 3199
3455 4735
3456 1664
3456 3200
3456 4736
3457 1665
3457 3201
3457 4737
3458 1666
3458 3202
3458 4738
3459 1667
3459 3203
3459 4739
3460 1668
3460 3204
3460 4740
3461 1669
3461 3205
3461 4741
3462 1670
3462 3206
3462 4742
3463 1671
3463 3207
3463 4743
3464 1672
3464 3208
3464 4744
3465 1673
3465 3209
3465 4745
3466 1674
3466 3210
3466 4746
3467 1675
3467 3211
3467 4747
3468 1676
3468 3212
3468 4748
3469 1677
3469 3213
3469 4749
3470 1678
3470 3214
3470 4750
3471 1679
3471 3215
3471 4751
3472 1680
3472 3216
3472 4752
3473 1681
3473 3217
3473 4753
3474 1682
3474 3218
3474 4754
3475 1683
3475 3219
3475 4755
3476 1684
3476 3220
3476 4756
3477 1685
3477 3221
3477 4757
3478 1686
3478 3222
3478 4758
3479 1687
3479 3223
3479 4759
3480 1688
3480 3224
3480 4760
3481 1689
3481 3225
3481 4761
3482 1690
3482 3226
3482 4762
3483 1691
3483 3227
3483 4763
3484 1692
3484 3228
3484 4764
3485 1693
3485 3229
3485 4765
3486 1694
3486 3230
3486 4766
3487 1695
3487 3231
3487 4767
3488 1696
3488 3232
3488 4768
3489 1697
3489 3233
3489 4769
3490 1698
3490 3234
3490 4770
3491 1699
3491 3235
3491 4771
3492 1700
3492 3236
3492 4772
3493 1701
3493 3237
3493 4773
3494 1702
3494 3238
3494 4774
3495 1703
3495 3239
3495 4775
3496 1704
3496 3240
3496 4776
3497 1705
3497 3241
3497 4777
3498 1706
3498 3242
3498 4778
3499 1707
3499 3243
3499 4779
3500 1708
3500 3244
3500 4780
3501 1709
3501 3245
3501 4781
3502 1710
3502 3246
3502 4782
3503 1711
3503 3247
3503 4783
3504 1712
3504 3248
3504 4784
3505 1713
3505 3249
3505 4785
3506 1714
3506 3250
3506 4786
3507 1715
3507 3251
3507 4787
3508 1716
3508 3252
3508 4788
3509 1717
3509 3253
3509 4789
3510 1718
3510 3254
3510 4790
3511 1719
3511 3255
3511 4791
3512 1720
3512 3256
3512 4792
3513 1721
3513 3257
3513 4793
3514 1722
3514 3258
3514 4794
3515 1723
3515 3259
3515 4795
3516 1724
3516 3260
3516 4796
3517 1725
3517 3261
3517 4797
3518 1726
3518 3262
3518 4798
3519 1727
3519 3263
3519 4799
3520 1728
3520 3264
3520 4800
3521 1729
3521 3265
3521 4801
3522 1730
3522 3266
3522 4802
3523 1731
3523 3267
3523 4803
3524 1732
3524 3268
3524 4804
3525 1733
3525 3269
3525 4805
3526 1734
3526 3270
3526 4806
3527 1735
3527 3271
3527 4807
3528 1736
3528 3272
3528 4808
3529 1737
3529 3273
3529 4809
3530 1738
3530 3274
3530 4810
3531 1739
3531 3275
3531 4811
3532 1740
3532 3276
3532 4812
3533 1741
3533 3277
3533 4813
3534 1742
3534 3278
3534 4814
3535 1743
3535 3279
3535 4815
3536 1744
3536 3280
3536 4816
3537 1745
3537 3281
3537 4817
3538 1746
3538 3282
3538 4818
3539 1747
3539 3283
3539 4819
3540 1748
3540 3284
3540 4820
3541 1749
3541 3285
3541 4821
3542 1750
3542 3286
3542 4822
3543 1751
3543 3287
3543 4823
3544 1752
3544 3288
3544 4824
3545 1753
3545 3289
3545 4825
3546 1754
3546 3290
3546 4826
3547 1755
3547 3291
3547 4827
3548 1756
3548 3292
3548 4828
3549 1757
3549 3293
3549 4829
3550 1758
3550 3294
3550 4830
3551 1759
3551 3295
3551 4831
3552 1760
3552 3296
3552 4832
3553 1761
3553 3297
3553 4833
3554 1762
3554 3298
3554 4834
3555 1763
3555 3299
3555 4835
3556 1764
3556 3300
3556 4836
3557 1765
3557 3301
3557 4837
3558 1766
3558 3302
3558 4838
3559 1767
3559 3303
3559 4839
3560 1768
3560 3304
3560 4840
3561 1769
3561 3305
3561 4841
3562 1770
3562 3306
3562 4842
3563 1771
3563 3307
3563 4843
3564 1772
3564 3308
3564 4844
3565 1773
3565 3309
3565 4845
3566 1774
3566 3310
3566 4846
3567 1775
3567 3311
3567 4847
3568 1776
3568 3312
3568 4848
3569 1777
3569 3313
3569 4849
3570 1778
3570 3314
3570 4850
3571 1779
3571 3315
3571 4851
3572 1780
3572 3316
3572 4852
3573 1781
3573 3317
3573 4853
3574 1782
3574 3318
3574 4854
3575 1783
3575 3319
3575 4855
3576 1784
3576 3320
3576 4856
3577 1785
3577 3321
3577 4857
3578 1786
3578 3322
3578 4858
3579 1787
3579 3323
3579 4859
3580 1788
3580 3324
3580 4860
3581 1789
3581 3325
3581 4861
3582 1790
3582 3326
3582 4862
3583 1791
3583 3327
3583 4863
3584 0
3584 3072
3584 4352
3585 1
3585 3073
3585 4353
3586 2
3586 3074
3586 4354
3587 3
3587 3075
3587 4355
3588 4
3588 3076
3588 4356
3589 5
3589 3077
3589 4357
3590 6
3590 3078
3590 4358
3591 7
3591 3079
3591 4359
3592 8
3592 3080
3592 4360
3593 9
3593 3081
3593 4361
3594 10
3594 3082
3594 4362
3595 11
3595 3083
3595 4363
3596 12
3596 3084
3596 4364
3597 13
3597 3085
3597 4365
3598 14
3598 3086
3598 4366
3599 15
3599 3087
3599 4367
3600 16
3600 3088
3600 4368
3601 17
3601 3089
3601 4369
3602 18
3602 3090
3602 4370
3603 19
3603 3091
3603 4371
3604 20
3604 3092
3604 4372
3605 21
3605 3093
3605 4373
3606 22
3606 3094
3606 4374
3607 23
3607 3095
3607 4375
3608 24
3608 3096
3608 4376
3609 25
3609 3097
3609 4377
3610 26
3610 3098
3610 4378
3611 27
3611 3099
3611 4379
3612 28
3612 3100
3612 4380
3613 29
3613 3101
3613 4381
3614 30
3614 3102
3614 4382
3615 31
3615 3103
3615 4383
3616 32
3616 3104
3616 4384
3617 33
3617 3105
3617 4385
3618 34
3618 3106
3618 4386
3619 35
3619 3107
3619 4387
3620 36
3620 3108
3620 4388
3621 37
3621 3109
3621 4389
3622 38
3622 3110
3622 4390
3623 39
3623 3111
3623 4391
3624 40
3624 3112
3624 4392
3625 41
3625 3113
3625 4393
3626 42
3626 3114
3626 4394
3627 43
3627 3115
3627 4395
3628 44
3628 3116
3628 4396
3629 45
3629 3117
3629 4397
3630 46
3630 3118
3630 4398
3631 47
3631 3119
3631 4399
3632 48
3632 3120
3632 4400
3633 49
3633 3121
3633 4401
3634 50
3634 3122
3634 4402
3635 51
3635 3123
3635 4403
3636 52
3636 3124
3636 4404
3637 53
3637 3125
3637 4405
3638 54
3638 3126
3638 4406
3639 55
3639 3127
3639 4407
3640 56
3640 3128
3640 4408
3641 57
3641 3129
3641 4409
3642 58
3642 3130
3642 4410
3643 59
3643 3131
3643 4411
3644 60
3644 3132
3644 4412
3645 61
3645 3133
3645 4413
3646 62
3646 3134
3646 4414
3647 63
3647 3135
3647 4415
3648 64
3648 3136
3648 4416
3649 65
3649 3137
3649 4417
3650 66
3650 3138
3650 4418
3651 67
3651 3139
3651 4419
3652 68
3652 3140
3652 4420
3653 69
3653 3141
3653 4421
3654 70
3654 3142
3654 4422
3655 71
3655 3143
3655 4423
3656 72
3656 3144
3656 4424
3657 73
3657 3145
3657 4425
3658 74
3658 3146
3658 4426
3659 75
3659 3147
3659 4427
3660 76
3660 3148
3660 4428
3661 77
3661 3149
3661 4429
3662 78
3662 3150
3662 4430
3663 79
3663 3151
3663 4431
3664 80
3664 3152
3664 4432
3665 81
3665 3153
3665 4433
3666 82
3666 3154
3666 4434
3667 83
3667 3155
3667 4435
3668 84
3668 3156
3668 4436
3669 85
3669 3157
3669 4437
3670 86
3670 3158
3670 4438
3671 87
3671 3159
3671 4439
3672 88
3672 3160
3672 4440
3673 89
3673 3161
3673 4441
3674 90
3674 3162
3674 4442
3675 91
3675 3163
3675 4443
3676 92
3676 3164
3676 4444
3677 93
3677 3165
3677 4445
3678 94
3678 3166
3678 4446
3679 95
3679 3167
3679 4447
3680 96
3680 3168
3680 4448
3681 97
3681 3169
3681 4449
3682 98
3682 3170
3682 4450
3683 99
3683 3171
3683 4451
3684 100
3684 3172
3684 4452
3685 101
3685 3173
3685 4453
3686 102
3686 3174
3686 4454
3687 103
3687 3175
3687 4455
3688 104
3688 3176
3688 4456
3689 105
3689 3177
3689 4457
3690 106
3690 3178
3690 4458
3691 107
3691 3179
3691 4459
3692 108
3692 3180
3692 4460
3693 109
3693 3181
3693 4461
3694 110
3694 3182
3694 4462
3695 111
3695 3183
3695 4463
3696 112
3696 3184
3696 4464
3697 113
3697 3185
3697 4465
3698 114
3698 3186
3698 4466
3699 115
3699 3187
3699 4467
3700 116
3700 3188
3700 4468
3701 117
3701 3189
3701 4469
3702 118
3702 3190
3702 4470
3703 119
3703 3191
3703 4471
3704 120
3704 3192
3704 4472
3705 121
3705 3193
3705 4473
3706 122
3706 3194
3706 4474
3707 123
3707 3195
3707 4475
3708 124
3708 3196
3708 4476
3709 125
3709 3197
3709 4477
3710 126
3710 3198
3710 4478
3711 127
3711 3199
3711 4479
3712 128
3712 3200
3712 4480
3713 129
3713 3201
3713 4481
3714 130
3714 3202
3714 4482
3715 131
3715 3203
3715 4483
3716 132
3716 3204
3716 4484
3717 133
3717 3205
3717 4485
3718 134
3718 3206
3718 4486
3719 135
3719 3207
3719 4487
3720 136
3720 3208
3720 4488
3721 137
3721 3209
3721 4489
3722 138
3722 3210
3722 4490
3723 139
3723 3211
3723 4491
3724 140
3724 3212
3724 4492
3725 141
3725 3213
3725 4493
3726 142
3726 3214
3726 4494
3727 143
3727 3215
3727 4495
3728 144
3728 3216
3728 4496
3729 145
3729 3217
3729 4497
3730 146
3730 3218
3730 4498
3731 147
3731 3219
3731 4499
3732 148
3732 3220
3732 4500
3733 149
3733 3221
3733 4501
3734 150
3734 3222
3734 4502
3735 151
3735 3223
3735 4503
3736 152
3736 3224
3736 4504
3737 153
3737 3225
3737 4505
3738 154
3738 3226
3738 4506
3739 155
3739 3227
3739 4507
3740 156
3740 3228
3740 4508
3741 157
3741 3229
3741 4509
3742 158
3742 3230
3742 4510
3743 159
3743 3231
3743 4511
3744 160
3744 3232
3744 4512
3745 161
3745 3233
3745 4513
3746 162
3746 3234
3746 4514
3747 163
3747 3235
3747 4515
3748 164
3748 3236
3748 4516
3749 165
3749 3237
3749 4517
3750 166
3750 3238
3750 4518
3751 167
3751 3239
3751 4519
3752 168
3752 3240
3752 4520
3753 169
3753 3241
3753 4521
3754 170
3754 3242
3754 4522
3755 171
3755 3243
3755 4523
3756 172
3756 3244
3756 4524
3757 173
3757 3245
3757 4525
3758 174
3758 3246
3758 4526
3759 175
3759 3247
3759 4527
3760 176
3760 3248
3760 4528
3761 177
3761 3249
3761 4529
3762 178
3762 3250
3762 4530
3763 179
3763 3251
3763 4531
3764 180
3764 3252
3764 4532
3765 181
3765 3253
3765 4533
3766 182
3766 3254
3766 4534
3767 183
3767 3255
3767 4535
3768 184
3768 3256
3768 4536
3769 185
3769 3257
3769 4537
3770 186
3770 3258
3770 4538
3771 187
3771 3259
3771 4539
3772 188
3772 3260
3772 4540
3773 189
3773 3261
3773 4541
3774 190
3774 3262
3774 4542
3775 191
3775 3263
3775 4543
3776 192
3776 3264
3776 4544
3777 193
3777 3265
3777 4545
3778 194
3778 3266
3778 4546
3779 195
3779 3267
3779 4547
3780 196
3780 3268
3780 4548
3781 197
3781 3269
3781 4549
3782 198
3782 3270
3782 4550
3783 199
3783 3271
3783 4551
3784 200
3784 3272
3784 4552
3785 201
3785 3273
3785 4553
3786 202
3786 3274
3786 4554
3787 203
3787 3275
3787 4555
3788 204
3788 3276
3788 4556
3789 205
3789 3277
3789 4557
3790 206
3790 3278
3790 4558
3791 207
3791 3279
3791 4559
3792 208
3792 3280
3792 4560
3793 209
3793 3281
3793 4561
3794 210
3794 3282
3794 4562
3795 211
3795 3283
3795 4563
3796 212
3796 3284
3796 4564
3797 213
3797 3285
3797 4565
3798 214
3798 3286
3798 4566
3799 215
3799 3287
3799 4567
3800 216
3800 3288
3800 4568
3801 217
3801 3289
3801 4569
3802 218
3802 3290
3802 4570
3803 219
3803 3291
3803 4571
3804 220
3804 3292
3804 4572
3805 221
3805 3293
3805 4573
3806 222
3806 3294
3806 4574
3807 223
3807 3295
3807 4575
3808 224
3808 3296
3808 4576
3809 225
3809 3297
3809 4577
3810 226
3810 3298
3810 4578
3811 227
3811 3299
3811 4579
3812 228
3812 3300
3812 4580
3813 229
3813 3301
3813 4581
3814 230
3814 3302
3814 4582
3815 231
3815 3303
3815 4583
3816 232
3816 3304
3816 4584
3817 233
3817 3305
3817 4585
3818 234
3818 3306
3818 4586
3819 235
3819 3307
3819 4587
3820 236
3820 3308
3820 4588
3821 237
3821 3309
3821 4589
3822 238
3822 3310
3822 4590
3823 239
3823 3311
3823 4591
3824 240
3824 3312
3824 4592
3825 241
3825 3313
3825 4593
3826 242
3826 3314
3826 4594
3827 243
3827 3315
3827 4595
3828 244
3828 3316
3828 4596
3829 245
3829 3317
3829 4597
3830 246
3830 3318
3830 4598
3831 247
3831 3319
3831 4599
3832 248
3832 3320
3832 4600
3833 249
3833 3321
3833 4601
3834 250
3834 3322
3834 4602
3835 251
3835 3323
3835 4603
3836 252
3836 3324
3836 4604
3837 253
3837 3325
3837 4605
3838 254
3838 3326
3838 4606
3839 255
3839 3327
3839 4607
3840 256
3840 3328
3840 4608
3841 257
3841 3329
3841 4609
3842 258
3842 3330
3842 4610
3843 259
3843 3331
3843 4611
3844 260
3844 3332
3844 4612
3845 261
3845 3333
3845 4613
3846 262
3846 3334
3846 4614
3847 263
3847 3335
3847 4615
3848 264
3848 3336
3848 4616
3849 265
3849 3337
3849 4617
3850 266
3850 3338
3850 4618
3851 267
3851 3339
3851 4619
3852 268
3852 3340
3852 4620
3853 269
3853 3341
3853 4621
3854 270
3854 3342
3854 4622
3855 271
3855 3343
3855 4623
3856 272
3856 3344
3856 4624
3857 273
3857 3345
3857 4625
3858 274
3858 3346
3858 4626
3859 275
3859 3347
3859 4627
3860 276
3860 3348
3860 4628
3861 277
3861 3349
3861 4629
3862 278
3862 3350
3862 4630
3863 279
3863 3351
3863 4631
3864 280
3864 3352
3864 4632
3865 281
3865 3353
3865 4633
3866 282
3866 3354
3866 4634
3867 283
3867 3355
3867 4635
3868 284
3868 3356
3868 4636
3869 285
3869 3357
3869 4637
3870 286
3870 3358
3870 4638
3871 287
3871 3359
3871 4639
3872 288
3872 3360
3872 4640
3873 289
3873 3361
3873 4641
3874 290
3874 3362
3874 4642
3875 291
3875 3363
3875 4643
3876 292
3876 3364
3876 4644
3877 293
3877 3365
3877 4645
3878 294
3878 3366
3878 4646
3879 295
3879 3367
3879 4647
3880 296
3880 3368
3880 4648
3881 297
3881 3369
3881 4649
3882 298
3882 3370
3882 4650
3883 299
3883 3371
3883 4651
3884 300
3884 3372
3884 4652
3885 301
3885 3373
3885 4653
3886 302
3886 3374
3886 4654
3887 303
3887 3375
3887 4655
3888 304
3888 3376
3888 4656
3889 305
3889 3377
3889 4657
3890 306
3890 3378
3890 4658
3891 307
3891 3379
3891 4659
3892 308
3892 3380
3892 4660
3893 309
3893 3381
3893 4661
3894 310
3894 3382
3894 4662
3895 311
3895 3383
3895 4663
3896 312
3896 3384
3896 4664
3897 313
3897 3385
3897 4665
3898 314
3898 3386
3898 4666
3899 315
3899 3387
3899 4667
3900 316
3900 3388
3900 4668
3901 317
3901 3389
3901 4669
3902 318
3902 3390
3902 4670
3903 319
3903 3391
3903 4671
3904 320
3904 3392
3904 4672
3905 321
3905 3393
3905 4673
3906 322
3906 3394
3906 4674
3907 323
3907 3395
3907 4675
3908 324
3908 3396
3908 4676
3909 325
3909 3397
3909 4677
3910 326
3910 3398
3910 4678
3911 327
3911 3399
3911 4679
3912 328
3912 3400
3912 4680
3913 329
3913 3401
3913 4681
3914 330
3914 3402
3914 4682
3915 331
3915 3403
3915 4683
3916 332
3916 3404
3916 4684
3917 333
3917 3405
3917 4685
3918 334
3918 3406
3918 4686
3919 335
3919 3407
3919 4687
3920 336
3920 3408
3920 4688
3921 337
3921 3409
3921 4689
3922 338
3922 3410
3922 4690
3923 339
3923 3411
3923 4691
3924 340
3924 3412
3924 4692
3925 341
3925 3413
3925 4693
3926 342
3926 3414
3926 4694
3927 343
3927 3415
3927 4695
3928 344
3928 3416
3928 4696
3929 345
3929 3417
3929 4697
3930 346
3930 3418
3930 4698
3931 347
3931 3419
3931 4699
3932 348
3932 3420
3932 4700
3933 349
3933 3421
3933 4701
3934 350
3934 3422
3934 4702
3935 351
3935 3423
3935 4703
3936 352
3936 3424
3936 4704
3937 353
3937 3425
3937 4705
3938 354
3938 3426
3938 4706
3939 355
3939 3427
3939 4707
3940 356
3940 3428
3940 4708
3941 357
3941 3429
3941 4709
3942 358
3942 3430
3942 4710
3943 359
3943 3431
3943 4711
3944 360
3944 3432
3944 4712
3945 361
3945 3433
3945 4713
3946 362
3946 3434
3946 4714
3947 363
3947 3435
3947 4715
3948 364
3948 3436
3948 4716
3949 365
3949 3437
3949 4717
3950 366
3950 3438
3950 4718
3951 367
3951 3439
3951 4719
3952 368
3952 3440
3952 4720
3953 369
3953 3441
3953 4721
3954 370
3954 3442
3954 4722
3955 371
3955 3443
3955 4723
3956 372
3956 3444
3956 4724
3957 373
3957 3445
3957 4725
3958 374
3958 3446
3958 4726
3959 375
3959 3447
3959 4727
3960 376
3960 3448
3960 4728
3961 377
3961 3449
3961 4729
3962 378
3962 3450
3962 4730
3963 379
3963 3451
3963 4731
3964 380
3964 3452
3964 4732
3965 381
3965 3453
3965 4733
3966 382
3966 3454
3966 4734
3967 383
3967 3455
3967 4735
3968 384
3968 3456
3968 4736
3969 385
3969 3457
3969 4737
3970 386
3970 3458
3970 4738
3971 387
3971 3459
3971 4739
3972 388
3972 3460
3972 4740
3973 389
3973 3461
3973 4741
3974 390
3974 3462
3974 4742
3975 391
3975 3463
3975 4743
3976 392
3976 3464
3976 4744
3977 393
3977 3465
3977 4745
3978 394
3978 3466
3978 4746
3979 395
3979 3467
3979 4747
3980 396
3980 3468
3980 4748
3981 397
3981 3469
3981 4749
3982 398
3982 3470
3982 4750
3983 399
3983 3471
3983 4751
3984 400
3984 3472
3984 4752
3985 401
3985 3473
3985 4753
3986 402
3986 3474
3986 4754
3987 403
3987 3475
3987 4755
3988 404
3988 3476
3988 4756
3989 405
3989 3477
3989 4757
3990 406
3990 3478
3990 4758
3991 407
3991 3479
3991 4759
3992 408
3992 3480
3992 4760
3993 409
3993 3481
3993 4761
3994 410
3994 3482
3994 4762
3995 411
3995 3483
3995 4763
3996 412
3996 3484
3996 4764
3997 413
3997 3485
3997 4765
3998 414
3998 3486
3998 4766
3999 415
3999 3487
3999 4767
4000 416
4000 3488
4000 4768
4001 417
4001 3489
4001 4769
4002 418
4002 3490
4002 4770
4003 419
4003 3491
4003 4771
4004 420
4004 3492
4004 4772
4005 421
4005 3493
4005 4773
4006 422
4006 3494
4006 4774
4007 423
4007 3495
4007 4775
4008 424
4008 3496
4008 4776
4009 425
4009 3497
4009 4777
4010 426
4010 3498
4010 4778
4011 427
4011 3499
4011 4779
4012 428
4012 3500
4012 4780
4013 429
4013 3501
4013 4781
4014 430
4014 3502
4014 4782
4015 431
4015 3503
4015 4783
4016 432
4016 3504
4016 4784
4017 433
4017 3505
4017 4785
4018 434
4018 3506
4018 4786
4019 435
4019 3507
4019 4787
4020 436
4020 3508
4020 4788
4021 437
4021 3509
4021 4789
4022 438
4022 3510
4022 4790
4023 439
4023 3511
4023 4791
4024 440
4024 3512
4024 4792
4025 441
4025 3513
4025 4793
4026 442
4026 3514
4026 4794
4027 443
4027 3515
4027 4795
4028 444
4028 3516
4028 4796
4029 445
4029 3517
4029 4797
4030 446
4030 3518
4030 4798
4031 447
4031 3519
4031 4799
4032 448
4032 3520
4032 4800
4033 449
4033 3521
4033 4801
4034 450
4034 3522
4034 4802
4035 451
4035 3523
4035 4803
4036 452
4036 3524
4036 4804
4037 453
4037 3525
4037 4805
4038 454
4038 3526
4038 4806
4039 455
4039 3527
4039 4807
4040 456
4040 3528
4040 4808
4041 457
4041 3529
4041 4809
4042 458
4042 3530
4042 4810
4043 459
4043 3531
4043 4811
4044 460
4044 3532
4044 4812
4045 461
4045 3533
4045 4813
4046 462
4046 3534
4046 4814
4047 463
4047 3535
4047 4815
4048 464
4048 3536
4048 4816
4049 465
4049 3537
4049 4817
4050 466
4050 3538
4050 4818
4051 467
4051 3539
4051 4819
4052 468
4052 3540
4052 4820
4053 469
4053 3541
4053 4821
4054 470
4054 3542
4054 4822
4055 471
4055 3543
4055 4823
4056 472
4056 3544
4056 4824
4057 473
4057 3545
4057 4825
4058 474
4058 3546
4058 4826
4059 475
4059 3547
4059 4827
4060 476
4060 3548
4060 4828
4061 477
4061 3549
4061 4829
4062 478
4062 3550
4062 4830
4063 479
4063 3551
4063 4831
4064 480
4064 3552
4064 4832
4065 481
4065 3553
4065 4833
4066 482
4066 3554
4066 4834
4067 483
4067 3555
4067 4835
4068 484
4068 3556
4068 4836
4069 485
4069 3557
4069 4837
4070 486
4070 3558
4070 4838
4071 487
4071 3559
4071 4839
4072 488
4072 3560
4072 4840
4073 489
4073 3561
4073 4841
4074 490
4074 3562
4074 4842
4075 491
4075 3563
4075 4843
4076 492
4076 3564
4076 4844
4077 493
4077 3565
4077 4845
4078 494
4078 3566
4078 4846
4079 495
4079 3567
4079 4847
4080 496
4080 3568
4080 4848
4081 497
4081 3569
4081 4849
4082 498
4082 3570
4082 4850
4083 499
4083 3571
4083 4851
4084 500
4084 3572
4084 4852
4085 501
4085 3573
4085 4853
4086 502
4086 3574
4086 4854
4087 503
4087 3575
4087 4855
4088 504
4088 3576
4088 4856
4089 505
4089 3577
4089 4857
4090 506
4090 3578
4090 4858
4091 507
4091 3579
4091 4859
4092 508
4092 3580
4092 4860
4093 509
4093 3581
4093 4861
4094 510
4094 3582
4094 4862
4095 511
4095 3583
4095 4863
4096 512
4096 1792
4096 4864
4097 513
4097 1793
4097 4865
4098 514
4098 1794
4098 4866
4099 515
4099 1795
4099 4867
4100 516
4100 1796
4100 4868
4101 517
4101 1797
4101 4869
4102 518
4102 1798
4102 4870
4103 519
4103 1799
4103 4871
4104 520
4104 1800
4104 4872
4105 521
4105 1801
4105 4873
4106 522
4106 1802
4106 4874
4107 523
4107 1803
4107 4875
4108 524
4108 1804
4108 4876
4109 525
4109 1805
4109 4877
4110 526
4110 1806
4110 4878
4111 527
4111 1807
4111 4879
4112 528
4112 1808
4112 4880
4113 529
4113 1809
4113 4881
4114 530
4114 1810
4114 4882
4115 531
4115 1811
4115 4883
4116 532
4116 1812
4116 4884
4117 533
4117 1813
4117 4885
4118 534
4118 1814
4118 4886
4119 535
4119 1815
4119 4887
4120 536
4120 1816
4120 4888
4121 537
4121 1817
4121 4889
4122 538
4122 1818
4122 4890
4123 539
4123 1819
4123 4891
4124 540
4124 1820
4124 4892
4125 541
4125 1821
4125 4893
4126 542
4126 1822
4126 4894
4127 543
4127 1823
4127 4895
4128 544
4128 1824
4128 4896
4129 545
4129 1825
4129 4897
4130 546
4130 1826
4130 4898
4131 547
4131 1827
4131 4899
4132 548
4132 1828
4132 4900
4133 549
4133 1829
4133 4901
4134 550
4134 1830
4134 4902
4135 551
4135 1831
4135 4903
4136 552
4136 1832
4136 4904
4137 553
4137 1833
4137 4905
4138 554
4138 1834
4138 4906
4139 555
4139 1835
4139 4907
4140 556
4140 1836
4140 4908
4141 557
4141 1837
4141 4909
4142 558
4142 1838
4142 4910
4143 559
4143 1839
4143 4911
4144 560
4144 1840
4144 4912
4145 561
4145 1841
4145 4913
4146 562
4146 1842
4146 4914
4147 563
4147 1843
4147 4915
4148 564
4148 1844
4148 4916
4149 565
4149 1845
4149 4917
4150 566
4150 1846
4150 4918
4151 567
4151 1847
4151 4919
4152 568
4152 1848
4152 4920
4153 569
4153 1849
4153 4921
4154 570
4154 1850
4154 4922
4155 571
4155 1851
4155 4923
4156 572
4156 1852
4156 4924
4157 573
4157 1853
4157 4925
4158 574
4158 1854
4158 4926
4159 575
4159 1855
4159 4927
4160 576
4160 1856
4160 4928
4161 577
4161 1857
4161 4929
4162 578
4162 1858
4162 4930
4163 579
4163 1859
4163 4931
4164 580
4164 1860
4164 4932
4165 581
4165 1861
4165 4933
4166 582
4166 1862
4166 4934
4167 583
4167 1863
4167 4935
4168 584
4168 1864
4168 4936
4169 585
4169 1865
4169 4937
4170 586
4170 1866
4170 4938
4171 587
4171 1867
4171 4939
4172 588
4172 1868
4172 4940
4173 589
4173 1869
4173 4941
4174 590
4174 1870
4174 4942
4175 591
4175 1871
4175 4943
4176 592
4176 1872
4176 4944
4177 593
4177 1873
4177 4945
4178 594
4178 1874
4178 4946
4179 595
4179 1875
4179 4947
4180 596
4180 1876
4180 4948
4181 597
4181 1877
4181 4949
4182 598
4182 1878
4182 4950
4183 599
4183 1879
4183 4951
4184 600
4184 1880
4184 4952
4185 601
4185 1881
4185 4953
4186 602
4186 1882
4186 4954
4187 603
4187 1883
4187 4955
4188 604
4188 1884
4188 4956
4189 605
4189 1885
4189 4957
4190 606
4190 1886
4190 4958
4191 607
4191 1887
4191 4959
4192 608
4192 1888
4192 4960
4193 609
4193 1889
4193 4961
4194 610
4194 1890
4194 4962
4195 611
4195 1891
4195 4963
4196 612
4196 1892
4196 4964
4197 613
4197 1893
4197 4965
4198 614
4198 1894
4198 4966
4199 615
4199 1895
4199 4967
4200 616
4200 1896
4200 4968
4201 617
4201 1897
4201 4969
4202 618
4202 1898
4202 4970
4203 619
4203 1899
4203 4971
4204 620
4204 1900
4204 4972
4205 621
4205 1901
4205 4973
4206 622
4206 1902
4206 4974
4207 623
4207 1903
4207 4975
4208 624
4208 1904
4208 4976
4209 625
4209 1905
4209 4977
4210 626
4210 1906
4210 4978
4211 627
4211 1907
4211 4979
4212 628
4212 1908
4212 4980
4213 629
4213 1909
4213 4981
4214 630
4214 1910
4214 4982
4215 631
4215 1911
4215 4983
4216 632
4216 1912
4216 4984
4217 633
4217 1913
4217 4985
4218 634
4218 1914
4218 4986
4219 635
4219 1915
4219 4987
4220 636
4220 1916
4220 4988
4221 637
4221 1917
4221 4989
4222 638
4222 1918
4222 4990
4223 639
4223 1919
4223 4991
4224 640
4224 1920
4224 4992
4225 641
4225 1921
4225 4993
4226 642
4226 1922
4226 4994
4227 643
4227 1923
4227 4995
4228 644
4228 1924
4228 4996
4229 645
4229 1925
4229 4997
4230 646
4230 1926
4230 4998
4231 647
4231 1927
4231 4999
4232 648
4232 1928
4232 5000
4233 649
4233 1929
4233 5001
4234 650
4234 1930
4234 5002
4235 651
4235 1931
4235 5003
4236 652
4236 1932
4236 5004
4237 653
4237 1933
4237 5005
4238 654
4238 1934
4238 5006
4239 655
4239 1935
4239 5007
4240 656
4240 1936
4240 5008
4241 657
4241 1937
4241 5009
4242 658
4242 1938
4242 5010
4243 659
4243 1939
4243 5011
4244 660
4244 1940
4244 5012
4245 661
4245 1941
4245 5013
4246 662
4246 1942
4246 5014
4247 663
4247 1943
4247 5015
4248 664
4248 1944
4248 5016
4249 665
4249 1945
4249 5017
4250 666
4250 1946
4250 5018
4251 667
4251 1947
4251 5019
4252 668
4252 1948
4252 5020
4253 669
4253 1949
4253 5021
4254 670
4254 1950
4254 5022
4255 671
4255 1951
4255 5023
4256 672
4256 1952
4256 5024
4257 673
4257 1953
4257 5025
4258 674
4258 1954
4258 5026
4259 675
4259 1955
4259 5027
4260 676
4260 1956
4260 5028
4261 677
4261 1957
4261 5029
4262 678
4262 1958
4262 5030
4263 679
4263 1959
4263 5031
4264 680
4264 1960
4264 5032
4265 681
4265 1961
4265 5033
4266 682
4266 1962
4266 5034
4267 683
4267 1963
4267 5035
4268 684
4268 1964
4268 5036
4269 685
4269 1965
4269 5037
4270 686
4270 1966
4270 5038
4271 687
4271 1967
4271 5039
4272 688
4272 1968
4272 5040
4273 689
4273 1969
4273 5041
4274 690
4274 1970
4274 5042
4275 691
4275 1971
4275 5043
4276 692
4276 1972
4276 5044
4277 693
4277 1973
4277 5045
4278 694
4278 1974
4278 5046
4279 695
4279 1975
4279 5047
4280 696
4280 1976
4280 5048
4281 697
4281 1977
4281 5049
4282 698
4282 1978
4282 5050
4283 699
4283 1979
4283 5051
4284 700
4284 1980
4284 5052
4285 701
4285 1981
4285 5053
4286 702
4286 1982
4286 5054
4287 703
4287 1983
4287 5055
4288 704
4288 1984
4288 5056
4289 705
4289 1985
4289 5057
4290 706
4290 1986
4290 5058
4291 707
4291 1987
4291 5059
4292 708
4292 1988
4292 5060
4293 709
4293 1989
4293 5061
4294 710
4294 1990
4294 5062
4295 711
4295 1991
4295 5063
4296 712
4296 1992
4296 5064
4297 713
4297 1993
4297 5065
4298 714
4298 1994
4298 5066
4299 715
4299 1995
4299 5067
4300 716
4300 1996
4300 5068
4301 717
4301 1997
4301 5069
4302 718
4302 1998
4302 5070
4303 719
4303 1999
4303 5071
4304 720
4304 2000
4304 5072
4305 721
4305 2001
4305 5073
4306 722
4306 2002
4306 5074
4307 723
4307 2003
4307 5075
4308 724
4308 2004
4308 5076
4309 725
4309 2005
4309 5077
4310 726
4310 2006
4310 5078
4311 727
4311 2007
4311 5079
4312 728
4312 2008
4312 5080
4313 729
4313 2009
4313 5081
4314 730
4314 2010
4314 5082
4315 731
4315 2011
4315 5083
4316 732
4316 2012
4316 5084
4317 733
4317 2013
4317 5085
4318 734
4318 2014
4318 5086
4319 735
4319 2015
4319 5087
4320 736
4320 2016
4320 5088
4321 737
4321 2017
4321 5089
4322 738
4322 2018
4322 5090
4323 739
4323 2019
4323 5091
4324 740
4324 2020
4324 5092
4325 741
4325 2021
4325 5093
4326 742
4326 2022
4326 5094
4327 743
4327 2023
4327 5095
4328 744
4328 2024
4328 5096
4329 745
4329 2025
4329 5097
4330 746
4330 2026
4330 5098
4331 747
4331 2027
4331 5099
4332 748
4332 2028
4332 5100
4333 749
4333 2029
4333 5101
4334 750
4334 2030
4334 5102
4335 751
4335 2031
4335 5103
4336 752
4336 2032
4336 5104
4337 753
4337 2033
4337 5105
4338 754
4338 2034
4338 5106
4339 755
4339 2035
4339 5107
4340 756
4340 2036
4340 5108
4341 757
4341 2037
4341 5109
4342 758
4342 2038
4342 5110
4343 759
4343 2039
4343 5111
4344 760
4344 2040
4344 5112
4345 761
4345 2041
4345 5113
4346 762
4346 2042
4346 5114
4347 763
4347 2043
4347 5115
4348 764
4348 2044
4348 5116
4349 765
4349 2045
4349 5117
4350 766
4350 2046
4350 5118
4351 767
4351 2047
4351 5119
4352 768
4352 2048
4352 5120
4353 769
4353 2049
4353 5121
4354 770
4354 2050
4354 5122
4355 771
4355 2051
4355 5123
4356 772
4356 2052
4356 5124
4357 773
4357 2053
4357 5125
4358 774
4358 2054
4358 5126
4359 775
4359 2055
4359 5127
4360 776
4360 2056
4360 5128
4361 777
4361 2057
4361 5129
4362 778
4362 2058
4362 5130
4363 779
4363 2059
4363 5131
4364 780
4364 2060
4364 5132
4365 781
4365 2061
4365 5133
4366 782
4366 2062
4366 5134
4367 783
4367 2063
4367 5135
4368 784
4368 2064
4368 5136
4369 785
4369 2065
4369 5137
4370 786
4370 2066
4370 5138
4371 787
4371 2067
4371 5139
4372 788
4372 2068
4372 5140
4373 789
4373 2069
4373 5141
4374 790
4374 2070
4374 5142
4375 791
4375 2071
4375 5143
4376 792
4376 2072
4376 5144
4377 793
4377 2073
4377 5145
4378 794
4378 2074
4378 5146
4379 795
4379 2075
4379 5147
4380 796
4380 2076
4380 5148
4381 797
4381 2077
4381 5149
4382 798
4382 2078
4382 5150
4383 799
4383 2079
4383 5151
4384 800
4384 2080
4384 5152
4385 801
4385 2081
4385 5153
4386 802
4386 2082
4386 5154
4387 803
4387 2083
4387 5155
4388 804
4388 2084
4388 5156
4389 805
4389 2085
4389 5157
4390 806
4390 2086
4390 5158
4391 807
4391 2087
4391 5159
4392 808
4392 2088
4392 5160
4393 809
4393 2089
4393 5161
4394 810
4394 2090
4394 5162
4395 811
4395 2091
4395 5163
4396 812
4396 2092
4396 5164
4397 813
4397 2093
4397 5165
4398 814
4398 2094
4398 5166
4399 815
4399 2095
4399 5167
4400 816
4400 2096
4400 5168
4401 817
4401 2097
4401 5169
4402 818
4402 2098
4402 5170
4403 819
4403 2099
4403 5171
4404 820
4404 2100
4404 5172
4405 821
4405 2101
4405 5173
4406 822
4406 2102
4406 5174
4407 823
4407 2103
4407 5175
4408 824
4408 2104
4408 5176
4409 825
4409 2105
4409 5177
4410 826
4410 2106
4410 5178
4411 827
4411 2107
4411 5179
4412 828
4412 2108
4412 5180
4413 829
4413 2109
4413 5181
4414 830
4414 2110
4414 5182
4415 831
4415 2111
4415 5183
4416 832
4416 2112
4416 5184
4417 833
4417 2113
4417 5185
4418 834
4418 2114
4418 5186
4419 835
4419 2115
4419 5187
4420 836
4420 2116
4420 5188
4421 837
4421 2117
4421 5189
4422 838
4422 2118
4422 5190
4423 839
4423 2119
4423 5191
4424 840
4424 2120
4424 5192
4425 841
4425 2121
4425 5193
4426 842
4426 2122
4426 5194
4427 843
4427 2123
4427 5195
4428 844
4428 2124
4428 5196
4429 845
4429 2125
4429 5197
4430 846
4430 2126
4430 5198
4431 847
4431 2127
4431 5199
4432 848
4432 2128
4432 5200
4433 849
4433 2129
4433 5201
4434 850
4434 2130
4434 5202
4435 851
4435 2131
4435 5203
4436 852
4436 2132
4436 5204
4437 853
4437 2133
4437 5205
4438 854
4438 2134
4438 5206
4439 855
4439 2135
4439 5207
4440 856
4440 2136
4440 5208
4441 857
4441 2137
4441 5209
4442 858
4442 2138
4442 5210
4443 859
4443 2139
4443 5211
4444 860
4444 2140
4444 5212
4445 861
4445 2141
4445 5213
4446 862
4446 2142
4446 5214
4447 863
4447 2143
4447 5215
4448 864
4448 2144
4448 5216
4449 865
4449 2145
4449 5217
4450 866
4450 2146
4450 5218
4451 867
4451 2147
4451 5219
4452 868
4452 2148
4452 5220
4453 869
4453 2149
4453 5221
4454 870
4454 2150
4454 5222
4455 871
4455 2151
4455 5223
4456 872
4456 2152
4456 5224
4457 873
4457 2153
4457 5225
4458 874
4458 2154
4458 5226
4459 875
4459 2155
4459 5227
4460 876
4460 2156
4460 5228
4461 877
4461 2157
4461 5229
4462 878
4462 2158
4462 5230
4463 879
4463 2159
4463 5231
4464 880
4464 2160
4464 5232
4465 881
4465 2161
4465 5233
4466 882
4466 2162
4466 5234
4467 883
4467 2163
4467 5235
4468 884
4468 2164
4468 5236
4469 885
4469 2165
4469 5237
4470 886
4470 2166
4470 5238
4471 887
4471 2167
4471 5239
4472 888
4472 2168
4472 5240
4473 889
4473 2169
4473 5241
4474 890
4474 2170
4474 5242
4475 891
4475 2171
4475 5243
4476 892
4476 2172
4476 5244
4477 893
4477 2173
4477 5245
4478 894
4478 2174
4478 5246
4479 895
4479 2175
4479 5247
4480 896
4480 2176
4480 5248
4481 897
4481 2177
4481 5249
4482 898
4482 2178
4482 5250
4483 899
4483 2179
4483 5251
4484 900
4484 2180
4484 5252
4485 901
4485 2181
4485 5253
4486 902
4486 2182
4486 5254
4487 903
4487 2183
4487 5255
4488 904
4488 2184
4488 5256
4489 905
4489 2185
4489 5257
4490 906
4490 2186
4490 5258
4491 907
4491 2187
4491 5259
4492 908
4492 2188
4492 5260
4493 909
4493 2189
4493 5261
4494 910
4494 2190
4494 5262
4495 911
4495 2191
4495 5263
4496 912
4496 2192
4496 5264
4497 913
4497 2193
4497 5265
4498 914
4498 2194
4498 5266
4499 915
4499 2195
4499 5267
4500 916
4500 2196
4500 5268
4501 917
4501 2197
4501 5269
4502 918
4502 2198
4502 5270
4503 919
4503 2199
4503 5271
4504 920
4504 2200
4504 5272
4505 921
4505 2201
4505 5273
4506 922
4506 2202
4506 5274
4507 923
4507 2203
4507 5275
4508 924
4508 2204
4508 5276
4509 925
4509 2205
4509 5277
4510 926
4510 2206
4510 5278
4511 927
4511 2207
4511 5279
4512 928
4512 2208
4512 5280
4513 929
4513 2209
4513 5281
4514 930
4514 2210
4514 5282
4515 931
4515 2211
4515 5283
4516 932
4516 2212
4516 5284
4517 933
4517 2213
4517 5285
4518 934
4518 2214
4518 5286
4519 935
4519 2215
4519 5287
4520 936
4520 2216
4520 5288
4521 937
4521 2217
4521 5289
4522 938
4522 2218
4522 5290
4523 939
4523 2219
4523 5291
4524 940
4524 2220
4524 5292
4525 941
4525 2221
4525 5293
4526 942
4526 2222
4526 5294
4527 943
4527 2223
4527 5295
4528 944
4528 2224
4528 5296
4529 945
4529 2225
4529 5297
4530 946
4530 2226
4530 5298
4531 947
4531 2227
4531 5299
4532 948
4532 2228
4532 5300
4533 949
4533 2229
4533 5301
4534 950
4534 2230
4534 5302
4535 951
4535 2231
4535 5303
4536 952
4536 2232
4536 5304
4537 953
4537 2233
4537 5305
4538 954
4538 2234
4538 5306
4539 955
4539 2235
4539 5307
4540 956
4540 2236
4540 5308
4541 957
4541 2237
4541 5309
4542 958
4542 2238
4542 5310
4543 959
4543 2239
4543 5311
4544 960
4544 2240
4544 5312
4545 961
4545 2241
4545 5313
4546 962
4546 2242
4546 5314
4547 963
4547 2243
4547 5315
4548 964
4548 2244
4548 5316
4549 965
4549 2245
4549 5317
4550 966
4550 2246
4550 5318
4551 967
4551 2247
4551 5319
4552 968
4552 2248
4552 5320
4553 969
4553 2249
4553 5321
4554 970
4554 2250
4554 5322
4555 971
4555 2251
4555 5323
4556 972
4556 2252
4556 5324
4557 973
4557 2253
4557 5325
4558 974
4558 2254
4558 5326
4559 975
4559 2255
4559 5327
4560 976
4560 2256
4560 5328
4561 977
4561 2257
4561 5329
4562 978
4562 2258
4562 5330
4563 979
4563 2259
4563 5331
4564 980
4564 2260
4564 5332
4565 981
4565 2261
4565 5333
4566 982
4566 2262
4566 5334
4567 983
4567 2263
4567 5335
4568 984
4568 2264
4568 5336
4569 985
4569 2265
4569 5337
4570 986
4570 2266
4570 5338
4571 987
4571 2267
4571 5339
4572 988
4572 2268
4572 5340
4573 989
4573 2269
4573 5341
4574 990
4574 2270
4574 5342
4575 991
4575 2271
4575 5343
4576 992
4576 2272
4576 5344
4577 993
4577 2273
4577 5345
4578 994
4578 2274
4578 5346
4579 995
4579 2275
4579 5347
4580 996
4580 2276
4580 5348
4581 997
4581 2277
4581 5349
4582 998
4582 2278
4582 5350
4583 999
4583 2279
4583 5351
4584 1000
4584 2280
4584 5352
4585 1001
4585 2281
4585 5353
4586 1002
4586 2282
4586 5354
4587 1003
4587 2283
4587 5355
4588 1004
4588 2284
4588 5356
4589 1005
4589 2285
4589 5357
4590 1006
4590 2286
4590 5358
4591 1007
4591 2287
4591 5359
4592 1008
4592 2288
4592 5360
4593 1009
4593 2289
4593 5361
4594 1010
4594 2290
4594 5362
4595 1011
4595 2291
4595 5363
4596 1012
4596 2292
4596 5364
4597 1013
4597 2293
4597 5365
4598 1014
4598 2294
4598 5366
4599 1015
4599 2295
4599 5367
4600 1016
4600 2296
4600 5368
4601 1017
4601 2297
4601 5369
4602 1018
4602 2298
4602 5370
4603 1019
4603 2299
4603 5371
4604 1020
4604 2300
4604 5372
4605 1021
4605 2301
4605 5373
4606 1022
4606 2302
4606 5374
4607 1023
4607 2303
4607 5375
4608 1024
4608 2304
4608 3584
4609 1025
4609 2305
4609 3585
4610 1026
4610 2306
4610 3586
4611 1027
4611 2307
4611 3587
4612 1028
4612 2308
4612 3588
4613 1029
4613 2309
4613 3589
4614 1030
4614 2310
4614 3590
4615 1031
4615 2311
4615 3591
4616 1032
4616 2312
4616 3592
4617 1033
4617 2313
4617 3593
4618 1034
4618 2314
4618 3594
4619 1035
4619 2315
4619 3595
4620 1036
4620 2316
4620 3596
4621 1037
4621 2317
4621 3597
4622 1038
4622 2318
4622 3598
4623 1039
4623 2319
4623 3599
4624 1040
4624 2320
4624 3600
4625 1041
4625 2321
4625 3601
4626 1042
4626 2322
4626 3602
4627 1043
4627 2323
4627 3603
4628 1044
4628 2324
4628 3604
4629 1045
4629 2325
4629 3605
4630 1046
4630 2326
4630 3606
4631 1047
4631 2327
4631 3607
4632 1048
4632 2328
4632 3608
4633 1049
4633 2329
4633 3609
4634 1050
4634 2330
4634 3610
4635 1051
4635 2331
4635 3611
4636 1052
4636 2332
4636 3612
4637 1053
4637 2333
4637 3613
4638 1054
4638 2334
4638 3614
4639 1055
4639 2335
4639 3615
4640 1056
4640 2336
4640 3616
4641 1057
4641 2337
4641 3617
4642 1058
4642 2338
4642 3618
4643 1059
4643 2339
4643 3619
4644 1060
4644 2340
4644 3620
4645 1061
4645 2341
4645 3621
4646 1062
4646 2342
4646 3622
4647 1063
4647 2343
4647 3623
4648 1064
4648 2344
4648 3624
4649 1065
4649 2345
4649 3625
4650 1066
4650 2346
4650 3626
4651 1067
4651 2347
4651 3627
4652 1068
4652 2348
4652 3628
4653 1069
4653 2349
4653 3629
4654 1070
4654 2350
4654 3630
4655 1071
4655 2351
4655 3631
4656 1072
4656 2352
4656 3632
4657 1073
4657 2353
4657 3633
4658 1074
4658 2354
4658 3634
4659 1075
4659 2355
4659 3635
4660 1076
4660 2356
4660 3636
4661 1077
4661 2357
4661 3637
4662 1078
4662 2358
4662 3638
4663 1079
4663 2359
4663 3639
4664 1080
4664 2360
4664 3640
4665 1081
4665 2361
4665 3641
4666 1082
4666 2362
4666 3642
4667 1083
4667 2363
4667 3643
4668 1084
4668 2364
4668 3644
4669 1085
4669 2365
4669 3645
4670 1086
4670 2366
4670 3646
4671 1087
4671 2367
4671 3647
4672 1088
4672 2368
4672 3648
4673 1089
4673 2369
4673 3649
4674 1090
4674 2370
4674 3650
4675 1091
4675 2371
4675 3651
4676 1092
4676 2372
4676 3652
4677 1093
4677 2373
4677 3653
4678 1094
4678 2374
4678 3654
4679 1095
4679 2375
4679 3655
4680 1096
4680 2376
4680 3656
4681 1097
4681 2377
4681 3657
4682 1098
4682 2378
4682 3658
4683 1099
4683 2379
4683 3659
4684 1100
4684 2380
4684 3660
4685 1101
4685 2381
4685 3661
4686 1102
4686 2382
4686 3662
4687 1103
4687 2383
4687 3663
4688 1104
4688 2384
4688 3664
4689 1105
4689 2385
4689 3665
4690 1106
4690 2386
4690 3666
4691 1107
4691 2387
4691 3667
4692 1108
4692 2388
4692 3668
4693 1109
4693 2389
4693 3669
4694 1110
4694 2390
4694 3670
4695 1111
4695 2391
4695 3671
4696 1112
4696 2392
4696 3672
4697 1113
4697 2393
4697 3673
4698 1114
4698 2394
4698 3674
4699 1115
4699 2395
4699 3675
4700 1116
4700 2396
4700 3676
4701 1117
4701 2397
4701 3677
4702 1118
4702 2398
4702 3678
4703 1119
4703 2399
4703 3679
4704 1120
4704 2400
4704 3680
4705 1121
4705 2401
4705 3681
4706 1122
4706 2402
4706 3682
4707 1123
4707 2403
4707 3683
4708 1124
4708 2404
4708 3684
4709 1125
4709 2405
4709 3685
4710 1126
4710 2406
4710 3686
4711 1127
4711 2407
4711 3687
4712 1128
4712 2408
4712 3688
4713 1129
4713 2409
4713 3689
4714 1130
4714 2410
4714 3690
4715 1131
4715 2411
4715 3691
4716 1132
4716 2412
4716 3692
4717 1133
4717 2413
4717 3693
4718 1134
4718 2414
4718 3694
4719 1135
4719 2415
4719 3695
4720 1136
4720 2416
4720 3696
4721 1137
4721 2417
4721 3697
4722 1138
4722 2418
4722 3698
4723 1139
4723 2419
4723 3699
4724 1140
4724 2420
4724 3700
4725 1141
4725 2421
4725 3701
4726 1142
4726 2422
4726 3702
4727 1143
4727 2423
4727 3703
4728 1144
4728 2424
4728 3704
4729 1145
4729 2425
4729 3705
4730 1146
4730 2426
4730 3706
4731 1147
4731 2427
4731 3707
4732 1148
4732 2428
4732 3708
4733 1149
4733 2429
4733 3709
4734 1150
4734 2430
4734 3710
4735 1151
4735 2431
4735 3711
4736 1152
4736 2432
4736 3712
4737 1153
4737 2433
4737 3713
4738 1154
4738 2434
4738 3714
4739 1155
4739 2435
4739 3715
4740 1156
4740 2436
4740 3716
4741 1157
4741 2437
4741 3717
4742 1158
4742 2438
4742 3718
4743 1159
4743 2439
4743 3719
4744 1160
4744 2440
4744 3720
4745 1161
4745 2441
4745 3721
4746 1162
4746 2442
4746 3722
4747 1163
4747 2443
4747 3723
4748 1164
4748 2444
4748 3724
4749 1165
4749 2445
4749 3725
4750 1166
4750 2446
4750 3726
4751 1167
4751 2447
4751 3727
4752 1168
4752 2448
4752 3728
4753 1169
4753 2449
4753 3729
4754 1170
4754 2450
4754 3730
4755 1171
4755 2451
4755 3731
4756 1172
4756 2452
4756 3732
4757 1173
4757 2453
4757 3733
4758 1174
4758 2454
4758 3734
4759 1175
4759 2455
4759 3735
4760 1176
4760 2456
4760 3736
4761 1177
4761 2457
4761 3737
4762 1178
4762 2458
4762 3738
4763 1179
4763 2459
4763 3739
4764 1180
4764 2460
4764 3740
4765 1181
4765 2461
4765 3741
4766 1182
4766 2462
4766 3742
4767 1183
4767 2463
4767 3743
4768 1184
4768 2464
4768 3744
4769 1185
4769 2465
4769 3745
4770 1186
4770 2466
4770 3746
4771 1187
4771 2467
4771 3747
4772 1188
4772 2468
4772 3748
4773 1189
4773 2469
4773 3749
4774 1190
4774 2470
4774 3750
4775 1191
4775 2471
4775 3751
4776 1192
4776 2472
4776 3752
4777 1193
4777 2473
4777 3753
4778 1194
4778 2474
4778 3754
4779 1195
4779 2475
4779 3755
4780 1196
4780 2476
4780 3756
4781 1197
4781 2477
4781 3757
4782 1198
4782 2478
4782 3758
4783 1199
4783 2479
4783 3759
4784 1200
4784 2480
4784 3760
4785 1201
4785 2481
4785 3761
4786 1202
4786 2482
4786 3762
4787 1203
4787 2483
4787 3763
4788 1204
4788 2484
4788 3764
4789 1205
4789 2485
4789 3765
4790 1206
4790 2486
4790 3766
4791 1207
4791 2487
4791 3767
4792 1208
4792 2488
4792 3768
4793 1209
4793 2489
4793 3769
4794 1210
4794 2490
4794 3770
4795 1211
4795 2491
4795 3771
4796 1212
4796 2492
4796 3772
4797 1213
4797 2493
4797 3773
4798 1214
4798 2494
4798 3774
4799 1215
4799 2495
4799 3775
4800 1216
4800 2496
4800 3776
4801 1217
4801 2497
4801 3777
4802 1218
4802 2498
4802 3778
4803 1219
4803 2499
4803 3779
4804 1220
4804 2500
4804 3780
4805 1221
4805 2501
4805 3781
4806 1222
4806 2502
4806 3782
4807 1223
4807 2503
4807 3783
4808 1224
4808 2504
4808 3784
4809 1225
4809 2505
4809 3785
4810 1226
4810 2506
4810 3786
4811 1227
4811 2507
4811 3787
4812 1228
4812 2508
4812 3788
4813 1229
4813 2509
4813 3789
4814 1230
4814 2510
4814 3790
4815 1231
4815 2511
4815 3791
4816 1232
4816 2512
4816 3792
4817 1233
4817 2513
4817 3793
4818 1234
4818 2514
4818 3794
4819 1235
4819 2515
4819 3795
4820 1236
4820 2516
4820 3796
4821 1237
4821 2517
4821 3797
4822 1238
4822 2518
4822 3798
4823 1239
4823 2519
4823 3799
4824 1240
4824 2520
4824 3800
4825 1241
4825 2521
4825 3801
4826 1242
4826 2522
4826 3802
4827 1243
4827 2523
4827 3803
4828 1244
4828 2524
4828 3804
4829 1245
4829 2525
4829 3805
4830 1246
4830 2526
4830 3806
4831 1247
4831 2527
4831 3807
4832 1248
4832 2528
4832 3808
4833 1249
4833 2529
4833 3809
4834 1250
4834 2530
4834 3810
4835 1251
4835 2531
4835 3811
4836 1252
4836 2532
4836 3812
4837 1253
4837 2533
4837 3813
4838 1254
4838 2534
4838 3814
4839 1255
4839 2535
4839 3815
4840 1256
4840 2536
4840 3816
4841 1257
4841 2537
4841 3817
4842 1258
4842 2538
4842 3818
4843 1259
4843 2539
4843 3819
4844 1260
4844 2540
4844 3820
4845 1261
4845 2541
4845 3821
4846 1262
4846 2542
4846 3822
4847 1263
4847 2543
4847 3823
4848 1264
4848 2544
4848 3824
4849 1265
4849 2545
4849 3825
4850 1266
4850 2546
4850 3826
4851 1267
4851 2547
4851 3827
4852 1268
4852 2548
4852 3828
4853 1269
4853 2549
4853 3829
4854 1270
4854 2550
4854 3830
4855 1271
4855 2551
4855 3831
4856 1272
4856 2552
4856 3832
4857 1273
4857 2553
4857 3833
4858 1274
4858 2554
4858 3834
4859 1275
4859 2555
4859 3835
4860 1276
4860 2556
4860 3836
4861 1277
4861 2557
4861 3837
4862 1278
4862 2558
4862 3838
4863 1279
4863 2559
4863 3839
4864 1280
4864 2560
4864 3840
4865 1281
4865 2561
4865 3841
4866 1282
4866 2562
4866 3842
4867 1283
4867 2563
4867 3843
4868 1284
4868 2564
4868 3844
4869 1285
4869 2565
4869 3845
4870 1286
4870 2566
4870 3846
4871 1287
4871 2567
4871 3847
4872 1288
4872 2568
4872 3848
4873 1289
4873 2569
4873 3849
4874 1290
4874 2570
4874 3850
4875 1291
4875 2571
4875 3851
4876 1292
4876 2572
4876 3852
4877 1293
4877 2573
4877 3853
4878 1294
4878 2574
4878 3854
4879 1295
4879 2575
4879 3855
4880 1296
4880 2576
4880 3856
4881 1297
4881 2577
4881 3857
4882 1298
4882 2578
4882 3858
4883 1299
4883 2579
4883 3859
4884 1300
4884 2580
4884 3860
4885 1301
4885 2581
4885 3861
4886 1302
4886 2582
4886 3862
4887 1303
4887 2583
4887 3863
4888 1304
4888 2584
4888 3864
4889 1305
4889 2585
4889 3865
4890 1306
4890 2586
4890 3866
4891 1307
4891 2587
4891 3867
4892 1308
4892 2588
4892 3868
4893 1309
4893 2589
4893 3869
4894 1310
4894 2590
4894 3870
4895 1311
4895 2591
4895 3871
4896 1312
4896 2592
4896 3872
4897 1313
4897 2593
4897 3873
4898 1314
4898 2594
4898 3874
4899 1315
4899 2595
4899 3875
4900 1316
4900 2596
4900 3876
4901 1317
4901 2597
4901 3877
4902 1318
4902 2598
4902 3878
4903 1319
4903 2599
4903 3879
4904 1320
4904 2600
4904 3880
4905 1321
4905 2601
4905 3881
4906 1322
4906 2602
4906 3882
4907 1323
4907 2603
4907 3883
4908 1324
4908 2604
4908 3884
4909 1325
4909 2605
4909 3885
4910 1326
4910 2606
4910 3886
4911 1327
4911 2607
4911 3887
4912 1328
4912 2608
4912 3888
4913 1329
4913 2609
4913 3889
4914 1330
4914 2610
4914 3890
4915 1331
4915 2611
4915 3891
4916 1332
4916 2612
4916 3892
4917 1333
4917 2613
4917 3893
4918 1334
4918 2614
4918 3894
4919 1335
4919 2615
4919 3895
4920 1336
4920 2616
4920 3896
4921 1337
4921 2617
4921 3897
4922 1338
4922 2618
4922 3898
4923 1339
4923 2619
4923 3899
4924 1340
4924 2620
4924 3900
4925 1341
4925 2621
4925 3901
4926 1342
4926 2622
4926 3902
4927 1343
4927 2623
4927 3903
4928 1344
4928 2624
4928 3904
4929 1345
4929 2625
4929 3905
4930 1346
4930 2626
4930 3906
4931 1347
4931 2627
4931 3907
4932 1348
4932 2628
4932 3908
4933 1349
4933 2629
4933 3909
4934 1350
4934 2630
4934 3910
4935 1351
4935 2631
4935 3911
4936 1352
4936 2632
4936 3912
4937 1353
4937 2633
4937 3913
4938 1354
4938 2634
4938 3914
4939 1355
4939 2635
4939 3915
4940 1356
4940 2636
4940 3916
4941 1357
4941 2637
4941 3917
4942 1358
4942 2638
4942 3918
4943 1359
4943 2639
4943 3919
4944 1360
4944 2640
4944 3920
4945 1361
4945 2641
4945 3921
4946 1362
4946 2642
4946 3922
4947 1363
4947 2643
4947 3923
4948 1364
4948 2644
4948 3924
4949 1365
4949 2645
4949 3925
4950 1366
4950 2646
4950 3926
4951 1367
4951 2647
4951 3927
4952 1368
4952 2648
4952 3928
4953 1369
4953 2649
4953 3929
4954 1370
4954 2650
4954 3930
4955 1371
4955 2651
4955 3931
4956 1372
4956 2652
4956 3932
4957 1373
4957 2653
4957 3933
4958 1374
4958 2654
4958 3934
4959 1375
4959 2655
4959 3935
4960 1376
4960 2656
4960 3936
4961 1377
4961 2657
4961 3937
4962 1378
4962 2658
4962 3938
4963 1379
4963 2659
4963 3939
4964 1380
4964 2660
4964 3940
4965 1381
4965 2661
4965 3941
4966 1382
4966 2662
4966 3942
4967 1383
4967 2663
4967 3943
4968 1384
4968 2664
4968 3944
4969 1385
4969 2665
4969 3945
4970 1386
4970 2666
4970 3946
4971 1387
4971 2667
4971 3947
4972 1388
4972 2668
4972 3948
4973 1389
4973 2669
4973 3949
4974 1390
4974 2670
4974 3950
4975 1391
4975 2671
4975 3951
4976 1392
4976 2672
4976 3952
4977 1393
4977 2673
4977 3953
4978 1394
4978 2674
4978 3954
4979 1395
4979 2675
4979 3955
4980 1396
4980 2676
4980 3956
4981 1397
4981 2677
4981 3957
4982 1398
4982 2678
4982 3958
4983 1399
4983 2679
4983 3959
4984 1400
4984 2680
4984 3960
4985 1401
4985 2681
4985 3961
4986 1402
4986 2682
4986 3962
4987 1403
4987 2683
4987 3963
4988 1404
4988 2684
4988 3964
4989 1405
4989 2685
4989 3965
4990 1406
4990 2686
4990 3966
4991 1407
4991 2687
4991 3967
4992 1408
4992 2688
4992 3968
4993 1409
4993 2689
4993 3969
4994 1410
4994 2690
4994 3970
4995 1411
4995 2691
4995 3971
4996 1412
4996 2692
4996 3972
4997 1413
4997 2693
4997 3973
4998 1414
4998 2694
4998 3974
4999 1415
4999 2695
4999 3975
5000 1416
5000 2696
5000 3976
5001 1417
5001 2697
5001 3977
5002 1418
5002 2698
5002 3978
5003 1419
5003 2699
5003 3979
5004 1420
5004 2700
5004 3980
5005 1421
5005 2701
5005 3981
5006 1422
5006 2702
5006 3982
5007 1423
5007 2703
5007 3983
5008 1424
5008 2704
5008 3984
5009 1425
5009 2705
5009 3985
5010 1426
5010 2706
5010 3986
5011 1427
5011 2707
5011 3987
5012 1428
5012 2708
5012 3988
5013 1429
5013 2709
5013 3989
5014 1430
5014 2710
5014 3990
5015 1431
5015 2711
5015 3991
5016 1432
5016 2712
5016 3992
5017 1433
5017 2713
5017 3993
5018 1434
5018 2714
5018 3994
5019 1435
5019 2715
5019 3995
5020 1436
5020 2716
5020 3996
5021 1437
5021 2717
5021 3997
5022 1438
5022 2718
5022 3998
5023 1439
5023 2719
5023 3999
5024 1440
5024 2720
5024 4000
5025 1441
5025 2721
5025 4001
5026 1442
5026 2722
5026 4002
5027 1443
5027 2723
5027 4003
5028 1444
5028 2724
5028 4004
5029 1445
5029 2725
5029 4005
5030 1446
5030 2726
5030 4006
5031 1447
5031 2727
5031 4007
5032 1448
5032 2728
5032 4008
5033 1449
5033 2729
5033 4009
5034 1450
5034 2730
5034 4010
5035 1451
5035 2731
5035 4011
5036 1452
5036 2732
5036 4012
5037 1453
5037 2733
5037 4013
5038 1454
5038 2734
5038 4014
5039 1455
5039 2735
5039 4015
5040 1456
5040 2736
5040 4016
5041 1457
5041 2737
5041 4017
5042 1458
5042 2738
5042 4018
5043 1459
5043 2739
5043 4019
5044 1460
5044 2740
5044 4020
5045 1461
5045 2741
5045 4021
5046 1462
5046 2742
5046 4022
5047 1463
5047 2743
5047 4023
5048 1464
5048 2744
5048 4024
5049 1465
5049 2745
5049 4025
5050 1466
5050 2746
5050 4026
5051 1467
5051 2747
5051 4027
5052 1468
5052 2748
5052 4028
5053 1469
5053 2749
5053 4029
5054 1470
5054 2750
5054 4030
5055 1471
5055 2751
5055 4031
5056 1472
5056 2752
5056 4032
5057 1473
5057 2753
5057 4033
5058 1474
5058 2754
5058 4034
5059 1475
5059 2755
5059 4035
5060 1476
5060 2756
5060 4036
5061 1477
5061 2757
5061 4037
5062 1478
5062 2758
5062 4038
5063 1479
5063 2759
5063 4039
5064 1480
5064 2760
5064 4040
5065 1481
5065 2761
5065 4041
5066 1482
5066 2762
5066 4042
5067 1483
5067 2763
5067 4043
5068 1484
5068 2764
5068 4044
5069 1485
5069 2765
5069 4045
5070 1486
5070 2766
5070 4046
5071 1487
5071 2767
5071 4047
5072 1488
5072 2768
5072 4048
5073 1489
5073 2769
5073 4049
5074 1490
5074 2770
5074 4050
5075 1491
5075 2771
5075 4051
5076 1492
5076 2772
5076 4052
5077 1493
5077 2773
5077 4053
5078 1494
5078 2774
5078 4054
5079 1495
5079 2775
5079 4055
5080 1496
5080 2776
5080 4056
5081 1497
5081 2777
5081 4057
5082 1498
5082 2778
5082 4058
5083 1499
5083 2779
5083 4059
5084 1500
5084 2780
5084 4060
5085 1501
5085 2781
5085 4061
5086 1502
5086 2782
5086 4062
5087 1503
5087 2783
5087 4063
5088 1504
5088 2784
5088 4064
5089 1505
5089 2785
5089 4065
5090 1506
5090 2786
5090 4066
5091 1507
5091 2787
5091 4067
5092 1508
5092 2788
5092 4068
5093 1509
5093 2789
5093 4069
5094 1510
5094 2790
5094 4070
5095 1511
5095 2791
5095 4071
5096 1512
5096 2792
5096 4072
5097 1513
5097 2793
5097 4073
5098 1514
5098 2794
5098 4074
5099 1515
5099 2795
5099 4075
5100 1516
5100 2796
5100 4076
5101 1517
5101 2797
5101 4077
5102 1518
5102 2798
5102 4078
5103 1519
5103 2799
5103 4079
5104 1520
5104 2800
5104 4080
5105 1521
5105 2801
5105 4081
5106 1522
5106 2802
5106 4082
5107 1523
5107 2803
5107 4083
5108 1524
5108 2804
5108 4084
5109 1525
5109 2805
5109 4085
5110 1526
5110 2806
5110 4086
5111 1527
5111 2807
5111 4087
5112 1528
5112 2808
5112 4088
5113 1529
5113 2809
5113 4089
5114 1530
5114 2810
5114 4090
5115 1531
5115 2811
5115 4091
5116 1532
5116 2812
5116 4092
5117 1533
5117 2813
5117 4093
5118 1534
5118 2814
5118 4094
5119 1535
5119 2815
5119 4095
5120 1536
5120 2816
5120 4096
5121 1537
5121 2817
5121 4097
5122 1538
5122 2818
5122 4098
5123 1539
5123 2819
5123 4099
5124 1540
5124 2820
5124 4100
5125 1541
5125 2821
5125 4101
5126 1542
5126 2822
5126 4102
5127 1543
5127 2823
5127 4103
5128 1544
5128 2824
5128 4104
5129 1545
5129 2825
5129 4105
5130 1546
5130 2826
5130 4106
5131 1547
5131 2827
5131 4107
5132 1548
5132 2828
5132 4108
5133 1549
5133 2829
5133 4109
5134 1550
5134 2830
5134 4110
5135 1551
5135 2831
5135 4111
5136 1552
5136 2832
5136 4112
5137 1553
5137 2833
5137 4113
5138 1554
5138 2834
5138 4114
5139 1555
5139 2835
5139 4115
5140 1556
5140 2836
5140 4116
5141 1557
5141 2837
5141 4117
5142 1558
5142 2838
5142 4118
5143 1559
5143 2839
5143 4119
5144 1560
5144 2840
5144 4120
5145 1561
5145 2841
5145 4121
5146 1562
5146 2842
5146 4122
5147 1563
5147 2843
5147 4123
5148 1564
5148 2844
5148 4124
5149 1565
5149 2845
5149 4125
5150 1566
5150 2846
5150 4126
5151 1567
5151 2847
5151 4127
5152 1568
5152 2848
5152 4128
5153 1569
5153 2849
5153 4129
5154 1570
5154 2850
5154 4130
5155 1571
5155 2851
5155 4131
5156 1572
5156 2852
5156 4132
5157 1573
5157 2853
5157 4133
5158 1574
5158 2854
5158 4134
5159 1575
5159 2855
5159 4135
5160 1576
5160 2856
5160 4136
5161 1577
5161 2857
5161 4137
5162 1578
5162 2858
5162 4138
5163 1579
5163 2859
5163 4139
5164 1580
5164 2860
5164 4140
5165 1581
5165 2861
5165 4141
5166 1582
5166 2862
5166 4142
5167 1583
5167 2863
5167 4143
5168 1584
5168 2864
5168 4144
5169 1585
5169 2865
5169 4145
5170 1586
5170 2866
5170 4146
5171 1587
5171 2867
5171 4147
5172 1588
5172 2868
5172 4148
5173 1589
5173 2869
5173 4149
5174 1590
5174 2870
5174 4150
5175 1591
5175 2871
5175 4151
5176 1592
5176 2872
5176 4152
5177 1593
5177 2873
5177 4153
5178 1594
5178 2874
5178 4154
5179 1595
5179 2875
5179 4155
5180 1596
5180 2876
5180 4156
5181 1597
5181 2877
5181 4157
5182 1598
5182 2878
5182 4158
5183 1599
5183 2879
5183 4159
5184 1600
5184 2880
5184 4160
5185 1601
5185 2881
5185 4161
5186 1602
5186 2882
5186 4162
5187 1603
5187 2883
5187 4163
5188 1604
5188 2884
5188 4164
5189 1605
5189 2885
5189 4165
5190 1606
5190 2886
5190 4166
5191 1607
5191 2887
5191 4167
5192 1608
5192 2888
5192 4168
5193 1609
5193 2889
5193 4169
5194 1610
5194 2890
5194 4170
5195 1611
5195 2891
5195 4171
5196 1612
5196 2892
5196 4172
5197 1613
5197 2893
5197 4173
5198 1614
5198 2894
5198 4174
5199 1615
5199 2895
5199 4175
5200 1616
5200 2896
5200 4176
5201 1617
5201 2897
5201 4177
5202 1618
5202 2898
5202 4178
5203 1619
5203 2899
5203 4179
5204 1620
5204 2900
5204 4180
5205 1621
5205 2901
5205 4181
5206 1622
5206 2902
5206 4182
5207 1623
5207 2903
5207 4183
5208 1624
5208 2904
5208 4184
5209 1625
5209 2905
5209 4185
5210 1626
5210 2906
5210 4186
5211 1627
5211 2907
5211 4187
5212 1628
5212 2908
5212 4188
5213 1629
5213 2909
5213 4189
5214 1630
5214 2910
5214 4190
5215 1631
5215 2911
5215 4191
5216 1632
5216 2912
5216 4192
5217 1633
5217 2913
5217 4193
5218 1634
5218 2914
5218 4194
5219 1635
5219 2915
5219 4195
5220 1636
5220 2916
5220 4196
5221 1637
5221 2917
5221 4197
5222 1638
5222 2918
5222 4198
5223 1639
5223 2919
5223 4199
5224 1640
5224 2920
5224 4200
5225 1641
5225 2921
5225 4201
5226 1642
5226 2922
5226 4202
5227 1643
5227 2923
5227 4203
5228 1644
5228 2924
5228 4204
5229 1645
5229 2925
5229 4205
5230 1646
5230 2926
5230 4206
5231 1647
5231 2927
5231 4207
5232 1648
5232 2928
5232 4208
5233 1649
5233 2929
5233 4209
5234 1650
5234 2930
5234 4210
5235 1651
5235 2931
5235 4211
5236 1652
5236 2932
5236 4212
5237 1653
5237 2933
5237 4213
5238 1654
5238 2934
5238 4214
5239 1655
5239 2935
5239 4215
5240 1656
5240 2936
5240 4216
5241 1657
5241 2937
5241 4217
5242 1658
5242 2938
5242 4218
5243 1659
5243 2939
5243 4219
5244 1660
5244 2940
5244 4220
5245 1661
5245 2941
5245 4221
5246 1662
5246 2942
5246 4222
5247 1663
5247 2943
5247 4223
5248 1664
5248 2944
5248 4224
5249 1665
5249 2945
5249 4225
5250 1666
5250 2946
5250 4226
5251 1667
5251 2947
5251 4227
5252 1668
5252 2948
5252 4228
5253 1669
5253 2949
5253 4229
5254 1670
5254 2950
5254 4230
5255 1671
5255 2951
5255 4231
5256 1672
5256 2952
5256 4232
5257 1673
5257 2953
5257 4233
5258 1674
5258 2954
5258 4234
5259 1675
5259 2955
5259 4235
5260 1676
5260 2956
5260 4236
5261 1677
5261 2957
5261 4237
5262 1678
5262 2958
5262 4238
5263 1679
5263 2959
5263 4239
5264 1680
5264 2960
5264 4240
5265 1681
5265 2961
5265 4241
5266 1682
5266 2962
5266 4242
5267 1683
5267 2963
5267 4243
5268 1684
5268 2964
5268 4244
5269 1685
5269 2965
5269 4245
5270 1686
5270 2966
5270 4246
5271 1687
5271 2967
5271 4247
5272 1688
5272 2968
5272 4248
5273 1689
5273 2969
5273 4249
5274 1690
5274 2970
5274 4250
5275 1691
5275 2971
5275 4251
5276 1692
5276 2972
5276 4252
5277 1693
5277 2973
5277 4253
5278 1694
5278 2974
5278 4254
5279 1695
5279 2975
5279 4255
5280 1696
5280 2976
5280 4256
5281 1697
5281 2977
5281 4257
5282 1698
5282 2978
5282 4258
5283 1699
5283 2979
5283 4259
5284 1700
5284 2980
5284 4260
5285 1701
5285 2981
5285 4261
5286 1702
5286 2982
5286 4262
5287 1703
5287 2983
5287 4263
5288 1704
5288 2984
5288 4264
5289 1705
5289 2985
5289 4265
5290 1706
5290 2986
5290 4266
5291 1707
5291 2987
5291 4267
5292 1708
5292 2988
5292 4268
5293 1709
5293 2989
5293 4269
5294 1710
5294 2990
5294 4270
5295 1711
5295 2991
5295 4271
5296 1712
5296 2992
5296 4272
5297 1713
5297 2993
5297 4273
5298 1714
5298 2994
5298 4274
5299 1715
5299 2995
5299 4275
5300 1716
5300 2996
5300 4276
5301 1717
5301 2997
5301 4277
5302 1718
5302 2998
5302 4278
5303 1719
5303 2999
5303 4279
5304 1720
5304 3000
5304 4280
5305 1721
5305 3001
5305 4281
5306 1722
5306 3002
5306 4282
5307 1723
5307 3003
5307 4283
5308 1724
5308 3004
5308 4284
5309 1725
5309 3005
5309 4285
5310 1726
5310 3006
5310 4286
5311 1727
5311 3007
5311 4287
5312 1728
5312 3008
5312 4288
5313 1729
5313 3009
5313 4289
5314 1730
5314 3010
5314 4290
5315 1731
5315 3011
5315 4291
5316 1732
5316 3012
5316 4292
5317 1733
5317 3013
5317 4293
5318 1734
5318 3014
5318 4294
5319 1735
5319 3015
5319 4295
5320 1736
5320 3016
5320 4296
5321 1737
5321 3017
5321 4297
5322 1738
5322 3018
5322 4298
5323 1739
5323 3019
5323 4299
5324 1740
5324 3020
5324 4300
5325 1741
5325 3021
5325 4301
5326 1742
5326 3022
5326 4302
5327 1743
5327 3023
5327 4303
5328 1744
5328 3024
5328 4304
5329 1745
5329 3025
5329 4305
5330 1746
5330 3026
5330 4306
5331 1747
5331 3027
5331 4307
5332 1748
5332 3028
5332 4308
5333 1749
5333 3029
5333 4309
5334 1750
5334 3030
5334 4310
5335 1751
5335 3031
5335 4311
5336 1752
5336 3032
5336 4312
5337 1753
5337 3033
5337 4313
5338 1754
5338 3034
5338 4314
5339 1755
5339 3035
5339 4315
5340 1756
5340 3036
5340 4316
5341 1757
5341 3037
5341 4317
5342 1758
5342 3038
5342 4318
5343 1759
5343 3039
5343 4319
5344 1760
5344 3040
5344 4320
5345 1761
5345 3041
5345 4321
5346 1762
5346 3042
5346 4322
5347 1763
5347 3043
5347 4323
5348 1764
5348 3044
5348 4324
5349 1765
5349 3045
5349 4325
5350 1766
5350 3046
5350 4326
5351 1767
5351 3047
5351 4327
5352 1768
5352 3048
5352 4328
5353 1769
5353 3049
5353 4329
5354 1770
5354 3050
5354 4330
5355 1771
5355 3051
5355 4331
5356 1772
5356 3052
5356 4332
5357 1773
5357 3053
5357 4333
5358 1774
5358 3054
5358 4334
5359 1775
5359 3055
5359 4335
5360 1776
5360 3056
5360 4336
5361 1777
5361 3057
5361 4337
5362 1778
5362 3058
5362 4338
5363 1779
5363 3059
5363 4339
5364 1780
5364 3060
5364 4340
5365 1781
5365 3061
5365 4341
5366 1782
5366 3062
5366 4342
5367 1783
5367 3063
5367 4343
5368 1784
5368 3064
5368 4344
5369 1785
5369 3065
5369 4345
5370 1786
5370 3066
5370 4346
5371 1787
5371 3067
5371 4347
5372 1788
5372 3068
5372 4348
5373 1789
5373 3069
5373 4349
5374 1790
5374 3070
5374 4350
5375 1791
5375 3071
5375 4351
5376 0
5376 2816
5376 3840
5377 1
5377 2817
5377 3841
5378 2
5378 2818
5378 3842
5379 3
5379 2819
5379 3843
5380 4
5380 2820
5380 3844
5381 5
5381 2821
5381 3845
5382 6
5382 2822
5382 3846
5383 7
5383 2823
5383 3847
5384 8
5384 2824
5384 3848
5385 9
5385 2825
5385 3849
5386 10
5386 2826
5386 3850
5387 11
5387 2827
5387 3851
5388 12
5388 2828
5388 3852
5389 13
5389 2829
5389 3853
5390 14
5390 2830
5390 3854
5391 15
5391 2831
5391 3855
5392 16
5392 2832
5392 3856
5393 17
5393 2833
5393 3857
5394 18
5394 2834
5394 3858
5395 19
5395 2835
5395 3859
5396 20
5396 2836
5396 3860
5397 21
5397 2837
5397 3861
5398 22
5398 2838
5398 3862
5399 23
5399 2839
5399 3863
5400 24
5400 2840
5400 3864
5401 25
5401 2841
5401 3865
5402 26
5402 2842
5402 3866
5403 27
5403 2843
5403 3867
5404 28
5404 2844
5404 3868
5405 29
5405 2845
5405 3869
5406 30
5406 2846
5406 3870
5407 31
5407 2847
5407 3871
5408 32
5408 2848
5408 3872
5409 33
5409 2849
5409 3873
5410 34
5410 2850
5410 3874
5411 35
5411 2851
5411 3875
5412 36
5412 2852
5412 3876
5413 37
5413 2853
5413 3877
5414 38
5414 2854
5414 3878
5415 39
5415 2855
5415 3879
5416 40
5416 2856
5416 3880
5417 41
5417 2857
5417 3881
5418 42
5418 2858
5418 3882
5419 43
5419 2859
5419 3883
5420 44
5420 2860
5420 3884
5421 45
5421 2861
5421 3885
5422 46
5422 2862
5422 3886
5423 47
5423 2863
5423 3887
5424 48
5424 2864
5424 3888
5425 49
5425 2865
5425 3889
5426 50
5426 2866
5426 3890
5427 51
5427 2867
5427 3891
5428 52
5428 2868
5428 3892
5429 53
5429 2869
5429 3893
5430 54
5430 2870
5430 3894
5431 55
5431 2871
5431 3895
5432 56
5432 2872
5432 3896
5433 57
5433 2873
5433 3897
5434 58
5434 2874
5434 3898
5435 59
5435 2875
5435 3899
5436 60
5436 2876
5436 3900
5437 61
5437 2877
5437 3901
5438 62
5438 2878
5438 3902
5439 63
5439 2879
5439 3903
5440 64
5440 2880
5440 3904
5441 65
5441 2881
5441 3905
5442 66
5442 2882
5442 3906
5443 67
5443 2883
5443 3907
5444 68
5444 2884
5444 3908
5445 69
5445 2885
5445 3909
5446 70
5446 2886
5446 3910
5447 71
5447 2887
5447 3911
5448 72
5448 2888
5448 3912
5449 73
5449 2889
5449 3913
5450 74
5450 2890
5450 3914
5451 75
5451 2891
5451 3915
5452 76
5452 2892
5452 3916
5453 77
5453 2893
5453 3917
5454 78
5454 2894
5454 3918
5455 79
5455 2895
5455 3919
5456 80
5456 2896
5456 3920
5457 81
5457 2897
5457 3921
5458 82
5458 2898
5458 3922
5459 83
5459 2899
5459 3923
5460 84
5460 2900
5460 3924
5461 85
5461 2901
5461 3925
5462 86
5462 2902
5462 3926
5463 87
5463 2903
5463 3927
5464 88
5464 2904
5464 3928
5465 89
5465 2905
5465 3929
5466 90
5466 2906
5466 3930
5467 91
5467 2907
5467 3931
5468 92
5468 2908
5468 3932
5469 93
5469 2909
5469 3933
5470 94
5470 2910
5470 3934
5471 95
5471 2911
5471 3935
5472 96
5472 2912
5472 3936
5473 97
5473 2913
5473 3937
5474 98
5474 2914
5474 3938
5475 99
5475 2915
5475 3939
5476 100
5476 2916
5476 3940
5477 101
5477 2917
5477 3941
5478 102
5478 2918
5478 3942
5479 103
5479 2919
5479 3943
5480 104
5480 2920
5480 3944
5481 105
5481 2921
5481 3945
5482 106
5482 2922
5482 3946
5483 107
5483 2923
5483 3947
5484 108
5484 2924
5484 3948
5485 109
5485 2925
5485 3949
5486 110
5486 2926
5486 3950
5487 111
5487 2927
5487 3951
5488 112
5488 2928
5488 3952
5489 113
5489 2929
5489 3953
5490 114
5490 2930
5490 3954
5491 115
5491 2931
5491 3955
5492 116
5492 2932
5492 3956
5493 117
5493 2933
5493 3957
5494 118
5494 2934
5494 3958
5495 119
5495 2935
5495 3959
5496 120
5496 2936
5496 3960
5497 121
5497 2937
5497 3961
5498 122
5498 2938
5498 3962
5499 123
5499 2939
5499 3963
5500 124
5500 2940
5500 3964
5501 125
5501 2941
5501 3965
5502 126
5502 2942
5502 3966
5503 127
5503 2943
5503 3967
5504 128
5504 2944
5504 3968
5505 129
5505 2945
5505 3969
5506 130
5506 2946
5506 3970
5507 131
5507 2947
5507 3971
5508 132
5508 2948
5508 3972
5509 133
5509 2949
5509 3973
5510 134
5510 2950
5510 3974
5511 135
5511 2951
5511 3975
5512 136
5512 2952
5512 3976
5513 137
5513 2953
5513 3977
5514 138
5514 2954
5514 3978
5515 139
5515 2955
5515 3979
5516 140
5516 2956
5516 3980
5517 141
5517 2957
5517 3981
5518 142
5518 2958
5518 3982
5519 143
5519 2959
5519 3983
5520 144
5520 2960
5520 3984
5521 145
5521 2961
5521 3985
5522 146
5522 2962
5522 3986
5523 147
5523 2963
5523 3987
5524 148
5524 2964
5524 3988
5525 149
5525 2965
5525 3989
5526 150
5526 2966
5526 3990
5527 151
5527 2967
5527 3991
5528 152
5528 2968
5528 3992
5529 153
5529 2969
5529 3993
5530 154
5530 2970
5530 3994
5531 155
5531 2971
5531 3995
5532 156
5532 2972
5532 3996
5533 157
5533 2973
5533 3997
5534 158
5534 2974
5534 3998
5535 159
5535 2975
5535 3999
5536 160
5536 2976
5536 4000
5537 161
5537 2977
5537 4001
5538 162
5538 2978
5538 4002
5539 163
5539 2979
5539 4003
5540 164
5540 2980
5540 4004
5541 165
5541 2981
5541 4005
5542 166
5542 2982
5542 4006
5543 167
5543 2983
5543 4007
5544 168
5544 2984
5544 4008
5545 169
5545 2985
5545 4009
5546 170
5546 2986
5546 4010
5547 171
5547 2987
5547 4011
5548 172
5548 2988
5548 4012
5549 173
5549 2989
5549 4013
5550 174
5550 2990
5550 4014
5551 175
5551 2991
5551 4015
5552 176
5552 2992
5552 4016
5553 177
5553 2993
5553 4017
5554 178
5554 2994
5554 4018
5555 179
5555 2995
5555 4019
5556 180
5556 2996
5556 4020
5557 181
5557 2997
5557 4021
5558 182
5558 2998
5558 4022
5559 183
5559 2999
5559 4023
5560 184
5560 3000
5560 4024
5561 185
5561 3001
5561 4025
5562 186
5562 3002
5562 4026
5563 187
5563 3003
5563 4027
5564 188
5564 3004
5564 4028
5565 189
5565 3005
5565 4029
5566 190
5566 3006
5566 4030
5567 191
5567 3007
5567 4031
5568 192
5568 3008
5568 4032
5569 193
5569 3009
5569 4033
5570 194
5570 3010
5570 4034
5571 195
5571 3011
5571 4035
5572 196
5572 3012
5572 4036
5573 197
5573 3013
5573 4037
5574 198
5574 3014
5574 4038
5575 199
5575 3015
5575 4039
5576 200
5576 3016
5576 4040
5577 201
5577 3017
5577 4041
5578 202
5578 3018
5578 4042
5579 203
5579 3019
5579 4043
5580 204
5580 3020
5580 4044
5581 205
5581 3021
5581 4045
5582 206
5582 3022
5582 4046
5583 207
5583 3023
5583 4047
5584 208
5584 3024
5584 4048
5585 209
5585 3025
5585 4049
5586 210
5586 3026
5586 4050
5587 211
5587 3027
5587 4051
5588 212
5588 3028
5588 4052
5589 213
5589 3029
5589 4053
5590 214
5590 3030
5590 4054
5591 215
5591 3031
5591 4055
5592 216
5592 3032
5592 4056
5593 217
5593 3033
5593 4057
5594 218
5594 3034
5594 4058
5595 219
5595 3035
5595 4059
5596 220
5596 3036
5596 4060
5597 221
5597 3037
5597 4061
5598 222
5598 3038
5598 4062
5599 223
5599 3039
5599 4063
5600 224
5600 3040
5600 4064
5601 225
5601 3041
5601 4065
5602 226
5602 3042
5602 4066
5603 227
5603 3043
5603 4067
5604 228
5604 3044
5604 4068
5605 229
5605 3045
5605 4069
5606 230
5606 3046
5606 4070
5607 231
5607 3047
5607 4071
5608 232
5608 3048
5608 4072
5609 233
5609 3049
5609 4073
5610 234
5610 3050
5610 4074
5611 235
5611 3051
5611 4075
5612 236
5612 3052
5612 4076
5613 237
5613 3053
5613 4077
5614 238
5614 3054
5614 4078
5615 239
5615 3055
5615 4079
5616 240
5616 3056
5616 4080
5617 241
5617 3057
5617 4081
5618 242
5618 3058
5618 4082
5619 243
5619 3059
5619 4083
5620 244
5620 3060
5620 4084
5621 245
5621 3061
5621 4085
5622 246
5622 3062
5622 4086
5623 247
5623 3063
5623 4087
5624 248
5624 3064
5624 4088
5625 249
5625 3065
5625 4089
5626 250
5626 3066
5626 4090
5627 251
5627 3067
5627 4091
5628 252
5628 3068
5628 4092
5629 253
5629 3069
5629 4093
5630 254
5630 3070
5630 4094
5631 255
5631 3071
5631 4095
5632 256
5632 3072
5632 4096
5633 257
5633 3073
5633 4097
5634 258
5634 3074
5634 4098
5635 259
5635 3075
5635 4099
5636 260
5636 3076
5636 4100
5637 261
5637 3077
5637 4101
5638 262
5638 3078
5638 4102
5639 263
5639 3079
5639 4103
5640 264
5640 3080
5640 4104
5641 265
5641 3081
5641 4105
5642 266
5642 3082
5642 4106
5643 267
5643 3083
5643 4107
5644 268
5644 3084
5644 4108
5645 269
5645 3085
5645 4109
5646 270
5646 3086
5646 4110
5647 271
5647 3087
5647 4111
5648 272
5648 3088
5648 4112
5649 273
5649 3089
5649 4113
5650 274
5650 3090
5650 4114
5651 275
5651 3091
5651 4115
5652 276
5652 3092
5652 4116
5653 277
5653 3093
5653 4117
5654 278
5654 3094
5654 4118
5655 279
5655 3095
5655 4119
5656 280
5656 3096
5656 4120
5657 281
5657 3097
5657 4121
5658 282
5658 3098
5658 4122
5659 283
5659 3099
5659 4123
5660 284
5660 3100
5660 4124
5661 285
5661 3101
5661 4125
5662 286
5662 3102
5662 4126
5663 287
5663 3103
5663 4127
5664 288
5664 3104
5664 4128
5665 289
5665 3105
5665 4129
5666 290
5666 3106
5666 4130
5667 291
5667 3107
5667 4131
5668 292
5668 3108
5668 4132
5669 293
5669 3109
5669 4133
5670 294
5670 3110
5670 4134
5671 295
5671 3111
5671 4135
5672 296
5672 3112
5672 4136
5673 297
5673 3113
5673 4137
5674 298
5674 3114
5674 4138
5675 299
5675 3115
5675 4139
5676 300
5676 3116
5676 4140
5677 301
5677 3117
5677 4141
5678 302
5678 3118
5678 4142
5679 303
5679 3119
5679 4143
5680 304
5680 3120
5680 4144
5681 305
5681 3121
5681 4145
5682 306
5682 3122
5682 4146
5683 307
5683 3123
5683 4147
5684 308
5684 3124
5684 4148
5685 309
5685 3125
5685 4149
5686 310
5686 3126
5686 4150
5687 311
5687 3127
5687 4151
5688 312
5688 3128
5688 4152
5689 313
5689 3129
5689 4153
5690 314
5690 3130
5690 4154
5691 315
5691 3131
5691 4155
5692 316
5692 3132
5692 4156
5693 317
5693 3133
5693 4157
5694 318
5694 3134
5694 4158
5695 319
5695 3135
5695 4159
5696 320
5696 3136
5696 4160
5697 321
5697 3137
5697 4161
5698 322
5698 3138
5698 4162
5699 323
5699 3139
5699 4163
5700 324
5700 3140
5700 4164
5701 325
5701 3141
5701 4165
5702 326
5702 3142
5702 4166
5703 327
5703 3143
5703 4167
5704 328
5704 3144
5704 4168
5705 329
5705 3145
5705 4169
5706 330
5706 3146
5706 4170
5707 331
5707 3147
5707 4171
5708 332
5708 3148
5708 4172
5709 333
5709 3149
5709 4173
5710 334
5710 3150
5710 4174
5711 335
5711 3151
5711 4175
5712 336
5712 3152
5712 4176
5713 337
5713 3153
5713 4177
5714 338
5714 3154
5714 4178
5715 339
5715 3155
5715 4179
5716 340
5716 3156
5716 4180
5717 341
5717 3157
5717 4181
5718 342
5718 3158
5718 4182
5719 343
5719 3159
5719 4183
5720 344
5720 3160
5720 4184
5721 345
5721 3161
5721 4185
5722 346
5722 3162
5722 4186
5723 347
5723 3163
5723 4187
5724 348
5724 3164
5724 4188
5725 349
5725 3165
5725 4189
5726 350
5726 3166
5726 4190
5727 351
5727 3167
5727 4191
5728 352
5728 3168
5728 4192
5729 353
5729 3169
5729 4193
5730 354
5730 3170
5730 4194
5731 355
5731 3171
5731 4195
5732 356
5732 3172
5732 4196
5733 357
5733 3173
5733 4197
5734 358
5734 3174
5734 4198
5735 359
5735 3175
5735 4199
5736 360
5736 3176
5736 4200
5737 361
5737 3177
5737 4201
5738 362
5738 3178
5738 4202
5739 363
5739 3179
5739 4203
5740 364
5740 3180
5740 4204
5741 365
5741 3181
5741 4205
5742 366
5742 3182
5742 4206
5743 367
5743 3183
5743 4207
5744 368
5744 3184
5744 4208
5745 369
5745 3185
5745 4209
5746 370
5746 3186
5746 4210
5747 371
5747 3187
5747 4211
5748 372
5748 3188
5748 4212
5749 373
5749 3189
5749 4213
5750 374
5750 3190
5750 4214
5751 375
5751 3191
5751 4215
5752 376
5752 3192
5752 4216
5753 377
5753 3193
5753 4217
5754 378
5754 3194
5754 4218
5755 379
5755 3195
5755 4219
5756 380
5756 3196
5756 4220
5757 381
5757 3197
5757 4221
5758 382
5758 3198
5758 4222
5759 383
5759 3199
5759 4223
5760 384
5760 3200
5760 4224
5761 385
5761 3201
5761 4225
5762 386
5762 3202
5762 4226
5763 387
5763 3203
5763 4227
5764 388
5764 3204
5764 4228
5765 389
5765 3205
5765 4229
5766 390
5766 3206
5766 4230
5767 391
5767 3207
5767 4231
5768 392
5768 3208
5768 4232
5769 393
5769 3209
5769 4233
5770 394
5770 3210
5770 4234
5771 395
5771 3211
5771 4235
5772 396
5772 3212
5772 4236
5773 397
5773 3213
5773 4237
5774 398
5774 3214
5774 4238
5775 399
5775 3215
5775 4239
5776 400
5776 3216
5776 4240
5777 401
5777 3217
5777 4241
5778 402
5778 3218
5778 4242
5779 403
5779 3219
5779 4243
5780 404
5780 3220
5780 4244
5781 405
5781 3221
5781 4245
5782 406
5782 3222
5782 4246
5783 407
5783 3223
5783 4247
5784 408
5784 3224
5784 4248
5785 409
5785 3225
5785 4249
5786 410
5786 3226
5786 4250
5787 411
5787 3227
5787 4251
5788 412
5788 3228
5788 4252
5789 413
5789 3229
5789 4253
5790 414
5790 3230
5790 4254
5791 415
5791 3231
5791 4255
5792 416
5792 3232
5792 4256
5793 417
5793 3233
5793 4257
5794 418
5794 3234
5794 4258
5795 419
5795 3235
5795 4259
5796 420
5796 3236
5796 4260
5797 421
5797 3237
5797 4261
5798 422
5798 3238
5798 4262
5799 423
5799 3239
5799 4263
5800 424
5800 3240
5800 4264
5801 425
5801 3241
5801 4265
5802 426
5802 3242
5802 4266
5803 427
5803 3243
5803 4267
5804 428
5804 3244
5804 4268
5805 429
5805 3245
5805 4269
5806 430
5806 3246
5806 4270
5807 431
5807 3247
5807 4271
5808 432
5808 3248
5808 4272
5809 433
5809 3249
5809 4273
5810 434
5810 3250
5810 4274
5811 435
5811 3251
5811 4275
5812 436
5812 3252
5812 4276
5813 437
5813 3253
5813 4277
5814 438
5814 3254
5814 4278
5815 439
5815 3255
5815 4279
5816 440
5816 3256
5816 4280
5817 441
5817 3257
5817 4281
5818 442
5818 3258
5818 4282
5819 443
5819 3259
5819 4283
5820 444
5820 3260
5820 4284
5821 445
5821 3261
5821 4285
5822 446
5822 3262
5822 4286
5823 447
5823 3263
5823 4287
5824 448
5824 3264
5824 4288
5825 449
5825 3265
5825 4289
5826 450
5826 3266
5826 4290
5827 451
5827 3267
5827 4291
5828 452
5828 3268
5828 4292
5829 453
5829 3269
5829 4293
5830 454
5830 3270
5830 4294
5831 455
5831 3271
5831 4295
5832 456
5832 3272
5832 4296
5833 457
5833 3273
5833 4297
5834 458
5834 3274
5834 4298
5835 459
5835 3275
5835 4299
5836 460
5836 3276
5836 4300
5837 461
5837 3277
5837 4301
5838 462
5838 3278
5838 4302
5839 463
5839 3279
5839 4303
5840 464
5840 3280
5840 4304
5841 465
5841 3281
5841 4305
5842 466
5842 3282
5842 4306
5843 467
5843 3283
5843 4307
5844 468
5844 3284
5844 4308
5845 469
5845 3285
5845 4309
5846 470
5846 3286
5846 4310
5847 471
5847 3287
5847 4311
5848 472
5848 3288
5848 4312
5849 473
5849 3289
5849 4313
5850 474
5850 3290
5850 4314
5851 475
5851 3291
5851 4315
5852 476
5852 3292
5852 4316
5853 477
5853 3293
5853 4317
5854 478
5854 3294
5854 4318
5855 479
5855 3295
5855 4319
5856 480
5856 3296
5856 4320
5857 481
5857 3297
5857 4321
5858 482
5858 3298
5858 4322
5859 483
5859 3299
5859 4323
5860 484
5860 3300
5860 4324
5861 485
5861 3301
5861 4325
5862 486
5862 3302
5862 4326
5863 487
5863 3303
5863 4327
5864 488
5864 3304
5864 4328
5865 489
5865 3305
5865 4329
5866 490
5866 3306
5866 4330
5867 491
5867 3307
5867 4331
5868 492
5868 3308
5868 4332
5869 493
5869 3309
5869 4333
5870 494
5870 3310
5870 4334
5871 495
5871 3311
5871 4335
5872 496
5872 3312
5872 4336
5873 497
5873 3313
5873 4337
5874 498
5874 3314
5874 4338
5875 499
5875 3315
5875 4339
5876 500
5876 3316
5876 4340
5877 501
5877 3317
5877 4341
5878 502
5878 3318
5878 4342
5879 503
5879 3319
5879 4343
5880 504
5880 3320
5880 4344
5881 505
5881 3321
5881 4345
5882 506
5882 3322
5882 4346
5883 507
5883 3323
5883 4347
5884 508
5884 3324
5884 4348
5885 509
5885 3325
5885 4349
5886 510
5886 3326
5886 4350
5887 511
5887 3327
5887 4351
5888 512
5888 3328
5888 4352
5889 513
5889 3329
5889 4353
5890 514
5890 3330
5890 4354
5891 515
5891 3331
5891 4355
5892 516
5892 3332
5892 4356
5893 517
5893 3333
5893 4357
5894 518
5894 3334
5894 4358
5895 519
5895 3335
5895 4359
5896 520
5896 3336
5896 4360
5897 521
5897 3337
5897 4361
5898 522
5898 3338
5898 4362
5899 523
5899 3339
5899 4363
5900 524
5900 3340
5900 4364
5901 525
5901 3341
5901 4365
5902 526
5902 3342
5902 4366
5903 527
5903 3343
5903 4367
5904 528
5904 3344
5904 4368
5905 529
5905 3345
5905 4369
5906 530
5906 3346
5906 4370
5907 531
5907 3347
5907 4371
5908 532
5908 3348
5908 4372
5909 533
5909 3349
5909 4373
5910 534
5910 3350
5910 4374
5911 535
5911 3351
5911 4375
5912 536
5912 3352
5912 4376
5913 537
5913 3353
5913 4377
5914 538
5914 3354
5914 4378
5915 539
5915 3355
5915 4379
5916 540
5916 3356
5916 4380
5917 541
5917 3357
5917 4381
5918 542
5918 3358
5918 4382
5919 543
5919 3359
5919 4383
5920 544
5920 3360
5920 4384
5921 545
5921 3361
5921 4385
5922 546
5922 3362
5922 4386
5923 547
5923 3363
5923 4387
5924 548
5924 3364
5924 4388
5925 549
5925 3365
5925 4389
5926 550
5926 3366
5926 4390
5927 551
5927 3367
5927 4391
5928 552
5928 3368
5928 4392
5929 553
5929 3369
5929 4393
5930 554
5930 3370
5930 4394
5931 555
5931 3371
5931 4395
5932 556
5932 3372
5932 4396
5933 557
5933 3373
5933 4397
5934 558
5934 3374
5934 4398
5935 559
5935 3375
5935 4399
5936 560
5936 3376
5936 4400
5937 561
5937 3377
5937 4401
5938 562
5938 3378
5938 4402
5939 563
5939 3379
5939 4403
5940 564
5940 3380
5940 4404
5941 565
5941 3381
5941 4405
5942 566
5942 3382
5942 4406
5943 567
5943 3383
5943 4407
5944 568
5944 3384
5944 4408
5945 569
5945 3385
5945 4409
5946 570
5946 3386
5946 4410
5947 571
5947 3387
5947 4411
5948 572
5948 3388
5948 4412
5949 573
5949 3389
5949 4413
5950 574
5950 3390
5950 4414
5951 575
5951 3391
5951 4415
5952 576
5952 3392
5952 4416
5953 577
5953 3393
5953 4417
5954 578
5954 3394
5954 4418
5955 579
5955 3395
5955 4419
5956 580
5956 3396
5956 4420
5957 581
5957 3397
5957 4421
5958 582
5958 3398
5958 4422
5959 583
5959 3399
5959 4423
5960 584
5960 3400
5960 4424
5961 585
5961 3401
5961 4425
5962 586
5962 3402
5962 4426
5963 587
5963 3403
5963 4427
5964 588
5964 3404
5964 4428
5965 589
5965 3405
5965 4429
5966 590
5966 3406
5966 4430
5967 591
5967 3407
5967 4431
5968 592
5968 3408
5968 4432
5969 593
5969 3409
5969 4433
5970 594
5970 3410
5970 4434
5971 595
5971 3411
5971 4435
5972 596
5972 3412
5972 4436
5973 597
5973 3413
5973 4437
5974 598
5974 3414
5974 4438
5975 599
5975 3415
5975 4439
5976 600
5976 3416
5976 4440
5977 601
5977 3417
5977 4441
5978 602
5978 3418
5978 4442
5979 603
5979 3419
5979 4443
5980 604
5980 3420
5980 4444
5981 605
5981 3421
5981 4445
5982 606
5982 3422
5982 4446
5983 607
5983 3423
5983 4447
5984 608
5984 3424
5984 4448
5985 609
5985 3425
5985 4449
5986 610
5986 3426
5986 4450
5987 611
5987 3427
5987 4451
5988 612
5988 3428
5988 4452
5989 613
5989 3429
5989 4453
5990 614
5990 3430
5990 4454
5991 615
5991 3431
5991 4455
5992 616
5992 3432
5992 4456
5993 617
5993 3433
5993 4457
5994 618
5994 3434
5994 4458
5995 619
5995 3435
5995 4459
5996 620
5996 3436
5996 4460
5997 621
5997 3437
5997 4461
5998 622
5998 3438
5998 4462
5999 623
5999 3439
5999 4463
6000 624
6000 3440
6000 4464
6001 625
6001 3441
6001 4465
6002 626
6002 3442
6002 4466
6003 627
6003 3443
6003 4467
6004 628
6004 3444
6004 4468
6005 629
6005 3445
6005 4469
6006 630
6006 3446
6006 4470
6007 631
6007 3447
6007 4471
6008 632
6008 3448
6008 4472
6009 633
6009 3449
6009 4473
6010 634
6010 3450
6010 4474
6011 635
6011 3451
6011 4475
6012 636
6012 3452
6012 4476
6013 637
6013 3453
6013 4477
6014 638
6014 3454
6014 4478
6015 639
6015 3455
6015 4479
6016 640
6016 3456
6016 4480
6017 641
6017 3457
6017 4481
6018 642
6018 3458
6018 4482
6019 643
6019 3459
6019 4483
6020 644
6020 3460
6020 4484
6021 645
6021 3461
6021 4485
6022 646
6022 3462
6022 4486
6023 647
6023 3463
6023 4487
6024 648
6024 3464
6024 4488
6025 649
6025 3465
6025 4489
6026 650
6026 3466
6026 4490
6027 651
6027 3467
6027 4491
6028 652
6028 3468
6028 4492
6029 653
6029 3469
6029 4493
6030 654
6030 3470
6030 4494
6031 655
6031 3471
6031 4495
6032 656
6032 3472
6032 4496
6033 657
6033 3473
6033 4497
6034 658
6034 3474
6034 4498
6035 659
6035 3475
6035 4499
6036 660
6036 3476
6036 4500
6037 661
6037 3477
6037 4501
6038 662
6038 3478
6038 4502
6039 663
6039 3479
6039 4503
6040 664
6040 3480
6040 4504
6041 665
6041 3481
6041 4505
6042 666
6042 3482
6042 4506
6043 667
6043 3483
6043 4507
6044 668
6044 3484
6044 4508
6045 669
6045 3485
6045 4509
6046 670
6046 3486
6046 4510
6047 671
6047 3487
6047 4511
6048 672
6048 3488
6048 4512
6049 673
6049 3489
6049 4513
6050 674
6050 3490
6050 4514
6051 675
6051 3491
6051 4515
6052 676
6052 3492
6052 4516
6053 677
6053 3493
6053 4517
6054 678
6054 3494
6054 4518
6055 679
6055 3495
6055 4519
6056 680
6056 3496
6056 4520
6057 681
6057 3497
6057 4521
6058 682
6058 3498
6058 4522
6059 683
6059 3499
6059 4523
6060 684
6060 3500
6060 4524
6061 685
6061 3501
6061 4525
6062 686
6062 3502
6062 4526
6063 687
6063 3503
6063 4527
6064 688
6064 3504
6064 4528
6065 689
6065 3505
6065 4529
6066 690
6066 3506
6066 4530
6067 691
6067 3507
6067 4531
6068 692
6068 3508
6068 4532
6069 693
6069 3509
6069 4533
6070 694
6070 3510
6070 4534
6071 695
6071 3511
6071 4535
6072 696
6072 3512
6072 4536
6073 697
6073 3513
6073 4537
6074 698
6074 3514
6074 4538
6075 699
6075 3515
6075 4539
6076 700
6076 3516
6076 4540
6077 701
6077 3517
6077 4541
6078 702
6078 3518
6078 4542
6079 703
6079 3519
6079 4543
6080 704
6080 3520
6080 4544
6081 705
6081 3521
6081 4545
6082 706
6082 3522
6082 4546
6083 707
6083 3523
6083 4547
6084 708
6084 3524
6084 4548
6085 709
6085 3525
6085 4549
6086 710
6086 3526
6086 4550
6087 711
6087 3527
6087 4551
6088 712
6088 3528
6088 4552
6089 713
6089 3529
6089 4553
6090 714
6090 3530
6090 4554
6091 715
6091 3531
6091 4555
6092 716
6092 3532
6092 4556
6093 717
6093 3533
6093 4557
6094 718
6094 3534
6094 4558
6095 719
6095 3535
6095 4559
6096 720
6096 3536
6096 4560
6097 721
6097 3537
6097 4561
6098 722
6098 3538
6098 4562
6099 723
6099 3539
6099 4563
6100 724
6100 3540
6100 4564
6101 725
6101 3541
6101 4565
6102 726
6102 3542
6102 4566
6103 727
6103 3543
6103 4567
6104 728
6104 3544
6104 4568
6105 729
6105 3545
6105 4569
6106 730
6106 3546
6106 4570
6107 731
6107 3547
6107 4571
6108 732
6108 3548
6108 4572
6109 733
6109 3549
6109 4573
6110 734
6110 3550
6110 4574
6111 735
6111 3551
6111 4575
6112 736
6112 3552
6112 4576
6113 737
6113 3553
6113 4577
6114 738
6114 3554
6114 4578
6115 739
6115 3555
6115 4579
6116 740
6116 3556
6116 4580
6117 741
6117 3557
6117 4581
6118 742
6118 3558
6118 4582
6119 743
6119 3559
6119 4583
6120 744
6120 3560
6120 4584
6121 745
6121 3561
6121 4585
6122 746
6122 3562
6122 4586
6123 747
6123 3563
6123 4587
6124 748
6124 3564
6124 4588
6125 749
6125 3565
6125 4589
6126 750
6126 3566
6126 4590
6127 751
6127 3567
6127 4591
6128 752
6128 3568
6128 4592
6129 753
6129 3569
6129 4593
6130 754
6130 3570
6130 4594
6131 755
6131 3571
6131 4595
6132 756
6132 3572
6132 4596
6133 757
6133 3573
6133 4597
6134 758
6134 3574
6134 4598
6135 759
6135 3575
6135 4599
6136 760
6136 3576
6136 4600
6137 761
6137 3577
6137 4601
6138 762
6138 3578
6138 4602
6139 763
6139 3579
6139 4603
6140 764
6140 3580
6140 4604
6141 765
6141 3581
6141 4605
6142 766
6142 3582
6142 4606
6143 767
6143 3583
6143 4607
6144 768
6144 1792
6144 4608
6145 769
6145 1793
6145 4609
6146 770
6146 1794
6146 4610
6147 771
6147 1795
6147 4611
6148 772
6148 1796
6148 4612
6149 773
6149 1797
6149 4613
6150 774
6150 1798
6150 4614
6151 775
6151 1799
6151 4615
6152 776
6152 1800
6152 4616
6153 777
6153 1801
6153 4617
6154 778
6154 1802
6154 4618
6155 779
6155 1803
6155 4619
6156 780
6156 1804
6156 4620
6157 781
6157 1805
6157 4621
6158 782
6158 1806
6158 4622
6159 783
6159 1807
6159 4623
6160 784
6160 1808
6160 4624
6161 785
6161 1809
6161 4625
6162 786
6162 1810
6162 4626
6163 787
6163 1811
6163 4627
6164 788
6164 1812
6164 4628
6165 789
6165 1813
6165 4629
6166 790
6166 1814
6166 4630
6167 791
6167 1815
6167 4631
6168 792
6168 1816
6168 4632
6169 793
6169 1817
6169 4633
6170 794
6170 1818
6170 4634
6171 795
6171 1819
6171 4635
6172 796
6172 1820
6172 4636
6173 797
6173 1821
6173 4637
6174 798
6174 1822
6174 4638
6175 799
6175 1823
6175 4639
6176 800
6176 1824
6176 4640
6177 801
6177 1825
6177 4641
6178 802
6178 1826
6178 4642
6179 803
6179 1827
6179 4643
6180 804
6180 1828
6180 4644
6181 805
6181 1829
6181 4645
6182 806
6182 1830
6182 4646
6183 807
6183 1831
6183 4647
6184 808
6184 1832
6184 4648
6185 809
6185 1833
6185 4649
6186 810
6186 1834
6186 4650
6187 811
6187 1835
6187 4651
6188 812
6188 1836
6188 4652
6189 813
6189 1837
6189 4653
6190 814
6190 1838
6190 4654
6191 815
6191 1839
6191 4655
6192 816
6192 1840
6192 4656
6193 817
6193 1841
6193 4657
6194 818
6194 1842
6194 4658
6195 819
6195 1843
6195 4659
6196 820
6196 1844
6196 4660
6197 821
6197 1845
6197 4661
6198 822
6198 1846
6198 4662
6199 823
6199 1847
6199 4663
6200 824
6200 1848
6200 4664
6201 825
6201 1849
6201 4665
6202 826
6202 1850
6202 4666
6203 827
6203 1851
6203 4667
6204 828
6204 1852
6204 4668
6205 829
6205 1853
6205 4669
6206 830
6206 1854
6206 4670
6207 831
6207 1855
6207 4671
6208 832
6208 1856
6208 4672
6209 833
6209 1857
6209 4673
6210 834
6210 1858
6210 4674
6211 835
6211 1859
6211 4675
6212 836
6212 1860
6212 4676
6213 837
6213 1861
6213 4677
6214 838
6214 1862
6214 4678
6215 839
6215 1863
6215 4679
6216 840
6216 1864
6216 4680
6217 841
6217 1865
6217 4681
6218 842
6218 1866
6218 4682
6219 843
6219 1867
6219 4683
6220 844
6220 1868
6220 4684
6221 845
6221 1869
6221 4685
6222 846
6222 1870
6222 4686
6223 847
6223 1871
6223 4687
6224 848
6224 1872
6224 4688
6225 849
6225 1873
6225 4689
6226 850
6226 1874
6226 4690
6227 851
6227 1875
6227 4691
6228 852
6228 1876
6228 4692
6229 853
6229 1877
6229 4693
6230 854
6230 1878
6230 4694
6231 855
6231 1879
6231 4695
6232 856
6232 1880
6232 4696
6233 857
6233 1881
6233 4697
6234 858
6234 1882
6234 4698
6235 859
6235 1883
6235 4699
6236 860
6236 1884
6236 4700
6237 861
6237 1885
6237 4701
6238 862
6238 1886
6238 4702
6239 863
6239 1887
6239 4703
6240 864
6240 1888
6240 4704
6241 865
6241 1889
6241 4705
6242 866
6242 1890
6242 4706
6243 867
6243 1891
6243 4707
6244 868
6244 1892
6244 4708
6245 869
6245 1893
6245 4709
6246 870
6246 1894
6246 4710
6247 871
6247 1895
6247 4711
6248 872
6248 1896
6248 4712
6249 873
6249 1897
6249 4713
6250 874
6250 1898
6250 4714
6251 875
6251 1899
6251 4715
6252 876
6252 1900
6252 4716
6253 877
6253 1901
6253 4717
6254 878
6254 1902
6254 4718
6255 879
6255 1903
6255 4719
6256 880
6256 1904
6256 4720
6257 881
6257 1905
6257 4721
6258 882
6258 1906
6258 4722
6259 883
6259 1907
6259 4723
6260 884
6260 1908
6260 4724
6261 885
6261 1909
6261 4725
6262 886
6262 1910
6262 4726
6263 887
6263 1911
6263 4727
6264 888
6264 1912
6264 4728
6265 889
6265 1913
6265 4729
6266 890
6266 1914
6266 4730
6267 891
6267 1915
6267 4731
6268 892
6268 1916
6268 4732
6269 893
6269 1917
6269 4733
6270 894
6270 1918
6270 4734
6271 895
6271 1919
6271 4735
6272 896
6272 1920
6272 4736
6273 897
6273 1921
6273 4737
6274 898
6274 1922
6274 4738
6275 899
6275 1923
6275 4739
6276 900
6276 1924
6276 4740
6277 901
6277 1925
6277 4741
6278 902
6278 1926
6278 4742
6279 903
6279 1927
6279 4743
6280 904
6280 1928
6280 4744
6281 905
6281 1929
6281 4745
6282 906
6282 1930
6282 4746
6283 907
6283 1931
6283 4747
6284 908
6284 1932
6284 4748
6285 909
6285 1933
6285 4749
6286 910
6286 1934
6286 4750
6287 911
6287 1935
6287 4751
6288 912
6288 1936
6288 4752
6289 913
6289 1937
6289 4753
6290 914
6290 1938
6290 4754
6291 915
6291 1939
6291 4755
6292 916
6292 1940
6292 4756
6293 917
6293 1941
6293 4757
6294 918
6294 1942
6294 4758
6295 919
6295 1943
6295 4759
6296 920
6296 1944
6296 4760
6297 921
6297 1945
6297 4761
6298 922
6298 1946
6298 4762
6299 923
6299 1947
6299 4763
6300 924
6300 1948
6300 4764
6301 925
6301 1949
6301 4765
6302 926
6302 1950
6302 4766
6303 927
6303 1951
6303 4767
6304 928
6304 1952
6304 4768
6305 929
6305 1953
6305 4769
6306 930
6306 1954
6306 4770
6307 931
6307 1955
6307 4771
6308 932
6308 1956
6308 4772
6309 933
6309 1957
6309 4773
6310 934
6310 1958
6310 4774
6311 935
6311 1959
6311 4775
6312 936
6312 1960
6312 4776
6313 937
6313 1961
6313 4777
6314 938
6314 1962
6314 4778
6315 939
6315 1963
6315 4779
6316 940
6316 1964
6316 4780
6317 941
6317 1965
6317 4781
6318 942
6318 1966
6318 4782
6319 943
6319 1967
6319 4783
6320 944
6320 1968
6320 4784
6321 945
6321 1969
6321 4785
6322 946
6322 1970
6322 4786
6323 947
6323 1971
6323 4787
6324 948
6324 1972
6324 4788
6325 949
6325 1973
6325 4789
6326 950
6326 1974
6326 4790
6327 951
6327 1975
6327 4791
6328 952
6328 1976
6328 4792
6329 953
6329 1977
6329 4793
6330 954
6330 1978
6330 4794
6331 955
6331 1979
6331 4795
6332 956
6332 1980
6332 4796
6333 957
6333 1981
6333 4797
6334 958
6334 1982
6334 4798
6335 959
6335 1983
6335 4799
6336 960
6336 1984
6336 4800
6337 961
6337 1985
6337 4801
6338 962
6338 1986
6338 4802
6339 963
6339 1987
6339 4803
6340 964
6340 1988
6340 4804
6341 965
6341 1989
6341 4805
6342 966
6342 1990
6342 4806
6343 967
6343 1991
6343 4807
6344 968
6344 1992
6344 4808
6345 969
6345 1993
6345 4809
6346 970
6346 1994
6346 4810
6347 971
6347 1995
6347 4811
6348 972
6348 1996
6348 4812
6349 973
6349 1997
6349 4813
6350 974
6350 1998
6350 4814
6351 975
6351 1999
6351 4815
6352 976
6352 2000
6352 4816
6353 977
6353 2001
6353 4817
6354 978
6354 2002
6354 4818
6355 979
6355 2003
6355 4819
6356 980
6356 2004
6356 4820
6357 981
6357 2005
6357 4821
6358 982
6358 2006
6358 4822
6359 983
6359 2007
6359 4823
6360 984
6360 2008
6360 4824
6361 985
6361 2009
6361 4825
6362 986
6362 2010
6362 4826
6363 987
6363 2011
6363 4827
6364 988
6364 2012
6364 4828
6365 989
6365 2013
6365 4829
6366 990
6366 2014
6366 4830
6367 991
6367 2015
6367 4831
6368 992
6368 2016
6368 4832
6369 993
6369 2017
6369 4833
6370 994
6370 2018
6370 4834
6371 995
6371 2019
6371 4835
6372 996
6372 2020
6372 4836
6373 997
6373 2021
6373 4837
6374 998
6374 2022
6374 4838
6375 999
6375 2023
6375 4839
6376 1000
6376 2024
6376 4840
6377 1001
6377 2025
6377 4841
6378 1002
6378 2026
6378 4842
6379 1003
6379 2027
6379 4843
6380 1004
6380 2028
6380 4844
6381 1005
6381 2029
6381 4845
6382 1006
6382 2030
6382 4846
6383 1007
6383 2031
6383 4847
6384 1008
6384 2032
6384 4848
6385 1009
6385 2033
6385 4849
6386 1010
6386 2034
6386 4850
6387 1011
6387 2035
6387 4851
6388 1012
6388 2036
6388 4852
6389 1013
6389 2037
6389 4853
6390 1014
6390 2038
6390 4854
6391 1015
6391 2039
6391 4855
6392 1016
6392 2040
6392 4856
6393 1017
6393 2041
6393 4857
6394 1018
6394 2042
6394 4858
6395 1019
6395 2043
6395 4859
6396 1020
6396 2044
6396 4860
6397 1021
6397 2045
6397 4861
6398 1022
6398 2046
6398 4862
6399 1023
6399 2047
6399 4863
6400 1024
6400 2048
6400 4864
6401 1025
6401 2049
6401 4865
6402 1026
6402 2050
6402 4866
6403 1027
6403 2051
6403 4867
6404 1028
6404 2052
6404 4868
6405 1029
6405 2053
6405 4869
6406 1030
6406 2054
6406 4870
6407 1031
6407 2055
6407 4871
6408 1032
6408 2056
6408 4872
6409 1033
6409 2057
6409 4873
6410 1034
6410 2058
6410 4874
6411 1035
6411 2059
6411 4875
6412 1036
6412 2060
6412 4876
6413 1037
6413 2061
6413 4877
6414 1038
6414 2062
6414 4878
6415 1039
6415 2063
6415 4879
6416 1040
6416 2064
6416 4880
6417 1041
6417 2065
6417 4881
6418 1042
6418 2066
6418 4882
6419 1043
6419 2067
6419 4883
6420 1044
6420 2068
6420 4884
6421 1045
6421 2069
6421 4885
6422 1046
6422 2070
6422 4886
6423 1047
6423 2071
6423 4887
6424 1048
6424 2072
6424 4888
6425 1049
6425 2073
6425 4889
6426 1050
6426 2074
6426 4890
6427 1051
6427 2075
6427 4891
6428 1052
6428 2076
6428 4892
6429 1053
6429 2077
6429 4893
6430 1054
6430 2078
6430 4894
6431 1055
6431 2079
6431 4895
6432 1056
6432 2080
6432 4896
6433 1057
6433 2081
6433 4897
6434 1058
6434 2082
6434 4898
6435 1059
6435 2083
6435 4899
6436 1060
6436 2084
6436 4900
6437 1061
6437 2085
6437 4901
6438 1062
6438 2086
6438 4902
6439 1063
6439 2087
6439 4903
6440 1064
6440 2088
6440 4904
6441 1065
6441 2089
6441 4905
6442 1066
6442 2090
6442 4906
6443 1067
6443 2091
6443 4907
6444 1068
6444 2092
6444 4908
6445 1069
6445 2093
6445 4909
6446 1070
6446 2094
6446 4910
6447 1071
6447 2095
6447 4911
6448 1072
6448 2096
6448 4912
6449 1073
6449 2097
6449 4913
6450 1074
6450 2098
6450 4914
6451 1075
6451 2099
6451 4915
6452 1076
6452 2100
6452 4916
6453 1077
6453 2101
6453 4917
6454 1078
6454 2102
6454 4918
6455 1079
6455 2103
6455 4919
6456 1080
6456 2104
6456 4920
6457 1081
6457 2105
6457 4921
6458 1082
6458 2106
6458 4922
6459 1083
6459 2107
6459 4923
6460 1084
6460 2108
6460 4924
6461 1085
6461 2109
6461 4925
6462 1086
6462 2110
6462 4926
6463 1087
6463 2111
6463 4927
6464 1088
6464 2112
6464 4928
6465 1089
6465 2113
6465 4929
6466 1090
6466 2114
6466 4930
6467 1091
6467 2115
6467 4931
6468 1092
6468 2116
6468 4932
6469 1093
6469 2117
6469 4933
6470 1094
6470 2118
6470 4934
6471 1095
6471 2119
6471 4935
6472 1096
6472 2120
6472 4936
6473 1097
6473 2121
6473 4937
6474 1098
6474 2122
6474 4938
6475 1099
6475 2123
6475 4939
6476 1100
6476 2124
6476 4940
6477 1101
6477 2125
6477 4941
6478 1102
6478 2126
6478 4942
6479 1103
6479 2127
6479 4943
6480 1104
6480 2128
6480 4944
6481 1105
6481 2129
6481 4945
6482 1106
6482 2130
6482 4946
6483 1107
6483 2131
6483 4947
6484 1108
6484 2132
6484 4948
6485 1109
6485 2133
6485 4949
6486 1110
6486 2134
6486 4950
6487 1111
6487 2135
6487 4951
6488 1112
6488 2136
6488 4952
6489 1113
6489 2137
6489 4953
6490 1114
6490 2138
6490 4954
6491 1115
6491 2139
6491 4955
6492 1116
6492 2140
6492 4956
6493 1117
6493 2141
6493 4957
6494 1118
6494 2142
6494 4958
6495 1119
6495 2143
6495 4959
6496 1120
6496 2144
6496 4960
6497 1121
6497 2145
6497 4961
6498 1122
6498 2146
6498 4962
6499 1123
6499 2147
6499 4963
6500 1124
6500 2148
6500 4964
6501 1125
6501 2149
6501 4965
6502 1126
6502 2150
6502 4966
6503 1127
6503 2151
6503 4967
6504 1128
6504 2152
6504 4968
6505 1129
6505 2153
6505 4969
6506 1130
6506 2154
6506 4970
6507 1131
6507 2155
6507 4971
6508 1132
6508 2156
6508 4972
6509 1133
6509 2157
6509 4973
6510 1134
6510 2158
6510 4974
6511 1135
6511 2159
6511 4975
6512 1136
6512 2160
6512 4976
6513 1137
6513 2161
6513 4977
6514 1138
6514 2162
6514 4978
6515 1139
6515 2163
6515 4979
6516 1140
6516 2164
6516 4980
6517 1141
6517 2165
6517 4981
6518 1142
6518 2166
6518 4982
6519 1143
6519 2167
6519 4983
6520 1144
6520 2168
6520 4984
6521 1145
6521 2169
6521 4985
6522 1146
6522 2170
6522 4986
6523 1147
6523 2171
6523 4987
6524 1148
6524 2172
6524 4988
6525 1149
6525 2173
6525 4989
6526 1150
6526 2174
6526 4990
6527 1151
6527 2175
6527 4991
6528 1152
6528 2176
6528 4992
6529 1153
6529 2177
6529 4993
6530 1154
6530 2178
6530 4994
6531 1155
6531 2179
6531 4995
6532 1156
6532 2180
6532 4996
6533 1157
6533 2181
6533 4997
6534 1158
6534 2182
6534 4998
6535 1159
6535 2183
6535 4999
6536 1160
6536 2184
6536 5000
6537 1161
6537 2185
6537 5001
6538 1162
6538 2186
6538 5002
6539 1163
6539 2187
6539 5003
6540 1164
6540 2188
6540 5004
6541 1165
6541 2189
6541 5005
6542 1166
6542 2190
6542 5006
6543 1167
6543 2191
6543 5007
6544 1168
6544 2192
6544 5008
6545 1169
6545 2193
6545 5009
6546 1170
6546 2194
6546 5010
6547 1171
6547 2195
6547 5011
6548 1172
6548 2196
6548 5012
6549 1173
6549 2197
6549 5013
6550 1174
6550 2198
6550 5014
6551 1175
6551 2199
6551 5015
6552 1176
6552 2200
6552 5016
6553 1177
6553 2201
6553 5017
6554 1178
6554 2202
6554 5018
6555 1179
6555 2203
6555 5019
6556 1180
6556 2204
6556 5020
6557 1181
6557 2205
6557 5021
6558 1182
6558 2206
6558 5022
6559 1183
6559 2207
6559 5023
6560 1184
6560 2208
6560 5024
6561 1185
6561 2209
6561 5025
6562 1186
6562 2210
6562 5026
6563 1187
6563 2211
6563 5027
6564 1188
6564 2212
6564 5028
6565 1189
6565 2213
6565 5029
6566 1190
6566 2214
6566 5030
6567 1191
6567 2215
6567 5031
6568 1192
6568 2216
6568 5032
6569 1193
6569 2217
6569 5033
6570 1194
6570 2218
6570 5034
6571 1195
6571 2219
6571 5035
6572 1196
6572 2220
6572 5036
6573 1197
6573 2221
6573 5037
6574 1198
6574 2222
6574 5038
6575 1199
6575 2223
6575 5039
6576 1200
6576 2224
6576 5040
6577 1201
6577 2225
6577 5041
6578 1202
6578 2226
6578 5042
6579 1203
6579 2227
6579 5043
6580 1204
6580 2228
6580 5044
6581 1205
6581 2229
6581 5045
6582 1206
6582 2230
6582 5046
6583 1207
6583 2231
6583 5047
6584 1208
6584 2232
6584 5048
6585 1209
6585 2233
6585 5049
6586 1210
6586 2234
6586 5050
6587 1211
6587 2235
6587 5051
6588 1212
6588 2236
6588 5052
6589 1213
6589 2237
6589 5053
6590 1214
6590 2238
6590 5054
6591 1215
6591 2239
6591 5055
6592 1216
6592 2240
6592 5056
6593 1217
6593 2241
6593 5057
6594 1218
6594 2242
6594 5058
6595 1219
6595 2243
6595 5059
6596 1220
6596 2244
6596 5060
6597 1221
6597 2245
6597 5061
6598 1222
6598 2246
6598 5062
6599 1223
6599 2247
6599 5063
6600 1224
6600 2248
6600 5064
6601 1225
6601 2249
6601 5065
6602 1226
6602 2250
6602 5066
6603 1227
6603 2251
6603 5067
6604 1228
6604 2252
6604 5068
6605 1229
6605 2253
6605 5069
6606 1230
6606 2254
6606 5070
6607 1231
6607 2255
6607 5071
6608 1232
6608 2256
6608 5072
6609 1233
6609 2257
6609 5073
6610 1234
6610 2258
6610 5074
6611 1235
6611 2259
6611 5075
6612 1236
6612 2260
6612 5076
6613 1237
6613 2261
6613 5077
6614 1238
6614 2262
6614 5078
6615 1239
6615 2263
6615 5079
6616 1240
6616 2264
6616 5080
6617 1241
6617 2265
6617 5081
6618 1242
6618 2266
6618 5082
6619 1243
6619 2267
6619 5083
6620 1244
6620 2268
6620 5084
6621 1245
6621 2269
6621 5085
6622 1246
6622 2270
6622 5086
6623 1247
6623 2271
6623 5087
6624 1248
6624 2272
6624 5088
6625 1249
6625 2273
6625 5089
6626 1250
6626 2274
6626 5090
6627 1251
6627 2275
6627 5091
6628 1252
6628 2276
6628 5092
6629 1253
6629 2277
6629 5093
6630 1254
6630 2278
6630 5094
6631 1255
6631 2279
6631 5095
6632 1256
6632 2280
6632 5096
6633 1257
6633 2281
6633 5097
6634 1258
6634 2282
6634 5098
6635 1259
6635 2283
6635 5099
6636 1260
6636 2284
6636 5100
6637 1261
6637 2285
6637 5101
6638 1262
6638 2286
6638 5102
6639 1263
6639 2287
6639 5103
6640 1264
6640 2288
6640 5104
6641 1265
6641 2289
6641 5105
6642 1266
6642 2290
6642 5106
6643 1267
6643 2291
6643 5107
6644 1268
6644 2292
6644 5108
6645 1269
6645 2293
6645 5109
6646 1270
6646 2294
6646 5110
6647 1271
6647 2295
6647 5111
6648 1272
6648 2296
6648 5112
6649 1273
6649 2297
6649 5113
6650 1274
6650 2298
6650 5114
6651 1275
6651 2299
6651 5115
6652 1276
6652 2300
6652 5116
6653 1277
6653 2301
6653 5117
6654 1278
6654 2302
6654 5118
6655 1279
6655 2303
6655 5119
6656 1280
6656 2304
6656 5120
6657 1281
6657 2305
6657 5121
6658 1282
6658 2306
6658 5122
6659 1283
6659 2307
6659 5123
6660 1284
6660 2308
6660 5124
6661 1285
6661 2309
6661 5125
6662 1286
6662 2310
6662 5126
6663 1287
6663 2311
6663 5127
6664 1288
6664 2312
6664 5128
6665 1289
6665 2313
6665 5129
6666 1290
6666 2314
6666 5130
6667 1291
6667 2315
6667 5131
6668 1292
6668 2316
6668 5132
6669 1293
6669 2317
6669 5133
6670 1294
6670 2318
6670 5134
6671 1295
6671 2319
6671 5135
6672 1296
6672 2320
6672 5136
6673 1297
6673 2321
6673 5137
6674 1298
6674 2322
6674 5138
6675 1299
6675 2323
6675 5139
6676 1300
6676 2324
6676 5140
6677 1301
6677 2325
6677 5141
6678 1302
6678 2326
6678 5142
6679 1303
6679 2327
6679 5143
6680 1304
6680 2328
6680 5144
6681 1305
6681 2329
6681 5145
6682 1306
6682 2330
6682 5146
6683 1307
6683 2331
6683 5147
6684 1308
6684 2332
6684 5148
6685 1309
6685 2333
6685 5149
6686 1310
6686 2334
6686 5150
6687 1311
6687 2335
6687 5151
6688 1312
6688 2336
6688 5152
6689 1313
6689 2337
6689 5153
6690 1314
6690 2338
6690 5154
6691 1315
6691 2339
6691 5155
6692 1316
6692 2340
6692 5156
6693 1317
6693 2341
6693 5157
6694 1318
6694 2342
6694 5158
6695 1319
6695 2343
6695 5159
6696 1320
6696 2344
6696 5160
6697 1321
6697 2345
6697 5161
6698 1322
6698 2346
6698 5162
6699 1323
6699 2347
6699 5163
6700 1324
6700 2348
6700 5164
6701 1325
6701 2349
6701 5165
6702 1326
6702 2350
6702 5166
6703 1327
6703 2351
6703 5167
6704 1328
6704 2352
6704 5168
6705 1329
6705 2353
6705 5169
6706 1330
6706 2354
6706 5170
6707 1331
6707 2355
6707 5171
6708 1332
6708 2356
6708 5172
6709 1333
6709 2357
6709 5173
6710 1334
6710 2358
6710 5174
6711 1335
6711 2359
6711 5175
6712 1336
6712 2360
6712 5176
6713 1337
6713 2361
6713 5177
6714 1338
6714 2362
6714 5178
6715 1339
6715 2363
6715 5179
6716 1340
6716 2364
6716 5180
6717 1341
6717 2365
6717 5181
6718 1342
6718 2366
6718 5182
6719 1343
6719 2367
6719 5183
6720 1344
6720 2368
6720 5184
6721 1345
6721 2369
6721 5185
6722 1346
6722 2370
6722 5186
6723 1347
6723 2371
6723 5187
6724 1348
6724 2372
6724 5188
6725 1349
6725 2373
6725 5189
6726 1350
6726 2374
6726 5190
6727 1351
6727 2375
6727 5191
6728 1352
6728 2376
6728 5192
6729 1353
6729 2377
6729 5193
6730 1354
6730 2378
6730 5194
6731 1355
6731 2379
6731 5195
6732 1356
6732 2380
6732 5196
6733 1357
6733 2381
6733 5197
6734 1358
6734 2382
6734 5198
6735 1359
6735 2383
6735 5199
6736 1360
6736 2384
6736 5200
6737 1361
6737 2385
6737 5201
6738 1362
6738 2386
6738 5202
6739 1363
6739 2387
6739 5203
6740 1364
6740 2388
6740 5204
6741 1365
6741 2389
6741 5205
6742 1366
6742 2390
6742 5206
6743 1367
6743 2391
6743 5207
6744 1368
6744 2392
6744 5208
6745 1369
6745 2393
6745 5209
6746 1370
6746 2394
6746 5210
6747 1371
6747 2395
6747 5211
6748 1372
6748 2396
6748 5212
6749 1373
6749 2397
6749 5213
6750 1374
6750 2398
6750 5214
6751 1375
6751 2399
6751 5215
6752 1376
6752 2400
6752 5216
6753 1377
6753 2401
6753 5217
6754 1378
6754 2402
6754 5218
6755 1379
6755 2403
6755 5219
6756 1380
6756 2404
6756 5220
6757 1381
6757 2405
6757 5221
6758 1382
6758 2406
6758 5222
6759 1383
6759 2407
6759 5223
6760 1384
6760 2408
6760 5224
6761 1385
6761 2409
6761 5225
6762 1386
6762 2410
6762 5226
6763 1387
6763 2411
6763 5227
6764 1388
6764 2412
6764 5228
6765 1389
6765 2413
6765 5229
6766 1390
6766 2414
6766 5230
6767 1391
6767 2415
6767 5231
6768 1392
6768 2416
6768 5232
6769 1393
6769 2417
6769 5233
6770 1394
6770 2418
6770 5234
6771 1395
6771 2419
6771 5235
6772 1396
6772 2420
6772 5236
6773 1397
6773 2421
6773 5237
6774 1398
6774 2422
6774 5238
6775 1399
6775 2423
6775 5239
6776 1400
6776 2424
6776 5240
6777 1401
6777 2425
6777 5241
6778 1402
6778 2426
6778 5242
6779 1403
6779 2427
6779 5243
6780 1404
6780 2428
6780 5244
6781 1405
6781 2429
6781 5245
6782 1406
6782 2430
6782 5246
6783 1407
6783 2431
6783 5247
6784 1408
6784 2432
6784 5248
6785 1409
6785 2433
6785 5249
6786 1410
6786 2434
6786 5250
6787 1411
6787 2435
6787 5251
6788 1412
6788 2436
6788 5252
6789 1413
6789 2437
6789 5253
6790 1414
6790 2438
6790 5254
6791 1415
6791 2439
6791 5255
6792 1416
6792 2440
6792 5256
6793 1417
6793 2441
6793 5257
6794 1418
6794 2442
6794 5258
6795 1419
6795 2443
6795 5259
6796 1420
6796 2444
6796 5260
6797 1421
6797 2445
6797 5261
6798 1422
6798 2446
6798 5262
6799 1423
6799 2447
6799 5263
6800 1424
6800 2448
6800 5264
6801 1425
6801 2449
6801 5265
6802 1426
6802 2450
6802 5266
6803 1427
6803 2451
6803 5267
6804 1428
6804 2452
6804 5268
6805 1429
6805 2453
6805 5269
6806 1430
6806 2454
6806 5270
6807 1431
6807 2455
6807 5271
6808 1432
6808 2456
6808 5272
6809 1433
6809 2457
6809 5273
6810 1434
6810 2458
6810 5274
6811 1435
6811 2459
6811 5275
6812 1436
6812 2460
6812 5276
6813 1437
6813 2461
6813 5277
6814 1438
6814 2462
6814 5278
6815 1439
6815 2463
6815 5279
6816 1440
6816 2464
6816 5280
6817 1441
6817 2465
6817 5281
6818 1442
6818 2466
6818 5282
6819 1443
6819 2467
6819 5283
6820 1444
6820 2468
6820 5284
6821 1445
6821 2469
6821 5285
6822 1446
6822 2470
6822 5286
6823 1447
6823 2471
6823 5287
6824 1448
6824 2472
6824 5288
6825 1449
6825 2473
6825 5289
6826 1450
6826 2474
6826 5290
6827 1451
6827 2475
6827 5291
6828 1452
6828 2476
6828 5292
6829 1453
6829 2477
6829 5293
6830 1454
6830 2478
6830 5294
6831 1455
6831 2479
6831 5295
6832 1456
6832 2480
6832 5296
6833 1457
6833 2481
6833 5297
6834 1458
6834 2482
6834 5298
6835 1459
6835 2483
6835 5299
6836 1460
6836 2484
6836 5300
6837 1461
6837 2485
6837 5301
6838 1462
6838 2486
6838 5302
6839 1463
6839 2487
6839 5303
6840 1464
6840 2488
6840 5304
6841 1465
6841 2489
6841 5305
6842 1466
6842 2490
6842 5306
6843 1467
6843 2491
6843 5307
6844 1468
6844 2492
6844 5308
6845 1469
6845 2493
6845 5309
6846 1470
6846 2494
6846 5310
6847 1471
6847 2495
6847 5311
6848 1472
6848 2496
6848 5312
6849 1473
6849 2497
6849 5313
6850 1474
6850 2498
6850 5314
6851 1475
6851 2499
6851 5315
6852 1476
6852 2500
6852 5316
6853 1477
6853 2501
6853 5317
6854 1478
6854 2502
6854 5318
6855 1479
6855 2503
6855 5319
6856 1480
6856 2504
6856 5320
6857 1481
6857 2505
6857 5321
6858 1482
6858 2506
6858 5322
6859 1483
6859 2507
6859 5323
6860 1484
6860 2508
6860 5324
6861 1485
6861 2509
6861 5325
6862 1486
6862 2510
6862 5326
6863 1487
6863 2511
6863 5327
6864 1488
6864 2512
6864 5328
6865 1489
6865 2513
6865 5329
6866 1490
6866 2514
6866 5330
6867 1491
6867 2515
6867 5331
6868 1492
6868 2516
6868 5332
6869 1493
6869 2517
6869 5333
6870 1494
6870 2518
6870 5334
6871 1495
6871 2519
6871 5335
6872 1496
6872 2520
6872 5336
6873 1497
6873 2521
6873 5337
6874 1498
6874 2522
6874 5338
6875 1499
6875 2523
6875 5339
6876 1500
6876 2524
6876 5340
6877 1501
6877 2525
6877 5341
6878 1502
6878 2526
6878 5342
6879 1503
6879 2527
6879 5343
6880 1504
6880 2528
6880 5344
6881 1505
6881 2529
6881 5345
6882 1506
6882 2530
6882 5346
6883 1507
6883 2531
6883 5347
6884 1508
6884 2532
6884 5348
6885 1509
6885 2533
6885 5349
6886 1510
6886 2534
6886 5350
6887 1511
6887 2535
6887 5351
6888 1512
6888 2536
6888 5352
6889 1513
6889 2537
6889 5353
6890 1514
6890 2538
6890 5354
6891 1515
6891 2539
6891 5355
6892 1516
6892 2540
6892 5356
6893 1517
6893 2541
6893 5357
6894 1518
6894 2542
6894 5358
6895 1519
6895 2543
6895 5359
6896 1520
6896 2544
6896 5360
6897 1521
6897 2545
6897 5361
6898 1522
6898 2546
6898 5362
6899 1523
6899 2547
6899 5363
6900 1524
6900 2548
6900 5364
6901 1525
6901 2549
6901 5365
6902 1526
6902 2550
6902 5366
6903 1527
6903 2551
6903 5367
6904 1528
6904 2552
6904 5368
6905 1529
6905 2553
6905 5369
6906 1530
6906 2554
6906 5370
6907 1531
6907 2555
6907 5371
6908 1532
6908 2556
6908 5372
6909 1533
6909 2557
6909 5373
6910 1534
6910 2558
6910 5374
6911 1535
6911 2559
6911 5375
6912 1536
6912 2560
6912 3584
6913 1537
6913 2561
6913 3585
6914 1538
6914 2562
6914 3586
6915 1539
6915 2563
6915 3587
6916 1540
6916 2564
6916 3588
6917 1541
6917 2565
6917 3589
6918 1542
6918 2566
6918 3590
6919 1543
6919 2567
6919 3591
6920 1544
6920 2568
6920 3592
6921 1545
6921 2569
6921 3593
6922 1546
6922 2570
6922 3594
6923 1547
6923 2571
6923 3595
6924 1548
6924 2572
6924 3596
6925 1549
6925 2573
6925 3597
6926 1550
6926 2574
6926 3598
6927 1551
6927 2575
6927 3599
6928 1552
6928 2576
6928 3600
6929 1553
6929 2577
6929 3601
6930 1554
6930 2578
6930 3602
6931 1555
6931 2579
6931 3603
6932 1556
6932 2580
6932 3604
6933 1557
6933 2581
6933 3605
6934 1558
6934 2582
6934 3606
6935 1559
6935 2583
6935 3607
6936 1560
6936 2584
6936 3608
6937 1561
6937 2585
6937 3609
6938 1562
6938 2586
6938 3610
6939 1563
6939 2587
6939 3611
6940 1564
6940 2588
6940 3612
6941 1565
6941 2589
6941 3613
6942 1566
6942 2590
6942 3614
6943 1567
6943 2591
6943 3615
6944 1568
6944 2592
6944 3616
6945 1569
6945 2593
6945 3617
6946 1570
6946 2594
6946 3618
6947 1571
6947 2595
6947 3619
6948 1572
6948 2596
6948 3620
6949 1573
6949 2597
6949 3621
6950 1574
6950 2598
6950 3622
6951 1575
6951 2599
6951 3623
6952 1576
6952 2600
6952 3624
6953 1577
6953 2601
6953 3625
6954 1578
6954 2602
6954 3626
6955 1579
6955 2603
6955 3627
6956 1580
6956 2604
6956 3628
6957 1581
6957 2605
6957 3629
6958 1582
6958 2606
6958 3630
6959 1583
6959 2607
6959 3631
6960 1584
6960 2608
6960 3632
6961 1585
6961 2609
6961 3633
6962 1586
6962 2610
6962 3634
6963 1587
6963 2611
6963 3635
6964 1588
6964 2612
6964 3636
6965 1589
6965 2613
6965 3637
6966 1590
6966 2614
6966 3638
6967 1591
6967 2615
6967 3639
6968 1592
6968 2616
6968 3640
6969 1593
6969 2617
6969 3641
6970 1594
6970 2618
6970 3642
6971 1595
6971 2619
6971 3643
6972 1596
6972 2620
6972 3644
6973 1597
6973 2621
6973 3645
6974 1598
6974 2622
6974 3646
6975 1599
6975 2623
6975 3647
6976 1600
6976 2624
6976 3648
6977 1601
6977 2625
6977 3649
6978 1602
6978 2626
6978 3650
6979 1603
6979 2627
6979 3651
6980 1604
6980 2628
6980 3652
6981 1605
6981 2629
6981 3653
6982 1606
6982 2630
6982 3654
6983 1607
6983 2631
6983 3655
6984 1608
6984 2632
6984 3656
6985 1609
6985 2633
6985 3657
6986 1610
6986 2634
6986 3658
6987 1611
6987 2635
6987 3659
6988 1612
6988 2636
6988 3660
6989 1613
6989 2637
6989 3661
6990 1614
6990 2638
6990 3662
6991 1615
6991 2639
6991 3663
6992 1616
6992 2640
6992 3664
6993 1617
6993 2641
6993 3665
6994 1618
6994 2642
6994 3666
6995 1619
6995 2643
6995 3667
6996 1620
6996 2644
6996 3668
6997 1621
6997 2645
6997 3669
6998 1622
6998 2646
6998 3670
6999 1623
6999 2647
6999 3671
7000 1624
7000 2648
7000 3672
7001 1625
7001 2649
7001 3673
7002 1626
7002 2650
7002 3674
7003 1627
7003 2651
7003 3675
7004 1628
7004 2652
7004 3676
7005 1629
7005 2653
7005 3677
7006 1630
7006 2654
7006 3678
7007 1631
7007 2655
7007 3679
7008 1632
7008 2656
7008 3680
7009 1633
7009 2657
7009 3681
7010 1634
7010 2658
7010 3682
7011 1635
7011 2659
7011 3683
7012 1636
7012 2660
7012 3684
7013 1637
7013 2661
7013 3685
7014 1638
7014 2662
7014 3686
7015 1639
7015 2663
7015 3687
7016 1640
7016 2664
7016 3688
7017 1641
7017 2665
7017 3689
7018 1642
7018 2666
7018 3690
7019 1643
7019 2667
7019 3691
7020 1644
7020 2668
7020 3692
7021 1645
7021 2669
7021 3693
7022 1646
7022 2670
7022 3694
7023 1647
7023 2671
7023 3695
7024 1648
7024 2672
7024 3696
7025 1649
7025 2673
7025 3697
7026 1650
7026 2674
7026 3698
7027 1651
7027 2675
7027 3699
7028 1652
7028 2676
7028 3700
7029 1653
7029 2677
7029 3701
7030 1654
7030 2678
7030 3702
7031 1655
7031 2679
7031 3703
7032 1656
7032 2680
7032 3704
7033 1657
7033 2681
7033 3705
7034 1658
7034 2682
7034 3706
7035 1659
7035 2683
7035 3707
7036 1660
7036 2684
7036 3708
7037 1661
7037 2685
7037 3709
7038 1662
7038 2686
7038 3710
7039 1663
7039 2687
7039 3711
7040 1664
7040 2688
7040 3712
7041 1665
7041 2689
7041 3713
7042 1666
7042 2690
7042 3714
7043 1667
7043 2691
7043 3715
7044 1668
7044 2692
7044 3716
7045 1669
7045 2693
7045 3717
7046 1670
7046 2694
7046 3718
7047 1671
7047 2695
7047 3719
7048 1672
7048 2696
7048 3720
7049 1673
7049 2697
7049 3721
7050 1674
7050 2698
7050 3722
7051 1675
7051 2699
7051 3723
7052 1676
7052 2700
7052 3724
7053 1677
7053 2701
7053 3725
7054 1678
7054 2702
7054 3726
7055 1679
7055 2703
7055 3727
7056 1680
7056 2704
7056 3728
7057 1681
7057 2705
7057 3729
7058 1682
7058 2706
7058 3730
7059 1683
7059 2707
7059 3731
7060 1684
7060 2708
7060 3732
7061 1685
7061 2709
7061 3733
7062 1686
7062 2710
7062 3734
7063 1687
7063 2711
7063 3735
7064 1688
7064 2712
7064 3736
7065 1689
7065 2713
7065 3737
7066 1690
7066 2714
7066 3738
7067 1691
7067 2715
7067 3739
7068 1692
7068 2716
7068 3740
7069 1693
7069 2717
7069 3741
7070 1694
7070 2718
7070 3742
7071 1695
7071 2719
7071 3743
7072 1696
7072 2720
7072 3744
7073 1697
7073 2721
7073 3745
7074 1698
7074 2722
7074 3746
7075 1699
7075 2723
7075 3747
7076 1700
7076 2724
7076 3748
7077 1701
7077 2725
7077 3749
7078 1702
7078 2726
7078 3750
7079 1703
7079 2727
7079 3751
7080 1704
7080 2728
7080 3752
7081 1705
7081 2729
7081 3753
7082 1706
7082 2730
7082 3754
7083 1707
7083 2731
7083 3755
7084 1708
7084 2732
7084 3756
7085 1709
7085 2733
7085 3757
7086 1710
7086 2734
7086 3758
7087 1711
7087 2735
7087 3759
7088 1712
7088 2736
7088 3760
7089 1713
7089 2737
7089 3761
7090 1714
7090 2738
7090 3762
7091 1715
7091 2739
7091 3763
7092 1716
7092 2740
7092 3764
7093 1717
7093 2741
7093 3765
7094 1718
7094 2742
7094 3766
7095 1719
7095 2743
7095 3767
7096 1720
7096 2744
7096 3768
7097 1721
7097 2745
7097 3769
7098 1722
7098 2746
7098 3770
7099 1723
7099 2747
7099 3771
7100 1724
7100 2748
7100 3772
7101 1725
7101 2749
7101 3773
7102 1726
7102 2750
7102 3774
7103 1727
7103 2751
7103 3775
7104 1728
7104 2752
7104 3776
7105 1729
7105 2753
7105 3777
7106 1730
7106 2754
7106 3778
7107 1731
7107 2755
7107 3779
7108 1732
7108 2756
7108 3780
7109 1733
7109 2757
7109 3781
7110 1734
7110 2758
7110 3782
7111 1735
7111 2759
7111 3783
7112 1736
7112 2760
7112 3784
7113 1737
7113 2761
7113 3785
7114 1738
7114 2762
7114 3786
7115 1739
7115 2763
7115 3787
7116 1740
7116 2764
7116 3788
7117 1741
7117 2765
7117 3789
7118 1742
7118 2766
7118 3790
7119 1743
7119 2767
7119 3791
7120 1744
7120 2768
7120 3792
7121 1745
7121 2769
7121 3793
7122 1746
7122 2770
7122 3794
7123 1747
7123 2771
7123 3795
7124 1748
7124 2772
7124 3796
7125 1749
7125 2773
7125 3797
7126 1750
7126 2774
7126 3798
7127 1751
7127 2775
7127 3799
7128 1752
7128 2776
7128 3800
7129 1753
7129 2777
7129 3801
7130 1754
7130 2778
7130 3802
7131 1755
7131 2779
7131 3803
7132 1756
7132 2780
7132 3804
7133 1757
7133 2781
7133 3805
7134 1758
7134 2782
7134 3806
7135 1759
7135 2783
7135 3807
7136 1760
7136 2784
7136 3808
7137 1761
7137 2785
7137 3809
7138 1762
7138 2786
7138 3810
7139 1763
7139 2787
7139 3811
7140 1764
7140 2788
7140 3812
7141 1765
7141 2789
7141 3813
7142 1766
7142 2790
7142 3814
7143 1767
7143 2791
7143 3815
7144 1768
7144 2792
7144 3816
7145 1769
7145 2793
7145 3817
7146 1770
7146 2794
7146 3818
7147 1771
7147 2795
7147 3819
7148 1772
7148 2796
7148 3820
7149 1773
7149 2797
7149 3821
7150 1774
7150 2798
7150 3822
7151 1775
7151 2799
7151 3823
7152 1776
7152 2800
7152 3824
7153 1777
7153 2801
7153 3825
7154 1778
7154 2802
7154 3826
7155 1779
7155 2803
7155 3827
7156 1780
7156 2804
7156 3828
7157 1781
7157 2805
7157 3829
7158 1782
7158 2806
7158 3830
7159 1783
7159 2807
7159 3831
7160 1784
7160 2808
7160 3832
7161 1785
7161 2809
7161 3833
7162 1786
7162 2810
7162 3834
7163 1787
7163 2811
7163 3835
7164 1788
7164 2812
7164 3836
7165 1789
7165 2813
7165 3837
7166 1790
7166 2814
7166 3838
7167 1791
7167 2815
7167 3839
7168 0
7168 2560
7168 5120
7169 1
7169 2561
7169 5121
7170 2
7170 2562
7170 5122
7171 3
7171 2563
7171 5123
7172 4
7172 2564
7172 5124
7173 5
7173 2565
7173 5125
7174 6
7174 2566
7174 5126
7175 7
7175 2567
7175 5127
7176 8
7176 2568
7176 5128
7177 9
7177 2569
7177 5129
7178 10
7178 2570
7178 5130
7179 11
7179 2571
7179 5131
7180 12
7180 2572
7180 5132
7181 13
7181 2573
7181 5133
7182 14
7182 2574
7182 5134
7183 15
7183 2575
7183 5135
7184 16
7184 2576
7184 5136
7185 17
7185 2577
7185 5137
7186 18
7186 2578
7186 5138
7187 19
7187 2579
7187 5139
7188 20
7188 2580
7188 5140
7189 21
7189 2581
7189 5141
7190 22
7190 2582
7190 5142
7191 23
7191 2583
7191 5143
7192 24
7192 2584
7192 5144
7193 25
7193 2585
7193 5145
7194 26
7194 2586
7194 5146
7195 27
7195 2587
7195 5147
7196 28
7196 2588
7196 5148
7197 29
7197 2589
7197 5149
7198 30
7198 2590
7198 5150
7199 31
7199 2591
7199 5151
7200 32
7200 2592
7200 5152
7201 33
7201 2593
7201 5153
7202 34
7202 2594
7202 5154
7203 35
7203 2595
7203 5155
7204 36
7204 2596
7204 5156
7205 37
7205 2597
7205 5157
7206 38
7206 2598
7206 5158
7207 39
7207 2599
7207 5159
7208 40
7208 2600
7208 5160
7209 41
7209 2601
7209 5161
7210 42
7210 2602
7210 5162
7211 43
7211 2603
7211 5163
7212 44
7212 2604
7212 5164
7213 45
7213 2605
7213 5165
7214 46
7214 2606
7214 5166
7215 47
7215 2607
7215 5167
7216 48
7216 2608
7216 5168
7217 49
7217 2609
7217 5169
7218 50
7218 2610
7218 5170
7219 51
7219 2611
7219 5171
7220 52
7220 2612
7220 5172
7221 53
7221 2613
7221 5173
7222 54
7222 2614
7222 5174
7223 55
7223 2615
7223 5175
7224 56
7224 2616
7224 5176
7225 57
7225 2617
7225 5177
7226 58
7226 2618
7226 5178
7227 59
7227 2619
7227 5179
7228 60
7228 2620
7228 5180
7229 61
7229 2621
7229 5181
7230 62
7230 2622
7230 5182
7231 63
7231 2623
7231 5183
7232 64
7232 2624
7232 5184
7233 65
7233 2625
7233 5185
7234 66
7234 2626
7234 5186
7235 67
7235 2627
7235 5187
7236 68
7236 2628
7236 5188
7237 69
7237 2629
7237 5189
7238 70
7238 2630
7238 5190
7239 71
7239 2631
7239 5191
7240 72
7240 2632
7240 5192
7241 73
7241 2633
7241 5193
7242 74
7242 2634
7242 5194
7243 75
7243 2635
7243 5195
7244 76
7244 2636
7244 5196
7245 77
7245 2637
7245 5197
7246 78
7246 2638
7246 5198
7247 79
7247 2639
7247 5199
7248 80
7248 2640
7248 5200
7249 81
7249 2641
7249 5201
7250 82
7250 2642
7250 5202
7251 83
7251 2643
7251 5203
7252 84
7252 2644
7252 5204
7253 85
7253 2645
7253 5205
7254 86
7254 2646
7254 5206
7255 87
7255 2647
7255 5207
7256 88
7256 2648
7256 5208
7257 89
7257 2649
7257 5209
7258 90
7258 2650
7258 5210
7259 91
7259 2651
7259 5211
7260 92
7260 2652
7260 5212
7261 93
7261 2653
7261 5213
7262 94
7262 2654
7262 5214
7263 95
7263 2655
7263 5215
7264 96
7264 2656
7264 5216
7265 97
7265 2657
7265 5217
7266 98
7266 2658
7266 5218
7267 99
7267 2659
7267 5219
7268 100
7268 2660
7268 5220
7269 101
7269 2661
7269 5221
7270 102
7270 2662
7270 5222
7271 103
7271 2663
7271 5223
7272 104
7272 2664
7272 5224
7273 105
7273 2665
7273 5225
7274 106
7274 2666
7274 5226
7275 107
7275 2667
7275 5227
7276 108
7276 2668
7276 5228
7277 109
7277 2669
7277 5229
7278 110
7278 2670
7278 5230
7279 111
7279 2671
7279 5231
7280 112
7280 2672
7280 5232
7281 113
7281 2673
7281 5233
7282 114
7282 2674
7282 5234
7283 115
7283 2675
7283 5235
7284 116
7284 2676
7284 5236
7285 117
7285 2677
7285 5237
7286 118
7286 2678
7286 5238
7287 119
7287 2679
7287 5239
7288 120
7288 2680
7288 5240
7289 121
7289 2681
7289 5241
7290 122
7290 2682
7290 5242
7291 123
7291 2683
7291 5243
7292 124
7292 2684
7292 5244
7293 125
7293 2685
7293 5245
7294 126
7294 2686
7294 5246
7295 127
7295 2687
7295 5247
7296 128
7296 2688
7296 5248
7297 129
7297 2689
7297 5249
7298 130
7298 2690
7298 5250
7299 131
7299 2691
7299 5251
7300 132
7300 2692
7300 5252
7301 133
7301 2693
7301 5253
7302 134
7302 2694
7302 5254
7303 135
7303 2695
7303 5255
7304 136
7304 2696
7304 5256
7305 137
7305 2697
7305 5257
7306 138
7306 2698
7306 5258
7307 139
7307 2699
7307 5259
7308 140
7308 2700
7308 5260
7309 141
7309 2701
7309 5261
7310 142
7310 2702
7310 5262
7311 143
7311 2703
7311 5263
7312 144
7312 2704
7312 5264
7313 145
7313 2705
7313 5265
7314 146
7314 2706
7314 5266
7315 147
7315 2707
7315 5267
7316 148
7316 2708
7316 5268
7317 149
7317 2709
7317 5269
7318 150
7318 2710
7318 5270
7319 151
7319 2711
7319 5271
7320 152
7320 2712
7320 5272
7321 153
7321 2713
7321 5273
7322 154
7322 2714
7322 5274
7323 155
7323 2715
7323 5275
7324 156
7324 2716
7324 5276
7325 157
7325 2717
7325 5277
7326 158
7326 2718
7326 5278
7327 159
7327 2719
7327 5279
7328 160
7328 2720
7328 5280
7329 161
7329 2721
7329 5281
7330 162
7330 2722
7330 5282
7331 163
7331 2723
7331 5283
7332 164
7332 2724
7332 5284
7333 165
7333 2725
7333 5285
7334 166
7334 2726
7334 5286
7335 167
7335 2727
7335 5287
7336 168
7336 2728
7336 5288
7337 169
7337 2729
7337 5289
7338 170
7338 2730
7338 5290
7339 171
7339 2731
7339 5291
7340 172
7340 2732
7340 5292
7341 173
7341 2733
7341 5293
7342 174
7342 2734
7342 5294
7343 175
7343 2735
7343 5295
7344 176
7344 2736
7344 5296
7345 177
7345 2737
7345 5297
7346 178
7346 2738
7346 5298
7347 179
7347 2739
7347 5299
7348 180
7348 2740
7348 5300
7349 181
7349 2741
7349 5301
7350 182
7350 2742
7350 5302
7351 183
7351 2743
7351 5303
7352 184
7352 2744
7352 5304
7353 185
7353 2745
7353 5305
7354 186
7354 2746
7354 5306
7355 187
7355 2747
7355 5307
7356 188
7356 2748
7356 5308
7357 189
7357 2749
7357 5309
7358 190
7358 2750
7358 5310
7359 191
7359 2751
7359 5311
7360 192
7360 2752
7360 5312
7361 193
7361 2753
7361 5313
7362 194
7362 2754
7362 5314
7363 195
7363 2755
7363 5315
7364 196
7364 2756
7364 5316
7365 197
7365 2757
7365 5317
7366 198
7366 2758
7366 5318
7367 199
7367 2759
7367 5319
7368 200
7368 2760
7368 5320
7369 201
7369 2761
7369 5321
7370 202
7370 2762
7370 5322
7371 203
7371 2763
7371 5323
7372 204
7372 2764
7372 5324
7373 205
7373 2765
7373 5325
7374 206
7374 2766
7374 5326
7375 207
7375 2767
7375 5327
7376 208
7376 2768
7376 5328
7377 209
7377 2769
7377 5329
7378 210
7378 2770
7378 5330
7379 211
7379 2771
7379 5331
7380 212
7380 2772
7380 5332
7381 213
7381 2773
7381 5333
7382 214
7382 2774
7382 5334
7383 215
7383 2775
7383 5335
7384 216
7384 2776
7384 5336
7385 217
7385 2777
7385 5337
7386 218
7386 2778
7386 5338
7387 219
7387 2779
7387 5339
7388 220
7388 2780
7388 5340
7389 221
7389 2781
7389 5341
7390 222
7390 2782
7390 5342
7391 223
7391 2783
7391 5343
7392 224
7392 2784
7392 5344
7393 225
7393 2785
7393 5345
7394 226
7394 2786
7394 5346
7395 227
7395 2787
7395 5347
7396 228
7396 2788
7396 5348
7397 229
7397 2789
7397 5349
7398 230
7398 2790
7398 5350
7399 231
7399 2791
7399 5351
7400 232
7400 2792
7400 5352
7401 233
7401 2793
7401 5353
7402 234
7402 2794
7402 5354
7403 235
7403 2795
7403 5355
7404 236
7404 2796
7404 5356
7405 237
7405 2797
7405 5357
7406 238
7406 2798
7406 5358
7407 239
7407 2799
7407 5359
7408 240
7408 2800
7408 5360
7409 241
7409 2801
7409 5361
7410 242
7410 2802
7410 5362
7411 243
7411 2803
7411 5363
7412 244
7412 2804
7412 5364
7413 245
7413 2805
7413 5365
7414 246
7414 2806
7414 5366
7415 247
7415 2807
7415 5367
7416 248
7416 2808
7416 5368
7417 249
7417 2809
7417 5369
7418 250
7418 2810
7418 5370
7419 251
7419 2811
7419 5371
7420 252
7420 2812
7420 5372
7421 253
7421 2813
7421 5373
7422 254
7422 2814
7422 5374
7423 255
7423 2815
7423 5375
7424 256
7424 2816
7424 3584
7425 257
7425 2817
7425 3585
7426 258
7426 2818
7426 3586
7427 259
7427 2819
7427 3587
7428 260
7428 2820
7428 3588
7429 261
7429 2821
7429 3589
7430 262
7430 2822
7430 3590
7431 263
7431 2823
7431 3591
7432 264
7432 2824
7432 3592
7433 265
7433 2825
7433 3593
7434 266
7434 2826
7434 3594
7435 267
7435 2827
7435 3595
7436 268
7436 2828
7436 3596
7437 269
7437 2829
7437 3597
7438 270
7438 2830
7438 3598
7439 271
7439 2831
7439 3599
7440 272
7440 2832
7440 3600
7441 273
7441 2833
7441 3601
7442 274
7442 2834
7442 3602
7443 275
7443 2835
7443 3603
7444 276
7444 2836
7444 3604
7445 277
7445 2837
7445 3605
7446 278
7446 2838
7446 3606
7447 279
7447 2839
7447 3607
7448 280
7448 2840
7448 3608
7449 281
7449 2841
7449 3609
7450 282
7450 2842
7450 3610
7451 283
7451 2843
7451 3611
7452 284
7452 2844
7452 3612
7453 285
7453 2845
7453 3613
7454 286
7454 2846
7454 3614
7455 287
7455 2847
7455 3615
7456 288
7456 2848
7456 3616
7457 289
7457 2849
7457 3617
7458 290
7458 2850
7458 3618
7459 291
7459 2851
7459 3619
7460 292
7460 2852
7460 3620
7461 293
7461 2853
7461 3621
7462 294
7462 2854
7462 3622
7463 295
7463 2855
7463 3623
7464 296
7464 2856
7464 3624
7465 297
7465 2857
7465 3625
7466 298
7466 2858
7466 3626
7467 299
7467 2859
7467 3627
7468 300
7468 2860
7468 3628
7469 301
7469 2861
7469 3629
7470 302
7470 2862
7470 3630
7471 303
7471 2863
7471 3631
7472 304
7472 2864
7472 3632
7473 305
7473 2865
7473 3633
7474 306
7474 2866
7474 3634
7475 307
7475 2867
7475 3635
7476 308
7476 2868
7476 3636
7477 309
7477 2869
7477 3637
7478 310
7478 2870
7478 3638
7479 311
7479 2871
7479 3639
7480 312
7480 2872
7480 3640
7481 313
7481 2873
7481 3641
7482 314
7482 2874
7482 3642
7483 315
7483 2875
7483 3643
7484 316
7484 2876
7484 3644
7485 317
7485 2877
7485 3645
7486 318
7486 2878
7486 3646
7487 319
7487 2879
7487 3647
7488 320
7488 2880
7488 3648
7489 321
7489 2881
7489 3649
7490 322
7490 2882
7490 3650
7491 323
7491 2883
7491 3651
7492 324
7492 2884
7492 3652
7493 325
7493 2885
7493 3653
7494 326
7494 2886
7494 3654
7495 327
7495 2887
7495 3655
7496 328
7496 2888
7496 3656
7497 329
7497 2889
7497 3657
7498 330
7498 2890
7498 3658
7499 331
7499 2891
7499 3659
7500 332
7500 2892
7500 3660
7501 333
7501 2893
7501 3661
7502 334
7502 2894
7502 3662
7503 335
7503 2895
7503 3663
7504 336
7504 2896
7504 3664
7505 337
7505 2897
7505 3665
7506 338
7506 2898
7506 3666
7507 339
7507 2899
7507 3667
7508 340
7508 2900
7508 3668
7509 341
7509 2901
7509 3669
7510 342
7510 2902
7510 3670
7511 343
7511 2903
7511 3671
7512 344
7512 2904
7512 3672
7513 345
7513 2905
7513 3673
7514 346
7514 2906
7514 3674
7515 347
7515 2907
7515 3675
7516 348
7516 2908
7516 3676
7517 349
7517 2909
7517 3677
7518 350
7518 2910
7518 3678
7519 351
7519 2911
7519 3679
7520 352
7520 2912
7520 3680
7521 353
7521 2913
7521 3681
7522 354
7522 2914
7522 3682
7523 355
7523 2915
7523 3683
7524 356
7524 2916
7524 3684
7525 357
7525 2917
7525 3685
7526 358
7526 2918
7526 3686
7527 359
7527 2919
7527 3687
7528 360
7528 2920
7528 3688
7529 361
7529 2921
7529 3689
7530 362
7530 2922
7530 3690
7531 363
7531 2923
7531 3691
7532 364
7532 2924
7532 3692
7533 365
7533 2925
7533 3693
7534 366
7534 2926
7534 3694
7535 367
7535 2927
7535 3695
7536 368
7536 2928
7536 3696
7537 369
7537 2929
7537 3697
7538 370
7538 2930
7538 3698
7539 371
7539 2931
7539 3699
7540 372
7540 2932
7540 3700
7541 373
7541 2933
7541 3701
7542 374
7542 2934
7542 3702
7543 375
7543 2935
7543 3703
7544 376
7544 2936
7544 3704
7545 377
7545 2937
7545 3705
7546 378
7546 2938
7546 3706
7547 379
7547 2939
7547 3707
7548 380
7548 2940
7548 3708
7549 381
7549 2941
7549 3709
7550 382
7550 2942
7550 3710
7551 383
7551 2943
7551 3711
7552 384
7552 2944
7552 3712
7553 385
7553 2945
7553 3713
7554 386
7554 2946
7554 3714
7555 387
7555 2947
7555 3715
7556 388
7556 2948
7556 3716
7557 389
7557 2949
7557 3717
7558 390
7558 2950
7558 3718
7559 391
7559 2951
7559 3719
7560 392
7560 2952
7560 3720
7561 393
7561 2953
7561 3721
7562 394
7562 2954
7562 3722
7563 395
7563 2955
7563 3723
7564 396
7564 2956
7564 3724
7565 397
7565 2957
7565 3725
7566 398
7566 2958
7566 3726
7567 399
7567 2959
7567 3727
7568 400
7568 2960
7568 3728
7569 401
7569 2961
7569 3729
7570 402
7570 2962
7570 3730
7571 403
7571 2963
7571 3731
7572 404
7572 2964
7572 3732
7573 405
7573 2965
7573 3733
7574 406
7574 2966
7574 3734
7575 407
7575 2967
7575 3735
7576 408
7576 2968
7576 3736
7577 409
7577 2969
7577 3737
7578 410
7578 2970
7578 3738
7579 411
7579 2971
7579 3739
7580 412
7580 2972
7580 3740
7581 413
7581 2973
7581 3741
7582 414
7582 2974
7582 3742
7583 415
7583 2975
7583 3743
7584 416
7584 2976
7584 3744
7585 417
7585 2977
7585 3745
7586 418
7586 2978
7586 3746
7587 419
7587 2979
7587 3747
7588 420
7588 2980
7588 3748
7589 421
7589 2981
7589 3749
7590 422
7590 2982
7590 3750
7591 423
7591 2983
7591 3751
7592 424
7592 2984
7592 3752
7593 425
7593 2985
7593 3753
7594 426
7594 2986
7594 3754
7595 427
7595 2987
7595 3755
7596 428
7596 2988
7596 3756
7597 429
7597 2989
7597 3757
7598 430
7598 2990
7598 3758
7599 431
7599 2991
7599 3759
7600 432
7600 2992
7600 3760
7601 433
7601 2993
7601 3761
7602 434
7602 2994
7602 3762
7603 435
7603 2995
7603 3763
7604 436
7604 2996
7604 3764
7605 437
7605 2997
7605 3765
7606 438
7606 2998
7606 3766
7607 439
7607 2999
7607 3767
7608 440
7608 3000
7608 3768
7609 441
7609 3001
7609 3769
7610 442
7610 3002
7610 3770
7611 443
7611 3003
7611 3771
7612 444
7612 3004
7612 3772
7613 445
7613 3005
7613 3773
7614 446
7614 3006
7614 3774
7615 447
7615 3007
7615 3775
7616 448
7616 3008
7616 3776
7617 449
7617 3009
7617 3777
7618 450
7618 3010
7618 3778
7619 451
7619 3011
7619 3779
7620 452
7620 3012
7620 3780
7621 453
7621 3013
7621 3781
7622 454
7622 3014
7622 3782
7623 455
7623 3015
7623 3783
7624 456
7624 3016
7624 3784
7625 457
7625 3017
7625 3785
7626 458
7626 3018
7626 3786
7627 459
7627 3019
7627 3787
7628 460
7628 3020
7628 3788
7629 461
7629 3021
7629 3789
7630 462
7630 3022
7630 3790
7631 463
7631 3023
7631 3791
7632 464
7632 3024
7632 3792
7633 465
7633 3025
7633 3793
7634 466
7634 3026
7634 3794
7635 467
7635 3027
7635 3795
7636 468
7636 3028
7636 3796
7637 469
7637 3029
7637 3797
7638 470
7638 3030
7638 3798
7639 471
7639 3031
7639 3799
7640 472
7640 3032
7640 3800
7641 473
7641 3033
7641 3801
7642 474
7642 3034
7642 3802
7643 475
7643 3035
7643 3803
7644 476
7644 3036
7644 3804
7645 477
7645 3037
7645 3805
7646 478
7646 3038
7646 3806
7647 479
7647 3039
7647 3807
7648 480
7648 3040
7648 3808
7649 481
7649 3041
7649 3809
7650 482
7650 3042
7650 3810
7651 483
7651 3043
7651 3811
7652 484
7652 3044
7652 3812
7653 485
7653 3045
7653 3813
7654 486
7654 3046
7654 3814
7655 487
7655 3047
7655 3815
7656 488
7656 3048
7656 3816
7657 489
7657 3049
7657 3817
7658 490
7658 3050
7658 3818
7659 491
7659 3051
7659 3819
7660 492
7660 3052
7660 3820
7661 493
7661 3053
7661 3821
7662 494
7662 3054
7662 3822
7663 495
7663 3055
7663 3823
7664 496
7664 3056
7664 3824
7665 497
7665 3057
7665 3825
7666 498
7666 3058
7666 3826
7667 499
7667 3059
7667 3827
7668 500
7668 3060
7668 3828
7669 501
7669 3061
7669 3829
7670 502
7670 3062
7670 3830
7671 503
7671 3063
7671 3831
7672 504
7672 3064
7672 3832
7673 505
7673 3065
7673 3833
7674 506
7674 3066
7674 3834
7675 507
7675 3067
7675 3835
7676 508
7676 3068
7676 3836
7677 509
7677 3069
7677 3837
7678 510
7678 3070
7678 3838
7679 511
7679 3071
7679 3839
7680 512
7680 3072
7680 3840
7681 513
7681 3073
7681 3841
7682 514
7682 3074
7682 3842
7683 515
7683 3075
7683 3843
7684 516
7684 3076
7684 3844
7685 517
7685 3077
7685 3845
7686 518
7686 3078
7686 3846
7687 519
7687 3079
7687 3847
7688 520
7688 3080
7688 3848
7689 521
7689 3081
7689 3849
7690 522
7690 3082
7690 3850
7691 523
7691 3083
7691 3851
7692 524
7692 3084
7692 3852
7693 525
7693 3085
7693 3853
7694 526
7694 3086
7694 3854
7695 527
7695 3087
7695 3855
7696 528
7696 3088
7696 3856
7697 529
7697 3089
7697 3857
7698 530
7698 3090
7698 3858
7699 531
7699 3091
7699 3859
7700 532
7700 3092
7700 3860
7701 533
7701 3093
7701 3861
7702 534
7702 3094
7702 3862
7703 535
7703 3095
7703 3863
7704 536
7704 3096
7704 3864
7705 537
7705 3097
7705 3865
7706 538
7706 3098
7706 3866
7707 539
7707 3099
7707 3867
7708 540
7708 3100
7708 3868
7709 541
7709 3101
7709 3869
7710 542
7710 3102
7710 3870
7711 543
7711 3103
7711 3871
7712 544
7712 3104
7712 3872
7713 545
7713 3105
7713 3873
7714 546
7714 3106
7714 3874
7715 547
7715 3107
7715 3875
7716 548
7716 3108
7716 3876
7717 549
7717 3109
7717 3877
7718 550
7718 3110
7718 3878
7719 551
7719 3111
7719 3879
7720 552
7720 3112
7720 3880
7721 553
7721 3113
7721 3881
7722 554
7722 3114
7722 3882
7723 555
7723 3115
7723 3883
7724 556
7724 3116
7724 3884
7725 557
7725 3117
7725 3885
7726 558
7726 3118
7726 3886
7727 559
7727 3119
7727 3887
7728 560
7728 3120
7728 3888
7729 561
7729 3121
7729 3889
7730 562
7730 3122
7730 3890
7731 563
7731 3123
7731 3891
7732 564
7732 3124
7732 3892
7733 565
7733 3125
7733 3893
7734 566
7734 3126
7734 3894
7735 567
7735 3127
7735 3895
7736 568
7736 3128
7736 3896
7737 569
7737 3129
7737 3897
7738 570
7738 3130
7738 3898
7739 571
7739 3131
7739 3899
7740 572
7740 3132
7740 3900
7741 573
7741 3133
7741 3901
7742 574
7742 3134
7742 3902
7743 575
7743 3135
7743 3903
7744 576
7744 3136
7744 3904
7745 577
7745 3137
7745 3905
7746 578
7746 3138
7746 3906
7747 579
7747 3139
7747 3907
7748 580
7748 3140
7748 3908
7749 581
7749 3141
7749 3909
7750 582
7750 3142
7750 3910
7751 583
7751 3143
7751 3911
7752 584
7752 3144
7752 3912
7753 585
7753 3145
7753 3913
7754 586
7754 3146
7754 3914
7755 587
7755 3147
7755 3915
7756 588
7756 3148
7756 3916
7757 589
7757 3149
7757 3917
7758 590
7758 3150
7758 3918
7759 591
7759 3151
7759 3919
7760 592
7760 3152
7760 3920
7761 593
7761 3153
7761 3921
7762 594
7762 3154
7762 3922
7763 595
7763 3155
7763 3923
7764 596
7764 3156
7764 3924
7765 597
7765 3157
7765 3925
7766 598
7766 3158
7766 3926
7767 599
7767 3159
7767 3927
7768 600
7768 3160
7768 3928
7769 601
7769 3161
7769 3929
7770 602
7770 3162
7770 3930
7771 603
7771 3163
7771 3931
7772 604
7772 3164
7772 3932
7773 605
7773 3165
7773 3933
7774 606
7774 3166
7774 3934
7775 607
7775 3167
7775 3935
7776 608
7776 3168
7776 3936
7777 609
7777 3169
7777 3937
7778 610
7778 3170
7778 3938
7779 611
7779 3171
7779 3939
7780 612
7780 3172
7780 3940
7781 613
7781 3173
7781 3941
7782 614
7782 3174
7782 3942
7783 615
7783 3175
7783 3943
7784 616
7784 3176
7784 3944
7785 617
7785 3177
7785 3945
7786 618
7786 3178
7786 3946
7787 619
7787 3179
7787 3947
7788 620
7788 3180
7788 3948
7789 621
7789 3181
7789 3949
7790 622
7790 3182
7790 3950
7791 623
7791 3183
7791 3951
7792 624
7792 3184
7792 3952
7793 625
7793 3185
7793 3953
7794 626
7794 3186
7794 3954
7795 627
7795 3187
7795 3955
7796 628
7796 3188
7796 3956
7797 629
7797 3189
7797 3957
7798 630
7798 3190
7798 3958
7799 631
7799 3191
7799 3959
7800 632
7800 3192
7800 3960
7801 633
7801 3193
7801 3961
7802 634
7802 3194
7802 3962
7803 635
7803 3195
7803 3963
7804 636
7804 3196
7804 3964
7805 637
7805 3197
7805 3965
7806 638
7806 3198
7806 3966
7807 639
7807 3199
7807 3967
7808 640
7808 3200
7808 3968
7809 641
7809 3201
7809 3969
7810 642
7810 3202
7810 3970
7811 643
7811 3203
7811 3971
7812 644
7812 3204
7812 3972
7813 645
7813 3205
7813 3973
7814 646
7814 3206
7814 3974
7815 647
7815 3207
7815 3975
7816 648
7816 3208
7816 3976
7817 649
7817 3209
7817 3977
7818 650
7818 3210
7818 3978
7819 651
7819 3211
7819 3979
7820 652
7820 3212
7820 3980
7821 653
7821 3213
7821 3981
7822 654
7822 3214
7822 3982
7823 655
7823 3215
7823 3983
7824 656
7824 3216
7824 3984
7825 657
7825 3217
7825 3985
7826 658
7826 3218
7826 3986
7827 659
7827 3219
7827 3987
7828 660
7828 3220
7828 3988
7829 661
7829 3221
7829 3989
7830 662
7830 3222
7830 3990
7831 663
7831 3223
7831 3991
7832 664
7832 3224
7832 3992
7833 665
7833 3225
7833 3993
7834 666
7834 3226
7834 3994
7835 667
7835 3227
7835 3995
7836 668
7836 3228
7836 3996
7837 669
7837 3229
7837 3997
7838 670
7838 3230
7838 3998
7839 671
7839 3231
7839 3999
7840 672
7840 3232
7840 4000
7841 673
7841 3233
7841 4001
7842 674
7842 3234
7842 4002
7843 675
7843 3235
7843 4003
7844 676
7844 3236
7844 4004
7845 677
7845 3237
7845 4005
7846 678
7846 3238
7846 4006
7847 679
7847 3239
7847 4007
7848 680
7848 3240
7848 4008
7849 681
7849 3241
7849 4009
7850 682
7850 3242
7850 4010
7851 683
7851 3243
7851 4011
7852 684
7852 3244
7852 4012
7853 685
7853 3245
7853 4013
7854 686
7854 3246
7854 4014
7855 687
7855 3247
7855 4015
7856 688
7856 3248
7856 4016
7857 689
7857 3249
7857 4017
7858 690
7858 3250
7858 4018
7859 691
7859 3251
7859 4019
7860 692
7860 3252
7860 4020
7861 693
7861 3253
7861 4021
7862 694
7862 3254
7862 4022
7863 695
7863 3255
7863 4023
7864 696
7864 3256
7864 4024
7865 697
7865 3257
7865 4025
7866 698
7866 3258
7866 4026
7867 699
7867 3259
7867 4027
7868 700
7868 3260
7868 4028
7869 701
7869 3261
7869 4029
7870 702
7870 3262
7870 4030
7871 703
7871 3263
7871 4031
7872 704
7872 3264
7872 4032
7873 705
7873 3265
7873 4033
7874 706
7874 3266
7874 4034
7875 707
7875 3267
7875 4035
7876 708
7876 3268
7876 4036
7877 709
7877 3269
7877 4037
7878 710
7878 3270
7878 4038
7879 711
7879 3271
7879 4039
7880 712
7880 3272
7880 4040
7881 713
7881 3273
7881 4041
7882 714
7882 3274
7882 4042
7883 715
7883 3275
7883 4043
7884 716
7884 3276
7884 4044
7885 717
7885 3277
7885 4045
7886 718
7886 3278
7886 4046
7887 719
7887 3279
7887 4047
7888 720
7888 3280
7888 4048
7889 721
7889 3281
7889 4049
7890 722
7890 3282
7890 4050
7891 723
7891 3283
7891 4051
7892 724
7892 3284
7892 4052
7893 725
7893 3285
7893 4053
7894 726
7894 3286
7894 4054
7895 727
7895 3287
7895 4055
7896 728
7896 3288
7896 4056
7897 729
7897 3289
7897 4057
7898 730
7898 3290
7898 4058
7899 731
7899 3291
7899 4059
7900 732
7900 3292
7900 4060
7901 733
7901 3293
7901 4061
7902 734
7902 3294
7902 4062
7903 735
7903 3295
7903 4063
7904 736
7904 3296
7904 4064
7905 737
7905 3297
7905 4065
7906 738
7906 3298
7906 4066
7907 739
7907 3299
7907 4067
7908 740
7908 3300
7908 4068
7909 741
7909 3301
7909 4069
7910 742
7910 3302
7910 4070
7911 743
7911 3303
7911 4071
7912 744
7912 3304
7912 4072
7913 745
7913 3305
7913 4073
7914 746
7914 3306
7914 4074
7915 747
7915 3307
7915 4075
7916 748
7916 3308
7916 4076
7917 749
7917 3309
7917 4077
7918 750
7918 3310
7918 4078
7919 751
7919 3311
7919 4079
7920 752
7920 3312
7920 4080
7921 753
7921 3313
7921 4081
7922 754
7922 3314
7922 4082
7923 755
7923 3315
7923 4083
7924 756
7924 3316
7924 4084
7925 757
7925 3317
7925 4085
7926 758
7926 3318
7926 4086
7927 759
7927 3319
7927 4087
7928 760
7928 3320
7928 4088
7929 761
7929 3321
7929 4089
7930 762
7930 3322
7930 4090
7931 763
7931 3323
7931 4091
7932 764
7932 3324
7932 4092
7933 765
7933 3325
7933 4093
7934 766
7934 3326
7934 4094
7935 767
7935 3327
7935 4095
7936 768
7936 3328
7936 4096
7937 769
7937 3329
7937 4097
7938 770
7938 3330
7938 4098
7939 771
7939 3331
7939 4099
7940 772
7940 3332
7940 4100
7941 773
7941 3333
7941 4101
7942 774
7942 3334
7942 4102
7943 775
7943 3335
7943 4103
7944 776
7944 3336
7944 4104
7945 777
7945 3337
7945 4105
7946 778
7946 3338
7946 4106
7947 779
7947 3339
7947 4107
7948 780
7948 3340
7948 4108
7949 781
7949 3341
7949 4109
7950 782
7950 3342
7950 4110
7951 783
7951 3343
7951 4111
7952 784
7952 3344
7952 4112
7953 785
7953 3345
7953 4113
7954 786
7954 3346
7954 4114
7955 787
7955 3347
7955 4115
7956 788
7956 3348
7956 4116
7957 789
7957 3349
7957 4117
7958 790
7958 3350
7958 4118
7959 791
7959 3351
7959 4119
7960 792
7960 3352
7960 4120
7961 793
7961 3353
7961 4121
7962 794
7962 3354
7962 4122
7963 795
7963 3355
7963 4123
7964 796
7964 3356
7964 4124
7965 797
7965 3357
7965 4125
7966 798
7966 3358
7966 4126
7967 799
7967 3359
7967 4127
7968 800
7968 3360
7968 4128
7969 801
7969 3361
7969 4129
7970 802
7970 3362
7970 4130
7971 803
7971 3363
7971 4131
7972 804
7972 3364
7972 4132
7973 805
7973 3365
7973 4133
7974 806
7974 3366
7974 4134
7975 807
7975 3367
7975 4135
7976 808
7976 3368
7976 4136
7977 809
7977 3369
7977 4137
7978 810
7978 3370
7978 4138
7979 811
7979 3371
7979 4139
7980 812
7980 3372
7980 4140
7981 813
7981 3373
7981 4141
7982 814
7982 3374
7982 4142
7983 815
7983 3375
7983 4143
7984 816
7984 3376
7984 4144
7985 817
7985 3377
7985 4145
7986 818
7986 3378
7986 4146
7987 819
7987 3379
7987 4147
7988 820
7988 3380
7988 4148
7989 821
7989 3381
7989 4149
7990 822
7990 3382
7990 4150
7991 823
7991 3383
7991 4151
7992 824
7992 3384
7992 4152
7993 825
7993 3385
7993 4153
7994 826
7994 3386
7994 4154
7995 827
7995 3387
7995 4155
7996 828
7996 3388
7996 4156
7997 829
7997 3389
7997 4157
7998 830
7998 3390
7998 4158
7999 831
7999 3391
7999 4159
8000 832
8000 3392
8000 4160
8001 833
8001 3393
8001 4161
8002 834
8002 3394
8002 4162
8003 835
8003 3395
8003 4163
8004 836
8004 3396
8004 4164
8005 837
8005 3397
8005 4165
8006 838
8006 3398
8006 4166
8007 839
8007 3399
8007 4167
8008 840
8008 3400
8008 4168
8009 841
8009 3401
8009 4169
8010 842
8010 3402
8010 4170
8011 843
8011 3403
8011 4171
8012 844
8012 3404
8012 4172
8013 845
8013 3405
8013 4173
8014 846
8014 3406
8014 4174
8015 847
8015 3407
8015 4175
8016 848
8016 3408
8016 4176
8017 849
8017 3409
8017 4177
8018 850
8018 3410
8018 4178
8019 851
8019 3411
8019 4179
8020 852
8020 3412
8020 4180
8021 853
8021 3413
8021 4181
8022 854
8022 3414
8022 4182
8023 855
8023 3415
8023 4183
8024 856
8024 3416
8024 4184
8025 857
8025 3417
8025 4185
8026 858
8026 3418
8026 4186
8027 859
8027 3419
8027 4187
8028 860
8028 3420
8028 4188
8029 861
8029 3421
8029 4189
8030 862
8030 3422
8030 4190
8031 863
8031 3423
8031 4191
8032 864
8032 3424
8032 4192
8033 865
8033 3425
8033 4193
8034 866
8034 3426
8034 4194
8035 867
8035 3427
8035 4195
8036 868
8036 3428
8036 4196
8037 869
8037 3429
8037 4197
8038 870
8038 3430
8038 4198
8039 871
8039 3431
8039 4199
8040 872
8040 3432
8040 4200
8041 873
8041 3433
8041 4201
8042 874
8042 3434
8042 4202
8043 875
8043 3435
8043 4203
8044 876
8044 3436
8044 4204
8045 877
8045 3437
8045 4205
8046 878
8046 3438
8046 4206
8047 879
8047 3439
8047 4207
8048 880
8048 3440
8048 4208
8049 881
8049 3441
8049 4209
8050 882
8050 3442
8050 4210
8051 883
8051 3443
8051 4211
8052 884
8052 3444
8052 4212
8053 885
8053 3445
8053 4213
8054 886
8054 3446
8054 4214
8055 887
8055 3447
8055 4215
8056 888
8056 3448
8056 4216
8057 889
8057 3449
8057 4217
8058 890
8058 3450
8058 4218
8059 891
8059 3451
8059 4219
8060 892
8060 3452
8060 4220
8061 893
8061 3453
8061 4221
8062 894
8062 3454
8062 4222
8063 895
8063 3455
8063 4223
8064 896
8064 3456
8064 4224
8065 897
8065 3457
8065 4225
8066 898
8066 3458
8066 4226
8067 899
8067 3459
8067 4227
8068 900
8068 3460
8068 4228
8069 901
8069 3461
8069 4229
8070 902
8070 3462
8070 4230
8071 903
8071 3463
8071 4231
8072 904
8072 3464
8072 4232
8073 905
8073 3465
8073 4233
8074 906
8074 3466
8074 4234
8075 907
8075 3467
8075 4235
8076 908
8076 3468
8076 4236
8077 909
8077 3469
8077 4237
8078 910
8078 3470
8078 4238
8079 911
8079 3471
8079 4239
8080 912
8080 3472
8080 4240
8081 913
8081 3473
8081 4241
8082 914
8082 3474
8082 4242
8083 915
8083 3475
8083 4243
8084 916
8084 3476
8084 4244
8085 917
8085 3477
8085 4245
8086 918
8086 3478
8086 4246
8087 919
8087 3479
8087 4247
8088 920
8088 3480
8088 4248
8089 921
8089 3481
8089 4249
8090 922
8090 3482
8090 4250
8091 923
8091 3483
8091 4251
8092 924
8092 3484
8092 4252
8093 925
8093 3485
8093 4253
8094 926
8094 3486
8094 4254
8095 927
8095 3487
8095 4255
8096 928
8096 3488
8096 4256
8097 929
8097 3489
8097 4257
8098 930
8098 3490
8098 4258
8099 931
8099 3491
8099 4259
8100 932
8100 3492
8100 4260
8101 933
8101 3493
8101 4261
8102 934
8102 3494
8102 4262
8103 935
8103 3495
8103 4263
8104 936
8104 3496
8104 4264
8105 937
8105 3497
8105 4265
8106 938
8106 3498
8106 4266
8107 939
8107 3499
8107 4267
8108 940
8108 3500
8108 4268
8109 941
8109 3501
8109 4269
8110 942
8110 3502
8110 4270
8111 943
8111 3503
8111 4271
8112 944
8112 3504
8112 4272
8113 945
8113 3505
8113 4273
8114 946
8114 3506
8114 4274
8115 947
8115 3507
8115 4275
8116 948
8116 3508
8116 4276
8117 949
8117 3509
8117 4277
8118 950
8118 3510
8118 4278
8119 951
8119 3511
8119 4279
8120 952
8120 3512
8120 4280
8121 953
8121 3513
8121 4281
8122 954
8122 3514
8122 4282
8123 955
8123 3515
8123 4283
8124 956
8124 3516
8124 4284
8125 957
8125 3517
8125 4285
8126 958
8126 3518
8126 4286
8127 959
8127 3519
8127 4287
8128 960
8128 3520
8128 4288
8129 961
8129 3521
8129 4289
8130 962
8130 3522
8130 4290
8131 963
8131 3523
8131 4291
8132 964
8132 3524
8132 4292
8133 965
8133 3525
8133 4293
8134 966
8134 3526
8134 4294
8135 967
8135 3527
8135 4295
8136 968
8136 3528
8136 4296
8137 969
8137 3529
8137 4297
8138 970
8138 3530
8138 4298
8139 971
8139 3531
8139 4299
8140 972
8140 3532
8140 4300
8141 973
8141 3533
8141 4301
8142 974
8142 3534
8142 4302
8143 975
8143 3535
8143 4303
8144 976
8144 3536
8144 4304
8145 977
8145 3537
8145 4305
8146 978
8146 3538
8146 4306
8147 979
8147 3539
8147 4307
8148 980
8148 3540
8148 4308
8149 981
8149 3541
8149 4309
8150 982
8150 3542
8150 4310
8151 983
8151 3543
8151 4311
8152 984
8152 3544
8152 4312
8153 985
8153 3545
8153 4313
8154 986
8154 3546
8154 4314
8155 987
8155 3547
8155 4315
8156 988
8156 3548
8156 4316
8157 989
8157 3549
8157 4317
8158 990
8158 3550
8158 4318
8159 991
8159 3551
8159 4319
8160 992
8160 3552
8160 4320
8161 993
8161 3553
8161 4321
8162 994
8162 3554
8162 4322
8163 995
8163 3555
8163 4323
8164 996
8164 3556
8164 4324
8165 997
8165 3557
8165 4325
8166 998
8166 3558
8166 4326
8167 999
8167 3559
8167 4327
8168 1000
8168 3560
8168 4328
8169 1001
8169 3561
8169 4329
8170 1002
8170 3562
8170 4330
8171 1003
8171 3563
8171 4331
8172 1004
8172 3564
8172 4332
8173 1005
8173 3565
8173 4333
8174 1006
8174 3566
8174 4334
8175 1007
8175 3567
8175 4335
8176 1008
8176 3568
8176 4336
8177 1009
8177 3569
8177 4337
8178 1010
8178 3570
8178 4338
8179 1011
8179 3571
8179 4339
8180 1012
8180 3572
8180 4340
8181 1013
8181 3573
8181 4341
8182 1014
8182 3574
8182 4342
8183 1015
8183 3575
8183 4343
8184 1016
8184 3576
8184 4344
8185 1017
8185 3577
8185 4345
8186 1018
8186 3578
8186 4346
8187 1019
8187 3579
8187 4347
8188 1020
8188 3580
8188 4348
8189 1021
8189 3581
8189 4349
8190 1022
8190 3582
8190 4350
8191 1023
8191 3583
8191 4351
8192 1024
8192 1792
8192 4352
8193 1025
8193 1793
8193 4353
8194 1026
8194 1794
8194 4354
8195 1027
8195 1795
8195 4355
8196 1028
8196 1796
8196 4356
8197 1029
8197 1797
8197 4357
8198 1030
8198 1798
8198 4358
8199 1031
8199 1799
8199 4359
8200 1032
8200 1800
8200 4360
8201 1033
8201 1801
8201 4361
8202 1034
8202 1802
8202 4362
8203 1035
8203 1803
8203 4363
8204 1036
8204 1804
8204 4364
8205 1037
8205 1805
8205 4365
8206 1038
8206 1806
8206 4366
8207 1039
8207 1807
8207 4367
8208 1040
8208 1808
8208 4368
8209 1041
8209 1809
8209 4369
8210 1042
8210 1810
8210 4370
8211 1043
8211 1811
8211 4371
8212 1044
8212 1812
8212 4372
8213 1045
8213 1813
8213 4373
8214 1046
8214 1814
8214 4374
8215 1047
8215 1815
8215 4375
8216 1048
8216 1816
8216 4376
8217 1049
8217 1817
8217 4377
8218 1050
8218 1818
8218 4378
8219 1051
8219 1819
8219 4379
8220 1052
8220 1820
8220 4380
8221 1053
8221 1821
8221 4381
8222 1054
8222 1822
8222 4382
8223 1055
8223 1823
8223 4383
8224 1056
8224 1824
8224 4384
8225 1057
8225 1825
8225 4385
8226 1058
8226 1826
8226 4386
8227 1059
8227 1827
8227 4387
8228 1060
8228 1828
8228 4388
8229 1061
8229 1829
8229 4389
8230 1062
8230 1830
8230 4390
8231 1063
8231 1831
8231 4391
8232 1064
8232 1832
8232 4392
8233 1065
8233 1833
8233 4393
8234 1066
8234 1834
8234 4394
8235 1067
8235 1835
8235 4395
8236 1068
8236 1836
8236 4396
8237 1069
8237 1837
8237 4397
8238 1070
8238 1838
8238 4398
8239 1071
8239 1839
8239 4399
8240 1072
8240 1840
8240 4400
8241 1073
8241 1841
8241 4401
8242 1074
8242 1842
8242 4402
8243 1075
8243 1843
8243 4403
8244 1076
8244 1844
8244 4404
8245 1077
8245 1845
8245 4405
8246 1078
8246 1846
8246 4406
8247 1079
8247 1847
8247 4407
8248 1080
8248 1848
8248 4408
8249 1081
8249 1849
8249 4409
8250 1082
8250 1850
8250 4410
8251 1083
8251 1851
8251 4411
8252 1084
8252 1852
8252 4412
8253 1085
8253 1853
8253 4413
8254 1086
8254 1854
8254 4414
8255 1087
8255 1855
8255 4415
8256 1088
8256 1856
8256 4416
8257 1089
8257 1857
8257 4417
8258 1090
8258 1858
8258 4418
8259 1091
8259 1859
8259 4419
8260 1092
8260 1860
8260 4420
8261 1093
8261 1861
8261 4421
8262 1094
8262 1862
8262 4422
8263 1095
8263 1863
8263 4423
8264 1096
8264 1864
8264 4424
8265 1097
8265 1865
8265 4425
8266 1098
8266 1866
8266 4426
8267 1099
8267 1867
8267 4427
8268 1100
8268 1868
8268 4428
8269 1101
8269 1869
8269 4429
8270 1102
8270 1870
8270 4430
8271 1103
8271 1871
8271 4431
8272 1104
8272 1872
8272 4432
8273 1105
8273 1873
8273 4433
8274 1106
8274 1874
8274 4434
8275 1107
8275 1875
8275 4435
8276 1108
8276 1876
8276 4436
8277 1109
8277 1877
8277 4437
8278 1110
8278 1878
8278 4438
8279 1111
8279 1879
8279 4439
8280 1112
8280 1880
8280 4440
8281 1113
8281 1881
8281 4441
8282 1114
8282 1882
8282 4442
8283 1115
8283 1883
8283 4443
8284 1116
8284 1884
8284 4444
8285 1117
8285 1885
8285 4445
8286 1118
8286 1886
8286 4446
8287 1119
8287 1887
8287 4447
8288 1120
8288 1888
8288 4448
8289 1121
8289 1889
8289 4449
8290 1122
8290 1890
8290 4450
8291 1123
8291 1891
8291 4451
8292 1124
8292 1892
8292 4452
8293 1125
8293 1893
8293 4453
8294 1126
8294 1894
8294 4454
8295 1127
8295 1895
8295 4455
8296 1128
8296 1896
8296 4456
8297 1129
8297 1897
8297 4457
8298 1130
8298 1898
8298 4458
8299 1131
8299 1899
8299 4459
8300 1132
8300 1900
8300 4460
8301 1133
8301 1901
8301 4461
8302 1134
8302 1902
8302 4462
8303 1135
8303 1903
8303 4463
8304 1136
8304 1904
8304 4464
8305 1137
8305 1905
8305 4465
8306 1138
8306 1906
8306 4466
8307 1139
8307 1907
8307 4467
8308 1140
8308 1908
8308 4468
8309 1141
8309 1909
8309 4469
8310 1142
8310 1910
8310 4470
8311 1143
8311 1911
8311 4471
8312 1144
8312 1912
8312 4472
8313 1145
8313 1913
8313 4473
8314 1146
8314 1914
8314 4474
8315 1147
8315 1915
8315 4475
8316 1148
8316 1916
8316 4476
8317 1149
8317 1917
8317 4477
8318 1150
8318 1918
8318 4478
8319 1151
8319 1919
8319 4479
8320 1152
8320 1920
8320 4480
8321 1153
8321 1921
8321 4481
8322 1154
8322 1922
8322 4482
8323 1155
8323 1923
8323 4483
8324 1156
8324 1924
8324 4484
8325 1157
8325 1925
8325 4485
8326 1158
8326 1926
8326 4486
8327 1159
8327 1927
8327 4487
8328 1160
8328 1928
8328 4488
8329 1161
8329 1929
8329 4489
8330 1162
8330 1930
8330 4490
8331 1163
8331 1931
8331 4491
8332 1164
8332 1932
8332 4492
8333 1165
8333 1933
8333 4493
8334 1166
8334 1934
8334 4494
8335 1167
8335 1935
8335 4495
8336 1168
8336 1936
8336 4496
8337 1169
8337 1937
8337 4497
8338 1170
8338 1938
8338 4498
8339 1171
8339 1939
8339 4499
8340 1172
8340 1940
8340 4500
8341 1173
8341 1941
8341 4501
8342 1174
8342 1942
8342 4502
8343 1175
8343 1943
8343 4503
8344 1176
8344 1944
8344 4504
8345 1177
8345 1945
8345 4505
8346 1178
8346 1946
8346 4506
8347 1179
8347 1947
8347 4507
8348 1180
8348 1948
8348 4508
8349 1181
8349 1949
8349 4509
8350 1182
8350 1950
8350 4510
8351 1183
8351 1951
8351 4511
8352 1184
8352 1952
8352 4512
8353 1185
8353 1953
8353 4513
8354 1186
8354 1954
8354 4514
8355 1187
8355 1955
8355 4515
8356 1188
8356 1956
8356 4516
8357 1189
8357 1957
8357 4517
8358 1190
8358 1958
8358 4518
8359 1191
8359 1959
8359 4519
8360 1192
8360 1960
8360 4520
8361 1193
8361 1961
8361 4521
8362 1194
8362 1962
8362 4522
8363 1195
8363 1963
8363 4523
8364 1196
8364 1964
8364 4524
8365 1197
8365 1965
8365 4525
8366 1198
8366 1966
8366 4526
8367 1199
8367 1967
8367 4527
8368 1200
8368 1968
8368 4528
8369 1201
8369 1969
8369 4529
8370 1202
8370 1970
8370 4530
8371 1203
8371 1971
8371 4531
8372 1204
8372 1972
8372 4532
8373 1205
8373 1973
8373 4533
8374 1206
8374 1974
8374 4534
8375 1207
8375 1975
8375 4535
8376 1208
8376 1976
8376 4536
8377 1209
8377 1977
8377 4537
8378 1210
8378 1978
8378 4538
8379 1211
8379 1979
8379 4539
8380 1212
8380 1980
8380 4540
8381 1213
8381 1981
8381 4541
8382 1214
8382 1982
8382 4542
8383 1215
8383 1983
8383 4543
8384 1216
8384 1984
8384 4544
8385 1217
8385 1985
8385 4545
8386 1218
8386 1986
8386 4546
8387 1219
8387 1987
8387 4547
8388 1220
8388 1988
8388 4548
8389 1221
8389 1989
8389 4549
8390 1222
8390 1990
8390 4550
8391 1223
8391 1991
8391 4551
8392 1224
8392 1992
8392 4552
8393 1225
8393 1993
8393 4553
8394 1226
8394 1994
8394 4554
8395 1227
8395 1995
8395 4555
8396 1228
8396 1996
8396 4556
8397 1229
8397 1997
8397 4557
8398 1230
8398 1998
8398 4558
8399 1231
8399 1999
8399 4559
8400 1232
8400 2000
8400 4560
8401 1233
8401 2001
8401 4561
8402 1234
8402 2002
8402 4562
8403 1235
8403 2003
8403 4563
8404 1236
8404 2004
8404 4564
8405 1237
8405 2005
8405 4565
8406 1238
8406 2006
8406 4566
8407 1239
8407 2007
8407 4567
8408 1240
8408 2008
8408 4568
8409 1241
8409 2009
8409 4569
8410 1242
8410 2010
8410 4570
8411 1243
8411 2011
8411 4571
8412 1244
8412 2012
8412 4572
8413 1245
8413 2013
8413 4573
8414 1246
8414 2014
8414 4574
8415 1247
8415 2015
8415 4575
8416 1248
8416 2016
8416 4576
8417 1249
8417 2017
8417 4577
8418 1250
8418 2018
8418 4578
8419 1251
8419 2019
8419 4579
8420 1252
8420 2020
8420 4580
8421 1253
8421 2021
8421 4581
8422 1254
8422 2022
8422 4582
8423 1255
8423 2023
8423 4583
8424 1256
8424 2024
8424 4584
8425 1257
8425 2025
8425 4585
8426 1258
8426 2026
8426 4586
8427 1259
8427 2027
8427 4587
8428 1260
8428 2028
8428 4588
8429 1261
8429 2029
8429 4589
8430 1262
8430 2030
8430 4590
8431 1263
8431 2031
8431 4591
8432 1264
8432 2032
8432 4592
8433 1265
8433 2033
8433 4593
8434 1266
8434 2034
8434 4594
8435 1267
8435 2035
8435 4595
8436 1268
8436 2036
8436 4596
8437 1269
8437 2037
8437 4597
8438 1270
8438 2038
8438 4598
8439 1271
8439 2039
8439 4599
8440 1272
8440 2040
8440 4600
8441 1273
8441 2041
8441 4601
8442 1274
8442 2042
8442 4602
8443 1275
8443 2043
8443 4603
8444 1276
8444 2044
8444 4604
8445 1277
8445 2045
8445 4605
8446 1278
8446 2046
8446 4606
8447 1279
8447 2047
8447 4607
8448 1280
8448 2048
8448 4608
8449 1281
8449 2049
8449 4609
8450 1282
8450 2050
8450 4610
8451 1283
8451 2051
8451 4611
8452 1284
8452 2052
8452 4612
8453 1285
8453 2053
8453 4613
8454 1286
8454 2054
8454 4614
8455 1287
8455 2055
8455 4615
8456 1288
8456 2056
8456 4616
8457 1289
8457 2057
8457 4617
8458 1290
8458 2058
8458 4618
8459 1291
8459 2059
8459 4619
8460 1292
8460 2060
8460 4620
8461 1293
8461 2061
8461 4621
8462 1294
8462 2062
8462 4622
8463 1295
8463 2063
8463 4623
8464 1296
8464 2064
8464 4624
8465 1297
8465 2065
8465 4625
8466 1298
8466 2066
8466 4626
8467 1299
8467 2067
8467 4627
8468 1300
8468 2068
8468 4628
8469 1301
8469 2069
8469 4629
8470 1302
8470 2070
8470 4630
8471 1303
8471 2071
8471 4631
8472 1304
8472 2072
8472 4632
8473 1305
8473 2073
8473 4633
8474 1306
8474 2074
8474 4634
8475 1307
8475 2075
8475 4635
8476 1308
8476 2076
8476 4636
8477 1309
8477 2077
8477 4637
8478 1310
8478 2078
8478 4638
8479 1311
8479 2079
8479 4639
8480 1312
8480 2080
8480 4640
8481 1313
8481 2081
8481 4641
8482 1314
8482 2082
8482 4642
8483 1315
8483 2083
8483 4643
8484 1316
8484 2084
8484 4644
8485 1317
8485 2085
8485 4645
8486 1318
8486 2086
8486 4646
8487 1319
8487 2087
8487 4647
8488 1320
8488 2088
8488 4648
8489 1321
8489 2089
8489 4649
8490 1322
8490 2090
8490 4650
8491 1323
8491 2091
8491 4651
8492 1324
8492 2092
8492 4652
8493 1325
8493 2093
8493 4653
8494 1326
8494 2094
8494 4654
8495 1327
8495 2095
8495 4655
8496 1328
8496 2096
8496 4656
8497 1329
8497 2097
8497 4657
8498 1330
8498 2098
8498 4658
8499 1331
8499 2099
8499 4659
8500 1332
8500 2100
8500 4660
8501 1333
8501 2101
8501 4661
8502 1334
8502 2102
8502 4662
8503 1335
8503 2103
8503 4663
8504 1336
8504 2104
8504 4664
8505 1337
8505 2105
8505 4665
8506 1338
8506 2106
8506 4666
8507 1339
8507 2107
8507 4667
8508 1340
8508 2108
8508 4668
8509 1341
8509 2109
8509 4669
8510 1342
8510 2110
8510 4670
8511 1343
8511 2111
8511 4671
8512 1344
8512 2112
8512 4672
8513 1345
8513 2113
8513 4673
8514 1346
8514 2114
8514 4674
8515 1347
8515 2115
8515 4675
8516 1348
8516 2116
8516 4676
8517 1349
8517 2117
8517 4677
8518 1350
8518 2118
8518 4678
8519 1351
8519 2119
8519 4679
8520 1352
8520 2120
8520 4680
8521 1353
8521 2121
8521 4681
8522 1354
8522 2122
8522 4682
8523 1355
8523 2123
8523 4683
8524 1356
8524 2124
8524 4684
8525 1357
8525 2125
8525 4685
8526 1358
8526 2126
8526 4686
8527 1359
8527 2127
8527 4687
8528 1360
8528 2128
8528 4688
8529 1361
8529 2129
8529 4689
8530 1362
8530 2130
8530 4690
8531 1363
8531 2131
8531 4691
8532 1364
8532 2132
8532 4692
8533 1365
8533 2133
8533 4693
8534 1366
8534 2134
8534 4694
8535 1367
8535 2135
8535 4695
8536 1368
8536 2136
8536 4696
8537 1369
8537 2137
8537 4697
8538 1370
8538 2138
8538 4698
8539 1371
8539 2139
8539 4699
8540 1372
8540 2140
8540 4700
8541 1373
8541 2141
8541 4701
8542 1374
8542 2142
8542 4702
8543 1375
8543 2143
8543 4703
8544 1376
8544 2144
8544 4704
8545 1377
8545 2145
8545 4705
8546 1378
8546 2146
8546 4706
8547 1379
8547 2147
8547 4707
8548 1380
8548 2148
8548 4708
8549 1381
8549 2149
8549 4709
8550 1382
8550 2150
8550 4710
8551 1383
8551 2151
8551 4711
8552 1384
8552 2152
8552 4712
8553 1385
8553 2153
8553 4713
8554 1386
8554 2154
8554 4714
8555 1387
8555 2155
8555 4715
8556 1388
8556 2156
8556 4716
8557 1389
8557 2157
8557 4717
8558 1390
8558 2158
8558 4718
8559 1391
8559 2159
8559 4719
8560 1392
8560 2160
8560 4720
8561 1393
8561 2161
8561 4721
8562 1394
8562 2162
8562 4722
8563 1395
8563 2163
8563 4723
8564 1396
8564 2164
8564 4724
8565 1397
8565 2165
8565 4725
8566 1398
8566 2166
8566 4726
8567 1399
8567 2167
8567 4727
8568 1400
8568 2168
8568 4728
8569 1401
8569 2169
8569 4729
8570 1402
8570 2170
8570 4730
8571 1403
8571 2171
8571 4731
8572 1404
8572 2172
8572 4732
8573 1405
8573 2173
8573 4733
8574 1406
8574 2174
8574 4734
8575 1407
8575 2175
8575 4735
8576 1408
8576 2176
8576 4736
8577 1409
8577 2177
8577 4737
8578 1410
8578 2178
8578 4738
8579 1411
8579 2179
8579 4739
8580 1412
8580 2180
8580 4740
8581 1413
8581 2181
8581 4741
8582 1414
8582 2182
8582 4742
8583 1415
8583 2183
8583 4743
8584 1416
8584 2184
8584 4744
8585 1417
8585 2185
8585 4745
8586 1418
8586 2186
8586 4746
8587 1419
8587 2187
8587 4747
8588 1420
8588 2188
8588 4748
8589 1421
8589 2189
8589 4749
8590 1422
8590 2190
8590 4750
8591 1423
8591 2191
8591 4751
8592 1424
8592 2192
8592 4752
8593 1425
8593 2193
8593 4753
8594 1426
8594 2194
8594 4754
8595 1427
8595 2195
8595 4755
8596 1428
8596 2196
8596 4756
8597 1429
8597 2197
8597 4757
8598 1430
8598 2198
8598 4758
8599 1431
8599 2199
8599 4759
8600 1432
8600 2200
8600 4760
8601 1433
8601 2201
8601 4761
8602 1434
8602 2202
8602 4762
8603 1435
8603 2203
8603 4763
8604 1436
8604 2204
8604 4764
8605 1437
8605 2205
8605 4765
8606 1438
8606 2206
8606 4766
8607 1439
8607 2207
8607 4767
8608 1440
8608 2208
8608 4768
8609 1441
8609 2209
8609 4769
8610 1442
8610 2210
8610 4770
8611 1443
8611 2211
8611 4771
8612 1444
8612 2212
8612 4772
8613 1445
8613 2213
8613 4773
8614 1446
8614 2214
8614 4774
8615 1447
8615 2215
8615 4775
8616 1448
8616 2216
8616 4776
8617 1449
8617 2217
8617 4777
8618 1450
8618 2218
8618 4778
8619 1451
8619 2219
8619 4779
8620 1452
8620 2220
8620 4780
8621 1453
8621 2221
8621 4781
8622 1454
8622 2222
8622 4782
8623 1455
8623 2223
8623 4783
8624 1456
8624 2224
8624 4784
8625 1457
8625 2225
8625 4785
8626 1458
8626 2226
8626 4786
8627 1459
8627 2227
8627 4787
8628 1460
8628 2228
8628 4788
8629 1461
8629 2229
8629 4789
8630 1462
8630 2230
8630 4790
8631 1463
8631 2231
8631 4791
8632 1464
8632 2232
8632 4792
8633 1465
8633 2233
8633 4793
8634 1466
8634 2234
8634 4794
8635 1467
8635 2235
8635 4795
8636 1468
8636 2236
8636 4796
8637 1469
8637 2237
8637 4797
8638 1470
8638 2238
8638 4798
8639 1471
8639 2239
8639 4799
8640 1472
8640 2240
8640 4800
8641 1473
8641 2241
8641 4801
8642 1474
8642 2242
8642 4802
8643 1475
8643 2243
8643 4803
8644 1476
8644 2244
8644 4804
8645 1477
8645 2245
8645 4805
8646 1478
8646 2246
8646 4806
8647 1479
8647 2247
8647 4807
8648 1480
8648 2248
8648 4808
8649 1481
8649 2249
8649 4809
8650 1482
8650 2250
8650 4810
8651 1483
8651 2251
8651 4811
8652 1484
8652 2252
8652 4812
8653 1485
8653 2253
8653 4813
8654 1486
8654 2254
8654 4814
8655 1487
8655 2255
8655 4815
8656 1488
8656 2256
8656 4816
8657 1489
8657 2257
8657 4817
8658 1490
8658 2258
8658 4818
8659 1491
8659 2259
8659 4819
8660 1492
8660 2260
8660 4820
8661 1493
8661 2261
8661 4821
8662 1494
8662 2262
8662 4822
8663 1495
8663 2263
8663 4823
8664 1496
8664 2264
8664 4824
8665 1497
8665 2265
8665 4825
8666 1498
8666 2266
8666 4826
8667 1499
8667 2267
8667 4827
8668 1500
8668 2268
8668 4828
8669 1501
8669 2269
8669 4829
8670 1502
8670 2270
8670 4830
8671 1503
8671 2271
8671 4831
8672 1504
8672 2272
8672 4832
8673 1505
8673 2273
8673 4833
8674 1506
8674 2274
8674 4834
8675 1507
8675 2275
8675 4835
8676 1508
8676 2276
8676 4836
8677 1509
8677 2277
8677 4837
8678 1510
8678 2278
8678 4838
8679 1511
8679 2279
8679 4839
8680 1512
8680 2280
8680 4840
8681 1513
8681 2281
8681 4841
8682 1514
8682 2282
8682 4842
8683 1515
8683 2283
8683 4843
8684 1516
8684 2284
8684 4844
8685 1517
8685 2285
8685 4845
8686 1518
8686 2286
8686 4846
8687 1519
8687 2287
8687 4847
8688 1520
8688 2288
8688 4848
8689 1521
8689 2289
8689 4849
8690 1522
8690 2290
8690 4850
8691 1523
8691 2291
8691 4851
8692 1524
8692 2292
8692 4852
8693 1525
8693 2293
8693 4853
8694 1526
8694 2294
8694 4854
8695 1527
8695 2295
8695 4855
8696 1528
8696 2296
8696 4856
8697 1529
8697 2297
8697 4857
8698 1530
8698 2298
8698 4858
8699 1531
8699 2299
8699 4859
8700 1532
8700 2300
8700 4860
8701 1533
8701 2301
8701 4861
8702 1534
8702 2302
8702 4862
8703 1535
8703 2303
8703 4863
8704 1536
8704 2304
8704 4864
8705 1537
8705 2305
8705 4865
8706 1538
8706 2306
8706 4866
8707 1539
8707 2307
8707 4867
8708 1540
8708 2308
8708 4868
8709 1541
8709 2309
8709 4869
8710 1542
8710 2310
8710 4870
8711 1543
8711 2311
8711 4871
8712 1544
8712 2312
8712 4872
8713 1545
8713 2313
8713 4873
8714 1546
8714 2314
8714 4874
8715 1547
8715 2315
8715 4875
8716 1548
8716 2316
8716 4876
8717 1549
8717 2317
8717 4877
8718 1550
8718 2318
8718 4878
8719 1551
8719 2319
8719 4879
8720 1552
8720 2320
8720 4880
8721 1553
8721 2321
8721 4881
8722 1554
8722 2322
8722 4882
8723 1555
8723 2323
8723 4883
8724 1556
8724 2324
8724 4884
8725 1557
8725 2325
8725 4885
8726 1558
8726 2326
8726 4886
8727 1559
8727 2327
8727 4887
8728 1560
8728 2328
8728 4888
8729 1561
8729 2329
8729 4889
8730 1562
8730 2330
8730 4890
8731 1563
8731 2331
8731 4891
8732 1564
8732 2332
8732 4892
8733 1565
8733 2333
8733 4893
8734 1566
8734 2334
8734 4894
8735 1567
8735 2335
8735 4895
8736 1568
8736 2336
8736 4896
8737 1569
8737 2337
8737 4897
8738 1570
8738 2338
8738 4898
8739 1571
8739 2339
8739 4899
8740 1572
8740 2340
8740 4900
8741 1573
8741 2341
8741 4901
8742 1574
8742 2342
8742 4902
8743 1575
8743 2343
8743 4903
8744 1576
8744 2344
8744 4904
8745 1577
8745 2345
8745 4905
8746 1578
8746 2346
8746 4906
8747 1579
8747 2347
8747 4907
8748 1580
8748 2348
8748 4908
8749 1581
8749 2349
8749 4909
8750 1582
8750 2350
8750 4910
8751 1583
8751 2351
8751 4911
8752 1584
8752 2352
8752 4912
8753 1585
8753 2353
8753 4913
8754 1586
8754 2354
8754 4914
8755 1587
8755 2355
8755 4915
8756 1588
8756 2356
8756 4916
8757 1589
8757 2357
8757 4917
8758 1590
8758 2358
8758 4918
8759 1591
8759 2359
8759 4919
8760 1592
8760 2360
8760 4920
8761 1593
8761 2361
8761 4921
8762 1594
8762 2362
8762 4922
8763 1595
8763 2363
8763 4923
8764 1596
8764 2364
8764 4924
8765 1597
8765 2365
8765 4925
8766 1598
8766 2366
8766 4926
8767 1599
8767 2367
8767 4927
8768 1600
8768 2368
8768 4928
8769 1601
8769 2369
8769 4929
8770 1602
8770 2370
8770 4930
8771 1603
8771 2371
8771 4931
8772 1604
8772 2372
8772 4932
8773 1605
8773 2373
8773 4933
8774 1606
8774 2374
8774 4934
8775 1607
8775 2375
8775 4935
8776 1608
8776 2376
8776 4936
8777 1609
8777 2377
8777 4937
8778 1610
8778 2378
8778 4938
8779 1611
8779 2379
8779 4939
8780 1612
8780 2380
8780 4940
8781 1613
8781 2381
8781 4941
8782 1614
8782 2382
8782 4942
8783 1615
8783 2383
8783 4943
8784 1616
8784 2384
8784 4944
8785 1617
8785 2385
8785 4945
8786 1618
8786 2386
8786 4946
8787 1619
8787 2387
8787 4947
8788 1620
8788 2388
8788 4948
8789 1621
8789 2389
8789 4949
8790 1622
8790 2390
8790 4950
8791 1623
8791 2391
8791 4951
8792 1624
8792 2392
8792 4952
8793 1625
8793 2393
8793 4953
8794 1626
8794 2394
8794 4954
8795 1627
8795 2395
8795 4955
8796 1628
8796 2396
8796 4956
8797 1629
8797 2397
8797 4957
8798 1630
8798 2398
8798 4958
8799 1631
8799 2399
8799 4959
8800 1632
8800 2400
8800 4960
8801 1633
8801 2401
8801 4961
8802 1634
8802 2402
8802 4962
8803 1635
8803 2403
8803 4963
8804 1636
8804 2404
8804 4964
8805 1637
8805 2405
8805 4965
8806 1638
8806 2406
8806 4966
8807 1639
8807 2407
8807 4967
8808 1640
8808 2408
8808 4968
8809 1641
8809 2409
8809 4969
8810 1642
8810 2410
8810 4970
8811 1643
8811 2411
8811 4971
8812 1644
8812 2412
8812 4972
8813 1645
8813 2413
8813 4973
8814 1646
8814 2414
8814 4974
8815 1647
8815 2415
8815 4975
8816 1648
8816 2416
8816 4976
8817 1649
8817 2417
8817 4977
8818 1650
8818 2418
8818 4978
8819 1651
8819 2419
8819 4979
8820 1652
8820 2420
8820 4980
8821 1653
8821 2421
8821 4981
8822 1654
8822 2422
8822 4982
8823 1655
8823 2423
8823 4983
8824 1656
8824 2424
8824 4984
8825 1657
8825 2425
8825 4985
8826 1658
8826 2426
8826 4986
8827 1659
8827 2427
8827 4987
8828 1660
8828 2428
8828 4988
8829 1661
8829 2429
8829 4989
8830 1662
8830 2430
8830 4990
8831 1663
8831 2431
8831 4991
8832 1664
8832 2432
8832 4992
8833 1665
8833 2433
8833 4993
8834 1666
8834 2434
8834 4994
8835 1667
8835 2435
8835 4995
8836 1668
8836 2436
8836 4996
8837 1669
8837 2437
8837 4997
8838 1670
8838 2438
8838 4998
8839 1671
8839 2439
8839 4999
8840 1672
8840 2440
8840 5000
8841 1673
8841 2441
8841 5001
8842 1674
8842 2442
8842 5002
8843 1675
8843 2443
8843 5003
8844 1676
8844 2444
8844 5004
8845 1677
8845 2445
8845 5005
8846 1678
8846 2446
8846 5006
8847 1679
8847 2447
8847 5007
8848 1680
8848 2448
8848 5008
8849 1681
8849 2449
8849 5009
8850 1682
8850 2450
8850 5010
8851 1683
8851 2451
8851 5011
8852 1684
8852 2452
8852 5012
8853 1685
8853 2453
8853 5013
8854 1686
8854 2454
8854 5014
8855 1687
8855 2455
8855 5015
8856 1688
8856 2456
8856 5016
8857 1689
8857 2457
8857 5017
8858 1690
8858 2458
8858 5018
8859 1691
8859 2459
8859 5019
8860 1692
8860 2460
8860 5020
8861 1693
8861 2461
8861 5021
8862 1694
8862 2462
8862 5022
8863 1695
8863 2463
8863 5023
8864 1696
8864 2464
8864 5024
8865 1697
8865 2465
8865 5025
8866 1698
8866 2466
8866 5026
8867 1699
8867 2467
8867 5027
8868 1700
8868 2468
8868 5028
8869 1701
8869 2469
8869 5029
8870 1702
8870 2470
8870 5030
8871 1703
8871 2471
8871 5031
8872 1704
8872 2472
8872 5032
8873 1705
8873 2473
8873 5033
8874 1706
8874 2474
8874 5034
8875 1707
8875 2475
8875 5035
8876 1708
8876 2476
8876 5036
8877 1709
8877 2477
8877 5037
8878 1710
8878 2478
8878 5038
8879 1711
8879 2479
8879 5039
8880 1712
8880 2480
8880 5040
8881 1713
8881 2481
8881 5041
8882 1714
8882 2482
8882 5042
8883 1715
8883 2483
8883 5043
8884 1716
8884 2484
8884 5044
8885 1717
8885 2485
8885 5045
8886 1718
8886 2486
8886 5046
8887 1719
8887 2487
8887 5047
8888 1720
8888 2488
8888 5048
8889 1721
8889 2489
8889 5049
8890 1722
8890 2490
8890 5050
8891 1723
8891 2491
8891 5051
8892 1724
8892 2492
8892 5052
8893 1725
8893 2493
8893 5053
8894 1726
8894 2494
8894 5054
8895 1727
8895 2495
8895 5055
8896 1728
8896 2496
8896 5056
8897 1729
8897 2497
8897 5057
8898 1730
8898 2498
8898 5058
8899 1731
8899 2499
8899 5059
8900 1732
8900 2500
8900 5060
8901 1733
8901 2501
8901 5061
8902 1734
8902 2502
8902 5062
8903 1735
8903 2503
8903 5063
8904 1736
8904 2504
8904 5064
8905 1737
8905 2505
8905 5065
8906 1738
8906 2506
8906 5066
8907 1739
8907 2507
8907 5067
8908 1740
8908 2508
8908 5068
8909 1741
8909 2509
8909 5069
8910 1742
8910 2510
8910 5070
8911 1743
8911 2511
8911 5071
8912 1744
8912 2512
8912 5072
8913 1745
8913 2513
8913 5073
8914 1746
8914 2514
8914 5074
8915 1747
8915 2515
8915 5075
8916 1748
8916 2516
8916 5076
8917 1749
8917 2517
8917 5077
8918 1750
8918 2518
8918 5078
8919 1751
8919 2519
8919 5079
8920 1752
8920 2520
8920 5080
8921 1753
8921 2521
8921 5081
8922 1754
8922 2522
8922 5082
8923 1755
8923 2523
8923 5083
8924 1756
8924 2524
8924 5084
8925 1757
8925 2525
8925 5085
8926 1758
8926 2526
8926 5086
8927 1759
8927 2527
8927 5087
8928 1760
8928 2528
8928 5088
8929 1761
8929 2529
8929 5089
8930 1762
8930 2530
8930 5090
8931 1763
8931 2531
8931 5091
8932 1764
8932 2532
8932 5092
8933 1765
8933 2533
8933 5093
8934 1766
8934 2534
8934 5094
8935 1767
8935 2535
8935 5095
8936 1768
8936 2536
8936 5096
8937 1769
8937 2537
8937 5097
8938 1770
8938 2538
8938 5098
8939 1771
8939 2539
8939 5099
8940 1772
8940 2540
8940 5100
8941 1773
8941 2541
8941 5101
8942 1774
8942 2542
8942 5102
8943 1775
8943 2543
8943 5103
8944 1776
8944 2544
8944 5104
8945 1777
8945 2545
8945 5105
8946 1778
8946 2546
8946 5106
8947 1779
8947 2547
8947 5107
8948 1780
8948 2548
8948 5108
8949 1781
8949 2549
8949 5109
8950 1782
8950 2550
8950 5110
8951 1783
8951 2551
8951 5111
8952 1784
8952 2552
8952 5112
8953 1785
8953 2553
8953 5113
8954 1786
8954 2554
8954 5114
8955 1787
8955 2555
8955 5115
8956 1788
8956 2556
8956 5116
8957 1789
8957 2557
8957 5117
8958 1790
8958 2558
8958 5118
8959 1791
8959 2559
8959 5119
8960 0
8960 2304
8960 4608
8961 1
8961 2305
8961 4609
8962 2
8962 2306
8962 4610
8963 3
8963 2307
8963 4611
8964 4
8964 2308
8964 4612
8965 5
8965 2309
8965 4613
8966 6
8966 2310
8966 4614
8967 7
8967 2311
8967 4615
8968 8
8968 2312
8968 4616
8969 9
8969 2313
8969 4617
8970 10
8970 2314
8970 4618
8971 11
8971 2315
8971 4619
8972 12
8972 2316
8972 4620
8973 13
8973 2317
8973 4621
8974 14
8974 2318
8974 4622
8975 15
8975 2319
8975 4623
8976 16
8976 2320
8976 4624
8977 17
8977 2321
8977 4625
8978 18
8978 2322
8978 4626
8979 19
8979 2323
8979 4627
8980 20
8980 2324
8980 4628
8981 21
8981 2325
8981 4629
8982 22
8982 2326
8982 4630
8983 23
8983 2327
8983 4631
8984 24
8984 2328
8984 4632
8985 25
8985 2329
8985 4633
8986 26
8986 2330
8986 4634
8987 27
8987 2331
8987 4635
8988 28
8988 2332
8988 4636
8989 29
8989 2333
8989 4637
8990 30
8990 2334
8990 4638
8991 31
8991 2335
8991 4639
8992 32
8992 2336
8992 4640
8993 33
8993 2337
8993 4641
8994 34
8994 2338
8994 4642
8995 35
8995 2339
8995 4643
8996 36
8996 2340
8996 4644
8997 37
8997 2341
8997 4645
8998 38
8998 2342
8998 4646
8999 39
8999 2343
8999 4647
9000 40
9000 2344
9000 4648
9001 41
9001 2345
9001 4649
9002 42
9002 2346
9002 4650
9003 43
9003 2347
9003 4651
9004 44
9004 2348
9004 4652
9005 45
9005 2349
9005 4653
9006 46
9006 2350
9006 4654
9007 47
9007 2351
9007 4655
9008 48
9008 2352
9008 4656
9009 49
9009 2353
9009 4657
9010 50
9010 2354
9010 4658
9011 51
9011 2355
9011 4659
9012 52
9012 2356
9012 4660
9013 53
9013 2357
9013 4661
9014 54
9014 2358
9014 4662
9015 55
9015 2359
9015 4663
9016 56
9016 2360
9016 4664
9017 57
9017 2361
9017 4665
9018 58
9018 2362
9018 4666
9019 59
9019 2363
9019 4667
9020 60
9020 2364
9020 4668
9021 61
9021 2365
9021 4669
9022 62
9022 2366
9022 4670
9023 63
9023 2367
9023 4671
9024 64
9024 2368
9024 4672
9025 65
9025 2369
9025 4673
9026 66
9026 2370
9026 4674
9027 67
9027 2371
9027 4675
9028 68
9028 2372
9028 4676
9029 69
9029 2373
9029 4677
9030 70
9030 2374
9030 4678
9031 71
9031 2375
9031 4679
9032 72
9032 2376
9032 4680
9033 73
9033 2377
9033 4681
9034 74
9034 2378
9034 4682
9035 75
9035 2379
9035 4683
9036 76
9036 2380
9036 4684
9037 77
9037 2381
9037 4685
9038 78
9038 2382
9038 4686
9039 79
9039 2383
9039 4687
9040 80
9040 2384
9040 4688
9041 81
9041 2385
9041 4689
9042 82
9042 2386
9042 4690
9043 83
9043 2387
9043 4691
9044 84
9044 2388
9044 4692
9045 85
9045 2389
9045 4693
9046 86
9046 2390
9046 4694
9047 87
9047 2391
9047 4695
9048 88
9048 2392
9048 4696
9049 89
9049 2393
9049 4697
9050 90
9050 2394
9050 4698
9051 91
9051 2395
9051 4699
9052 92
9052 2396
9052 4700
9053 93
9053 2397
9053 4701
9054 94
9054 2398
9054 4702
9055 95
9055 2399
9055 4703
9056 96
9056 2400
9056 4704
9057 97
9057 2401
9057 4705
9058 98
9058 2402
9058 4706
9059 99
9059 2403
9059 4707
9060 100
9060 2404
9060 4708
9061 101
9061 2405
9061 4709
9062 102
9062 2406
9062 4710
9063 103
9063 2407
9063 4711
9064 104
9064 2408
9064 4712
9065 105
9065 2409
9065 4713
9066 106
9066 2410
9066 4714
9067 107
9067 2411
9067 4715
9068 108
9068 2412
9068 4716
9069 109
9069 2413
9069 4717
9070 110
9070 2414
9070 4718
9071 111
9071 2415
9071 4719
9072 112
9072 2416
9072 4720
9073 113
9073 2417
9073 4721
9074 114
9074 2418
9074 4722
9075 115
9075 2419
9075 4723
9076 116
9076 2420
9076 4724
9077 117
9077 2421
9077 4725
9078 118
9078 2422
9078 4726
9079 119
9079 2423
9079 4727
9080 120
9080 2424
9080 4728
9081 121
9081 2425
9081 4729
9082 122
9082 2426
9082 4730
9083 123
9083 2427
9083 4731
9084 124
9084 2428
9084 4732
9085 125
9085 2429
9085 4733
9086 126
9086 2430
9086 4734
9087 127
9087 2431
9087 4735
9088 128
9088 2432
9088 4736
9089 129
9089 2433
9089 4737
9090 130
9090 2434
9090 4738
9091 131
9091 2435
9091 4739
9092 132
9092 2436
9092 4740
9093 133
9093 2437
9093 4741
9094 134
9094 2438
9094 4742
9095 135
9095 2439
9095 4743
9096 136
9096 2440
9096 4744
9097 137
9097 2441
9097 4745
9098 138
9098 2442
9098 4746
9099 139
9099 2443
9099 4747
9100 140
9100 2444
9100 4748
9101 141
9101 2445
9101 4749
9102 142
9102 2446
9102 4750
9103 143
9103 2447
9103 4751
9104 144
9104 2448
9104 4752
9105 145
9105 2449
9105 4753
9106 146
9106 2450
9106 4754
9107 147
9107 2451
9107 4755
9108 148
9108 2452
9108 4756
9109 149
9109 2453
9109 4757
9110 150
9110 2454
9110 4758
9111 151
9111 2455
9111 4759
9112 152
9112 2456
9112 4760
9113 153
9113 2457
9113 4761
9114 154
9114 2458
9114 4762
9115 155
9115 2459
9115 4763
9116 156
9116 2460
9116 4764
9117 157
9117 2461
9117 4765
9118 158
9118 2462
9118 4766
9119 159
9119 2463
9119 4767
9120 160
9120 2464
9120 4768
9121 161
9121 2465
9121 4769
9122 162
9122 2466
9122 4770
9123 163
9123 2467
9123 4771
9124 164
9124 2468
9124 4772
9125 165
9125 2469
9125 4773
9126 166
9126 2470
9126 4774
9127 167
9127 2471
9127 4775
9128 168
9128 2472
9128 4776
9129 169
9129 2473
9129 4777
9130 170
9130 2474
9130 4778
9131 171
9131 2475
9131 4779
9132 172
9132 2476
9132 4780
9133 173
9133 2477
9133 4781
9134 174
9134 2478
9134 4782
9135 175
9135 2479
9135 4783
9136 176
9136 2480
9136 4784
9137 177
9137 2481
9137 4785
9138 178
9138 2482
9138 4786
9139 179
9139 2483
9139 4787
9140 180
9140 2484
9140 4788
9141 181
9141 2485
9141 4789
9142 182
9142 2486
9142 4790
9143 183
9143 2487
9143 4791
9144 184
9144 2488
9144 4792
9145 185
9145 2489
9145 4793
9146 186
9146 2490
9146 4794
9147 187
9147 2491
9147 4795
9148 188
9148 2492
9148 4796
9149 189
9149 2493
9149 4797
9150 190
9150 2494
9150 4798
9151 191
9151 2495
9151 4799
9152 192
9152 2496
9152 4800
9153 193
9153 2497
9153 4801
9154 194
9154 2498
9154 4802
9155 195
9155 2499
9155 4803
9156 196
9156 2500
9156 4804
9157 197
9157 2501
9157 4805
9158 198
9158 2502
9158 4806
9159 199
9159 2503
9159 4807
9160 200
9160 2504
9160 4808
9161 201
9161 2505
9161 4809
9162 202
9162 2506
9162 4810
9163 203
9163 2507
9163 4811
9164 204
9164 2508
9164 4812
9165 205
9165 2509
9165 4813
9166 206
9166 2510
9166 4814
9167 207
9167 2511
9167 4815
9168 208
9168 2512
9168 4816
9169 209
9169 2513
9169 4817
9170 210
9170 2514
9170 4818
9171 211
9171 2515
9171 4819
9172 212
9172 2516
9172 4820
9173 213
9173 2517
9173 4821
9174 214
9174 2518
9174 4822
9175 215
9175 2519
9175 4823
9176 216
9176 2520
9176 4824
9177 217
9177 2521
9177 4825
9178 218
9178 2522
9178 4826
9179 219
9179 2523
9179 4827
9180 220
9180 2524
9180 4828
9181 221
9181 2525
9181 4829
9182 222
9182 2526
9182 4830
9183 223
9183 2527
9183 4831
9184 224
9184 2528
9184 4832
9185 225
9185 2529
9185 4833
9186 226
9186 2530
9186 4834
9187 227
9187 2531
9187 4835
9188 228
9188 2532
9188 4836
9189 229
9189 2533
9189 4837
9190 230
9190 2534
9190 4838
9191 231
9191 2535
9191 4839
9192 232
9192 2536
9192 4840
9193 233
9193 2537
9193 4841
9194 234
9194 2538
9194 4842
9195 235
9195 2539
9195 4843
9196 236
9196 2540
9196 4844
9197 237
9197 2541
9197 4845
9198 238
9198 2542
9198 4846
9199 239
9199 2543
9199 4847
9200 240
9200 2544
9200 4848
9201 241
9201 2545
9201 4849
9202 242
9202 2546
9202 4850
9203 243
9203 2547
9203 4851
9204 244
9204 2548
9204 4852
9205 245
9205 2549
9205 4853
9206 246
9206 2550
9206 4854
9207 247
9207 2551
9207 4855
9208 248
9208 2552
9208 4856
9209 249
9209 2553
9209 4857
9210 250
9210 2554
9210 4858
9211 251
9211 2555
9211 4859
9212 252
9212 2556
9212 4860
9213 253
9213 2557
9213 4861
9214 254
9214 2558
9214 4862
9215 255
9215 2559
9215 4863
9216 256
9216 2560
9216 4864
9217 257
9217 2561
9217 4865
9218 258
9218 2562
9218 4866
9219 259
9219 2563
9219 4867
9220 260
9220 2564
9220 4868
9221 261
9221 2565
9221 4869
9222 262
9222 2566
9222 4870
9223 263
9223 2567
9223 4871
9224 264
9224 2568
9224 4872
9225 265
9225 2569
9225 4873
9226 266
9226 2570
9226 4874
9227 267
9227 2571
9227 4875
9228 268
9228 2572
9228 4876
9229 269
9229 2573
9229 4877
9230 270
9230 2574
9230 4878
9231 271
9231 2575
9231 4879
9232 272
9232 2576
9232 4880
9233 273
9233 2577
9233 4881
9234 274
9234 2578
9234 4882
9235 275
9235 2579
9235 4883
9236 276
9236 2580
9236 4884
9237 277
9237 2581
9237 4885
9238 278
9238 2582
9238 4886
9239 279
9239 2583
9239 4887
9240 280
9240 2584
9240 4888
9241 281
9241 2585
9241 4889
9242 282
9242 2586
9242 4890
9243 283
9243 2587
9243 4891
9244 284
9244 2588
9244 4892
9245 285
9245 2589
9245 4893
9246 286
9246 2590
9246 4894
9247 287
9247 2591
9247 4895
9248 288
9248 2592
9248 4896
9249 289
9249 2593
9249 4897
9250 290
9250 2594
9250 4898
9251 291
9251 2595
9251 4899
9252 292
9252 2596
9252 4900
9253 293
9253 2597
9253 4901
9254 294
9254 2598
9254 4902
9255 295
9255 2599
9255 4903
9256 296
9256 2600
9256 4904
9257 297
9257 2601
9257 4905
9258 298
9258 2602
9258 4906
9259 299
9259 2603
9259 4907
9260 300
9260 2604
9260 4908
9261 301
9261 2605
9261 4909
9262 302
9262 2606
9262 4910
9263 303
9263 2607
9263 4911
9264 304
9264 2608
9264 4912
9265 305
9265 2609
9265 4913
9266 306
9266 2610
9266 4914
9267 307
9267 2611
9267 4915
9268 308
9268 2612
9268 4916
9269 309
9269 2613
9269 4917
9270 310
9270 2614
9270 4918
9271 311
9271 2615
9271 4919
9272 312
9272 2616
9272 4920
9273 313
9273 2617
9273 4921
9274 314
9274 2618
9274 4922
9275 315
9275 2619
9275 4923
9276 316
9276 2620
9276 4924
9277 317
9277 2621
9277 4925
9278 318
9278 2622
9278 4926
9279 319
9279 2623
9279 4927
9280 320
9280 2624
9280 4928
9281 321
9281 2625
9281 4929
9282 322
9282 2626
9282 4930
9283 323
9283 2627
9283 4931
9284 324
9284 2628
9284 4932
9285 325
9285 2629
9285 4933
9286 326
9286 2630
9286 4934
9287 327
9287 2631
9287 4935
9288 328
9288 2632
9288 4936
9289 329
9289 2633
9289 4937
9290 330
9290 2634
9290 4938
9291 331
9291 2635
9291 4939
9292 332
9292 2636
9292 4940
9293 333
9293 2637
9293 4941
9294 334
9294 2638
9294 4942
9295 335
9295 2639
9295 4943
9296 336
9296 2640
9296 4944
9297 337
9297 2641
9297 4945
9298 338
9298 2642
9298 4946
9299 339
9299 2643
9299 4947
9300 340
9300 2644
9300 4948
9301 341
9301 2645
9301 4949
9302 342
9302 2646
9302 4950
9303 343
9303 2647
9303 4951
9304 344
9304 2648
9304 4952
9305 345
9305 2649
9305 4953
9306 346
9306 2650
9306 4954
9307 347
9307 2651
9307 4955
9308 348
9308 2652
9308 4956
9309 349
9309 2653
9309 4957
9310 350
9310 2654
9310 4958
9311 351
9311 2655
9311 4959
9312 352
9312 2656
9312 4960
9313 353
9313 2657
9313 4961
9314 354
9314 2658
9314 4962
9315 355
9315 2659
9315 4963
9316 356
9316 2660
9316 4964
9317 357
9317 2661
9317 4965
9318 358
9318 2662
9318 4966
9319 359
9319 2663
9319 4967
9320 360
9320 2664
9320 4968
9321 361
9321 2665
9321 4969
9322 362
9322 2666
9322 4970
9323 363
9323 2667
9323 4971
9324 364
9324 2668
9324 4972
9325 365
9325 2669
9325 4973
9326 366
9326 2670
9326 4974
9327 367
9327 2671
9327 4975
9328 368
9328 2672
9328 4976
9329 369
9329 2673
9329 4977
9330 370
9330 2674
9330 4978
9331 371
9331 2675
9331 4979
9332 372
9332 2676
9332 4980
9333 373
9333 2677
9333 4981
9334 374
9334 2678
9334 4982
9335 375
9335 2679
9335 4983
9336 376
9336 2680
9336 4984
9337 377
9337 2681
9337 4985
9338 378
9338 2682
9338 4986
9339 379
9339 2683
9339 4987
9340 380
9340 2684
9340 4988
9341 381
9341 2685
9341 4989
9342 382
9342 2686
9342 4990
9343 383
9343 2687
9343 4991
9344 384
9344 2688
9344 4992
9345 385
9345 2689
9345 4993
9346 386
9346 2690
9346 4994
9347 387
9347 2691
9347 4995
9348 388
9348 2692
9348 4996
9349 389
9349 2693
9349 4997
9350 390
9350 2694
9350 4998
9351 391
9351 2695
9351 4999
9352 392
9352 2696
9352 5000
9353 393
9353 2697
9353 5001
9354 394
9354 2698
9354 5002
9355 395
9355 2699
9355 5003
9356 396
9356 2700
9356 5004
9357 397
9357 2701
9357 5005
9358 398
9358 2702
9358 5006
9359 399
9359 2703
9359 5007
9360 400
9360 2704
9360 5008
9361 401
9361 2705
9361 5009
9362 402
9362 2706
9362 5010
9363 403
9363 2707
9363 5011
9364 404
9364 2708
9364 5012
9365 405
9365 2709
9365 5013
9366 406
9366 2710
9366 5014
9367 407
9367 2711
9367 5015
9368 408
9368 2712
9368 5016
9369 409
9369 2713
9369 5017
9370 410
9370 2714
9370 5018
9371 411
9371 2715
9371 5019
9372 412
9372 2716
9372 5020
9373 413
9373 2717
9373 5021
9374 414
9374 2718
9374 5022
9375 415
9375 2719
9375 5023
9376 416
9376 2720
9376 5024
9377 417
9377 2721
9377 5025
9378 418
9378 2722
9378 5026
9379 419
9379 2723
9379 5027
9380 420
9380 2724
9380 5028
9381 421
9381 2725
9381 5029
9382 422
9382 2726
9382 5030
9383 423
9383 2727
9383 5031
9384 424
9384 2728
9384 5032
9385 425
9385 2729
9385 5033
9386 426
9386 2730
9386 5034
9387 427
9387 2731
9387 5035
9388 428
9388 2732
9388 5036
9389 429
9389 2733
9389 5037
9390 430
9390 2734
9390 5038
9391 431
9391 2735
9391 5039
9392 432
9392 2736
9392 5040
9393 433
9393 2737
9393 5041
9394 434
9394 2738
9394 5042
9395 435
9395 2739
9395 5043
9396 436
9396 2740
9396 5044
9397 437
9397 2741
9397 5045
9398 438
9398 2742
9398 5046
9399 439
9399 2743
9399 5047
9400 440
9400 2744
9400 5048
9401 441
9401 2745
9401 5049
9402 442
9402 2746
9402 5050
9403 443
9403 2747
9403 5051
9404 444
9404 2748
9404 5052
9405 445
9405 2749
9405 5053
9406 446
9406 2750
9406 5054
9407 447
9407 2751
9407 5055
9408 448
9408 2752
9408 5056
9409 449
9409 2753
9409 5057
9410 450
9410 2754
9410 5058
9411 451
9411 2755
9411 5059
9412 452
9412 2756
9412 5060
9413 453
9413 2757
9413 5061
9414 454
9414 2758
9414 5062
9415 455
9415 2759
9415 5063
9416 456
9416 2760
9416 5064
9417 457
9417 2761
9417 5065
9418 458
9418 2762
9418 5066
9419 459
9419 2763
9419 5067
9420 460
9420 2764
9420 5068
9421 461
9421 2765
9421 5069
9422 462
9422 2766
9422 5070
9423 463
9423 2767
9423 5071
9424 464
9424 2768
9424 5072
9425 465
9425 2769
9425 5073
9426 466
9426 2770
9426 5074
9427 467
9427 2771
9427 5075
9428 468
9428 2772
9428 5076
9429 469
9429 2773
9429 5077
9430 470
9430 2774
9430 5078
9431 471
9431 2775
9431 5079
9432 472
9432 2776
9432 5080
9433 473
9433 2777
9433 5081
9434 474
9434 2778
9434 5082
9435 475
9435 2779
9435 5083
9436 476
9436 2780
9436 5084
9437 477
9437 2781
9437 5085
9438 478
9438 2782
9438 5086
9439 479
9439 2783
9439 5087
9440 480
9440 2784
9440 5088
9441 481
9441 2785
9441 5089
9442 482
9442 2786
9442 5090
9443 483
9443 2787
9443 5091
9444 484
9444 2788
9444 5092
9445 485
9445 2789
9445 5093
9446 486
9446 2790
9446 5094
9447 487
9447 2791
9447 5095
9448 488
9448 2792
9448 5096
9449 489
9449 2793
9449 5097
9450 490
9450 2794
9450 5098
9451 491
9451 2795
9451 5099
9452 492
9452 2796
9452 5100
9453 493
9453 2797
9453 5101
9454 494
9454 2798
9454 5102
9455 495
9455 2799
9455 5103
9456 496
9456 2800
9456 5104
9457 497
9457 2801
9457 5105
9458 498
9458 2802
9458 5106
9459 499
9459 2803
9459 5107
9460 500
9460 2804
9460 5108
9461 501
9461 2805
9461 5109
9462 502
9462 2806
9462 5110
9463 503
9463 2807
9463 5111
9464 504
9464 2808
9464 5112
9465 505
9465 2809
9465 5113
9466 506
9466 2810
9466 5114
9467 507
9467 2811
9467 5115
9468 508
9468 2812
9468 5116
9469 509
9469 2813
9469 5117
9470 510
9470 2814
9470 5118
9471 511
9471 2815
9471 5119
9472 512
9472 2816
9472 5120
9473 513
9473 2817
9473 5121
9474 514
9474 2818
9474 5122
9475 515
9475 2819
9475 5123
9476 516
9476 2820
9476 5124
9477 517
9477 2821
9477 5125
9478 518
9478 2822
9478 5126
9479 519
9479 2823
9479 5127
9480 520
9480 2824
9480 5128
9481 521
9481 2825
9481 5129
9482 522
9482 2826
9482 5130
9483 523
9483 2827
9483 5131
9484 524
9484 2828
9484 5132
9485 525
9485 2829
9485 5133
9486 526
9486 2830
9486 5134
9487 527
9487 2831
9487 5135
9488 528
9488 2832
9488 5136
9489 529
9489 2833
9489 5137
9490 530
9490 2834
9490 5138
9491 531
9491 2835
9491 5139
9492 532
9492 2836
9492 5140
9493 533
9493 2837
9493 5141
9494 534
9494 2838
9494 5142
9495 535
9495 2839
9495 5143
9496 536
9496 2840
9496 5144
9497 537
9497 2841
9497 5145
9498 538
9498 2842
9498 5146
9499 539
9499 2843
9499 5147
9500 540
9500 2844
9500 5148
9501 541
9501 2845
9501 5149
9502 542
9502 2846
9502 5150
9503 543
9503 2847
9503 5151
9504 544
9504 2848
9504 5152
9505 545
9505 2849
9505 5153
9506 546
9506 2850
9506 5154
9507 547
9507 2851
9507 5155
9508 548
9508 2852
9508 5156
9509 549
9509 2853
9509 5157
9510 550
9510 2854
9510 5158
9511 551
9511 2855
9511 5159
9512 552
9512 2856
9512 5160
9513 553
9513 2857
9513 5161
9514 554
9514 2858
9514 5162
9515 555
9515 2859
9515 5163
9516 556
9516 2860
9516 5164
9517 557
9517 2861
9517 5165
9518 558
9518 2862
9518 5166
9519 559
9519 2863
9519 5167
9520 560
9520 2864
9520 5168
9521 561
9521 2865
9521 5169
9522 562
9522 2866
9522 5170
9523 563
9523 2867
9523 5171
9524 564
9524 2868
9524 5172
9525 565
9525 2869
9525 5173
9526 566
9526 2870
9526 5174
9527 567
9527 2871
9527 5175
9528 568
9528 2872
9528 5176
9529 569
9529 2873
9529 5177
9530 570
9530 2874
9530 5178
9531 571
9531 2875
9531 5179
9532 572
9532 2876
9532 5180
9533 573
9533 2877
9533 5181
9534 574
9534 2878
9534 5182
9535 575
9535 2879
9535 5183
9536 576
9536 2880
9536 5184
9537 577
9537 2881
9537 5185
9538 578
9538 2882
9538 5186
9539 579
9539 2883
9539 5187
9540 580
9540 2884
9540 5188
9541 581
9541 2885
9541 5189
9542 582
9542 2886
9542 5190
9543 583
9543 2887
9543 5191
9544 584
9544 2888
9544 5192
9545 585
9545 2889
9545 5193
9546 586
9546 2890
9546 5194
9547 587
9547 2891
9547 5195
9548 588
9548 2892
9548 5196
9549 589
9549 2893
9549 5197
9550 590
9550 2894
9550 5198
9551 591
9551 2895
9551 5199
9552 592
9552 2896
9552 5200
9553 593
9553 2897
9553 5201
9554 594
9554 2898
9554 5202
9555 595
9555 2899
9555 5203
9556 596
9556 2900
9556 5204
9557 597
9557 2901
9557 5205
9558 598
9558 2902
9558 5206
9559 599
9559 2903
9559 5207
9560 600
9560 2904
9560 5208
9561 601
9561 2905
9561 5209
9562 602
9562 2906
9562 5210
9563 603
9563 2907
9563 5211
9564 604
9564 2908
9564 5212
9565 605
9565 2909
9565 5213
9566 606
9566 2910
9566 5214
9567 607
9567 2911
9567 5215
9568 608
9568 2912
9568 5216
9569 609
9569 2913
9569 5217
9570 610
9570 2914
9570 5218
9571 611
9571 2915
9571 5219
9572 612
9572 2916
9572 5220
9573 613
9573 2917
9573 5221
9574 614
9574 2918
9574 5222
9575 615
9575 2919
9575 5223
9576 616
9576 2920
9576 5224
9577 617
9577 2921
9577 5225
9578 618
9578 2922
9578 5226
9579 619
9579 2923
9579 5227
9580 620
9580 2924
9580 5228
9581 621
9581 2925
9581 5229
9582 622
9582 2926
9582 5230
9583 623
9583 2927
9583 5231
9584 624
9584 2928
9584 5232
9585 625
9585 2929
9585 5233
9586 626
9586 2930
9586 5234
9587 627
9587 2931
9587 5235
9588 628
9588 2932
9588 5236
9589 629
9589 2933
9589 5237
9590 630
9590 2934
9590 5238
9591 631
9591 2935
9591 5239
9592 632
9592 2936
9592 5240
9593 633
9593 2937
9593 5241
9594 634
9594 2938
9594 5242
9595 635
9595 2939
9595 5243
9596 636
9596 2940
9596 5244
9597 637
9597 2941
9597 5245
9598 638
9598 2942
9598 5246
9599 639
9599 2943
9599 5247
9600 640
9600 2944
9600 5248
9601 641
9601 2945
9601 5249
9602 642
9602 2946
9602 5250
9603 643
9603 2947
9603 5251
9604 644
9604 2948
9604 5252
9605 645
9605 2949
9605 5253
9606 646
9606 2950
9606 5254
9607 647
9607 2951
9607 5255
9608 648
9608 2952
9608 5256
9609 649
9609 2953
9609 5257
9610 650
9610 2954
9610 5258
9611 651
9611 2955
9611 5259
9612 652
9612 2956
9612 5260
9613 653
9613 2957
9613 5261
9614 654
9614 2958
9614 5262
9615 655
9615 2959
9615 5263
9616 656
9616 2960
9616 5264
9617 657
9617 2961
9617 5265
9618 658
9618 2962
9618 5266
9619 659
9619 2963
9619 5267
9620 660
9620 2964
9620 5268
9621 661
9621 2965
9621 5269
9622 662
9622 2966
9622 5270
9623 663
9623 2967
9623 5271
9624 664
9624 2968
9624 5272
9625 665
9625 2969
9625 5273
9626 666
9626 2970
9626 5274
9627 667
9627 2971
9627 5275
9628 668
9628 2972
9628 5276
9629 669
9629 2973
9629 5277
9630 670
9630 2974
9630 5278
9631 671
9631 2975
9631 5279
9632 672
9632 2976
9632 5280
9633 673
9633 2977
9633 5281
9634 674
9634 2978
9634 5282
9635 675
9635 2979
9635 5283
9636 676
9636 2980
9636 5284
9637 677
9637 2981
9637 5285
9638 678
9638 2982
9638 5286
9639 679
9639 2983
9639 5287
9640 680
9640 2984
9640 5288
9641 681
9641 2985
9641 5289
9642 682
9642 2986
9642 5290
9643 683
9643 2987
9643 5291
9644 684
9644 2988
9644 5292
9645 685
9645 2989
9645 5293
9646 686
9646 2990
9646 5294
9647 687
9647 2991
9647 5295
9648 688
9648 2992
9648 5296
9649 689
9649 2993
9649 5297
9650 690
9650 2994
9650 5298
9651 691
9651 2995
9651 5299
9652 692
9652 2996
9652 5300
9653 693
9653 2997
9653 5301
9654 694
9654 2998
9654 5302
9655 695
9655 2999
9655 5303
9656 696
9656 3000
9656 5304
9657 697
9657 3001
9657 5305
9658 698
9658 3002
9658 5306
9659 699
9659 3003
9659 5307
9660 700
9660 3004
9660 5308
9661 701
9661 3005
9661 5309
9662 702
9662 3006
9662 5310
9663 703
9663 3007
9663 5311
9664 704
9664 3008
9664 5312
9665 705
9665 3009
9665 5313
9666 706
9666 3010
9666 5314
9667 707
9667 3011
9667 5315
9668 708
9668 3012
9668 5316
9669 709
9669 3013
9669 5317
9670 710
9670 3014
9670 5318
9671 711
9671 3015
9671 5319
9672 712
9672 3016
9672 5320
9673 713
9673 3017
9673 5321
9674 714
9674 3018
9674 5322
9675 715
9675 3019
9675 5323
9676 716
9676 3020
9676 5324
9677 717
9677 3021
9677 5325
9678 718
9678 3022
9678 5326
9679 719
9679 3023
9679 5327
9680 720
9680 3024
9680 5328
9681 721
9681 3025
9681 5329
9682 722
9682 3026
9682 5330
9683 723
9683 3027
9683 5331
9684 724
9684 3028
9684 5332
9685 725
9685 3029
9685 5333
9686 726
9686 3030
9686 5334
9687 727
9687 3031
9687 5335
9688 728
9688 3032
9688 5336
9689 729
9689 3033
9689 5337
9690 730
9690 3034
9690 5338
9691 731
9691 3035
9691 5339
9692 732
9692 3036
9692 5340
9693 733
9693 3037
9693 5341
9694 734
9694 3038
9694 5342
9695 735
9695 3039
9695 5343
9696 736
9696 3040
9696 5344
9697 737
9697 3041
9697 5345
9698 738
9698 3042
9698 5346
9699 739
9699 3043
9699 5347
9700 740
9700 3044
9700 5348
9701 741
9701 3045
9701 5349
9702 742
9702 3046
9702 5350
9703 743
9703 3047
9703 5351
9704 744
9704 3048
9704 5352
9705 745
9705 3049
9705 5353
9706 746
9706 3050
9706 5354
9707 747
9707 3051
9707 5355
9708 748
9708 3052
9708 5356
9709 749
9709 3053
9709 5357
9710 750
9710 3054
9710 5358
9711 751
9711 3055
9711 5359
9712 752
9712 3056
9712 5360
9713 753
9713 3057
9713 5361
9714 754
9714 3058
9714 5362
9715 755
9715 3059
9715 5363
9716 756
9716 3060
9716 5364
9717 757
9717 3061
9717 5365
9718 758
9718 3062
9718 5366
9719 759
9719 3063
9719 5367
9720 760
9720 3064
9720 5368
9721 761
9721 3065
9721 5369
9722 762
9722 3066
9722 5370
9723 763
9723 3067
9723 5371
9724 764
9724 3068
9724 5372
9725 765
9725 3069
9725 5373
9726 766
9726 3070
9726 5374
9727 767
9727 3071
9727 5375
9728 768
9728 3072
9728 3584
9729 769
9729 3073
9729 3585
9730 770
9730 3074
9730 3586
9731 771
9731 3075
9731 3587
9732 772
9732 3076
9732 3588
9733 773
9733 3077
9733 3589
9734 774
9734 3078
9734 3590
9735 775
9735 3079
9735 3591
9736 776
9736 3080
9736 3592
9737 777
9737 3081
9737 3593
9738 778
9738 3082
9738 3594
9739 779
9739 3083
9739 3595
9740 780
9740 3084
9740 3596
9741 781
9741 3085
9741 3597
9742 782
9742 3086
9742 3598
9743 783
9743 3087
9743 3599
9744 784
9744 3088
9744 3600
9745 785
9745 3089
9745 3601
9746 786
9746 3090
9746 3602
9747 787
9747 3091
9747 3603
9748 788
9748 3092
9748 3604
9749 789
9749 3093
9749 3605
9750 790
9750 3094
9750 3606
9751 791
9751 3095
9751 3607
9752 792
9752 3096
9752 3608
9753 793
9753 3097
9753 3609
9754 794
9754 3098
9754 3610
9755 795
9755 3099
9755 3611
9756 796
9756 3100
9756 3612
9757 797
9757 3101
9757 3613
9758 798
9758 3102
9758 3614
9759 799
9759 3103
9759 3615
9760 800
9760 3104
9760 3616
9761 801
9761 3105
9761 3617
9762 802
9762 3106
9762 3618
9763 803
9763 3107
9763 3619
9764 804
9764 3108
9764 3620
9765 805
9765 3109
9765 3621
9766 806
9766 3110
9766 3622
9767 807
9767 3111
9767 3623
9768 808
9768 3112
9768 3624
9769 809
9769 3113
9769 3625
9770 810
9770 3114
9770 3626
9771 811
9771 3115
9771 3627
9772 812
9772 3116
9772 3628
9773 813
9773 3117
9773 3629
9774 814
9774 3118
9774 3630
9775 815
9775 3119
9775 3631
9776 816
9776 3120
9776 3632
9777 817
9777 3121
9777 3633
9778 818
9778 3122
9778 3634
9779 819
9779 3123
9779 3635
9780 820
9780 3124
9780 3636
9781 821
9781 3125
9781 3637
9782 822
9782 3126
9782 3638
9783 823
9783 3127
9783 3639
9784 824
9784 3128
9784 3640
9785 825
9785 3129
9785 3641
9786 826
9786 3130
9786 3642
9787 827
9787 3131
9787 3643
9788 828
9788 3132
9788 3644
9789 829
9789 3133
9789 3645
9790 830
9790 3134
9790 3646
9791 831
9791 3135
9791 3647
9792 832
9792 3136
9792 3648
9793 833
9793 3137
9793 3649
9794 834
9794 3138
9794 3650
9795 835
9795 3139
9795 3651
9796 836
9796 3140
9796 3652
9797 837
9797 3141
9797 3653
9798 838
9798 3142
9798 3654
9799 839
9799 3143
9799 3655
9800 840
9800 3144
9800 3656
9801 841
9801 3145
9801 3657
9802 842
9802 3146
9802 3658
9803 843
9803 3147
9803 3659
9804 844
9804 3148
9804 3660
9805 845
9805 3149
9805 3661
9806 846
9806 3150
9806 3662
9807 847
9807 3151
9807 3663
9808 848
9808 3152
9808 3664
9809 849
9809 3153
9809 3665
9810 850
9810 3154
9810 3666
9811 851
9811 3155
9811 3667
9812 852
9812 3156
9812 3668
9813 853
9813 3157
9813 3669
9814 854
9814 3158
9814 3670
9815 855
9815 3159
9815 3671
9816 856
9816 3160
9816 3672
9817 857
9817 3161
9817 3673
9818 858
9818 3162
9818 3674
9819 859
9819 3163
9819 3675
9820 860
9820 3164
9820 3676
9821 861
9821 3165
9821 3677
9822 862
9822 3166
9822 3678
9823 863
9823 3167
9823 3679
9824 864
9824 3168
9824 3680
9825 865
9825 3169
9825 3681
9826 866
9826 3170
9826 3682
9827 867
9827 3171
9827 3683
9828 868
9828 3172
9828 3684
9829 869
9829 3173
9829 3685
9830 870
9830 3174
9830 3686
9831 871
9831 3175
9831 3687
9832 872
9832 3176
9832 3688
9833 873
9833 3177
9833 3689
9834 874
9834 3178
9834 3690
9835 875
9835 3179
9835 3691
9836 876
9836 3180
9836 3692
9837 877
9837 3181
9837 3693
9838 878
9838 3182
9838 3694
9839 879
9839 3183
9839 3695
9840 880
9840 3184
9840 3696
9841 881
9841 3185
9841 3697
9842 882
9842 3186
9842 3698
9843 883
9843 3187
9843 3699
9844 884
9844 3188
9844 3700
9845 885
9845 3189
9845 3701
9846 886
9846 3190
9846 3702
9847 887
9847 3191
9847 3703
9848 888
9848 3192
9848 3704
9849 889
9849 3193
9849 3705
9850 890
9850 3194
9850 3706
9851 891
9851 3195
9851 3707
9852 892
9852 3196
9852 3708
9853 893
9853 3197
9853 3709
9854 894
9854 3198
9854 3710
9855 895
9855 3199
9855 3711
9856 896
9856 3200
9856 3712
9857 897
9857 3201
9857 3713
9858 898
9858 3202
9858 3714
9859 899
9859 3203
9859 3715
9860 900
9860 3204
9860 3716
9861 901
9861 3205
9861 3717
9862 902
9862 3206
9862 3718
9863 903
9863 3207
9863 3719
9864 904
9864 3208
9864 3720
9865 905
9865 3209
9865 3721
9866 906
9866 3210
9866 3722
9867 907
9867 3211
9867 3723
9868 908
9868 3212
9868 3724
9869 909
9869 3213
9869 3725
9870 910
9870 3214
9870 3726
9871 911
9871 3215
9871 3727
9872 912
9872 3216
9872 3728
9873 913
9873 3217
9873 3729
9874 914
9874 3218
9874 3730
9875 915
9875 3219
9875 3731
9876 916
9876 3220
9876 3732
9877 917
9877 3221
9877 3733
9878 918
9878 3222
9878 3734
9879 919
9879 3223
9879 3735
9880 920
9880 3224
9880 3736
9881 921
9881 3225
9881 3737
9882 922
9882 3226
9882 3738
9883 923
9883 3227
9883 3739
9884 924
9884 3228
9884 3740
9885 925
9885 3229
9885 3741
9886 926
9886 3230
9886 3742
9887 927
9887 3231
9887 3743
9888 928
9888 3232
9888 3744
9889 929
9889 3233
9889 3745
9890 930
9890 3234
9890 3746
9891 931
9891 3235
9891 3747
9892 932
9892 3236
9892 3748
9893 933
9893 3237
9893 3749
9894 934
9894 3238
9894 3750
9895 935
9895 3239
9895 3751
9896 936
9896 3240
9896 3752
9897 937
9897 3241
9897 3753
9898 938
9898 3242
9898 3754
9899 939
9899 3243
9899 3755
9900 940
9900 3244
9900 3756
9901 941
9901 3245
9901 3757
9902 942
9902 3246
9902 3758
9903 943
9903 3247
9903 3759
9904 944
9904 3248
9904 3760
9905 945
9905 3249
9905 3761
9906 946
9906 3250
9906 3762
9907 947
9907 3251
9907 3763
9908 948
9908 3252
9908 3764
9909 949
9909 3253
9909 3765
9910 950
9910 3254
9910 3766
9911 951
9911 3255
9911 3767
9912 952
9912 3256
9912 3768
9913 953
9913 3257
9913 3769
9914 954
9914 3258
9914 3770
9915 955
9915 3259
9915 3771
9916 956
9916 3260
9916 3772
9917 957
9917 3261
9917 3773
9918 958
9918 3262
9918 3774
9919 959
9919 3263
9919 3775
9920 960
9920 3264
9920 3776
9921 961
9921 3265
9921 3777
9922 962
9922 3266
9922 3778
9923 963
9923 3267
9923 3779
9924 964
9924 3268
9924 3780
9925 965
9925 3269
9925 3781
9926 966
9926 3270
9926 3782
9927 967
9927 3271
9927 3783
9928 968
9928 3272
9928 3784
9929 969
9929 3273
9929 3785
9930 970
9930 3274
9930 3786
9931 971
9931 3275
9931 3787
9932 972
9932 3276
9932 3788
9933 973
9933 3277
9933 3789
9934 974
9934 3278
9934 3790
9935 975
9935 3279
9935 3791
9936 976
9936 3280
9936 3792
9937 977
9937 3281
9937 3793
9938 978
9938 3282
9938 3794
9939 979
9939 3283
9939 3795
9940 980
9940 3284
9940 3796
9941 981
9941 3285
9941 3797
9942 982
9942 3286
9942 3798
9943 983
9943 3287
9943 3799
9944 984
9944 3288
9944 3800
9945 985
9945 3289
9945 3801
9946 986
9946 3290
9946 3802
9947 987
9947 3291
9947 3803
9948 988
9948 3292
9948 3804
9949 989
9949 3293
9949 3805
9950 990
9950 3294
9950 3806
9951 991
9951 3295
9951 3807
9952 992
9952 3296
9952 3808
9953 993
9953 3297
9953 3809
9954 994
9954 3298
9954 3810
9955 995
9955 3299
9955 3811
9956 996
9956 3300
9956 3812
9957 997
9957 3301
9957 3813
9958 998
9958 3302
9958 3814
9959 999
9959 3303
9959 3815
9960 1000
9960 3304
9960 3816
9961 1001
9961 3305
9961 3817
9962 1002
9962 3306
9962 3818
9963 1003
9963 3307
9963 3819
9964 1004
9964 3308
9964 3820
9965 1005
9965 3309
9965 3821
9966 1006
9966 3310
9966 3822
9967 1007
9967 3311
9967 3823
9968 1008
9968 3312
9968 3824
9969 1009
9969 3313
9969 3825
9970 1010
9970 3314
9970 3826
9971 1011
9971 3315
9971 3827
9972 1012
9972 3316
9972 3828
9973 1013
9973 3317
9973 3829
9974 1014
9974 3318
9974 3830
9975 1015
9975 3319
9975 3831
9976 1016
9976 3320
9976 3832
9977 1017
9977 3321
9977 3833
9978 1018
9978 3322
9978 3834
9979 1019
9979 3323
9979 3835
9980 1020
9980 3324
9980 3836
9981 1021
9981 3325
9981 3837
9982 1022
9982 3326
9982 3838
9983 1023
9983 3327
9983 3839
9984 1024
9984 3328
9984 3840
9985 1025
9985 3329
9985 3841
9986 1026
9986 3330
9986 3842
9987 1027
9987 3331
9987 3843
9988 1028
9988 3332
9988 3844
9989 1029
9989 3333
9989 3845
9990 1030
9990 3334
9990 3846
9991 1031
9991 3335
9991 3847
9992 1032
9992 3336
9992 3848
9993 1033
9993 3337
9993 3849
9994 1034
9994 3338
9994 3850
9995 1035
9995 3339
9995 3851
9996 1036
9996 3340
9996 3852
9997 1037
9997 3341
9997 3853
9998 1038
9998 3342
9998 3854
9999 1039
9999 3343
9999 3855
10000 1040
10000 3344
10000 3856
10001 1041
10001 3345
10001 3857
10002 1042
10002 3346
10002 3858
10003 1043
10003 3347
10003 3859
10004 1044
10004 3348
10004 3860
10005 1045
10005 3349
10005 3861
10006 1046
10006 3350
10006 3862
10007 1047
10007 3351
10007 3863
10008 1048
10008 3352
10008 3864
10009 1049
10009 3353
10009 3865
10010 1050
10010 3354
10010 3866
10011 1051
10011 3355
10011 3867
10012 1052
10012 3356
10012 3868
10013 1053
10013 3357
10013 3869
10014 1054
10014 3358
10014 3870
10015 1055
10015 3359
10015 3871
10016 1056
10016 3360
10016 3872
10017 1057
10017 3361
10017 3873
10018 1058
10018 3362
10018 3874
10019 1059
10019 3363
10019 3875
10020 1060
10020 3364
10020 3876
10021 1061
10021 3365
10021 3877
10022 1062
10022 3366
10022 3878
10023 1063
10023 3367
10023 3879
10024 1064
10024 3368
10024 3880
10025 1065
10025 3369
10025 3881
10026 1066
10026 3370
10026 3882
10027 1067
10027 3371
10027 3883
10028 1068
10028 3372
10028 3884
10029 1069
10029 3373
10029 3885
10030 1070
10030 3374
10030 3886
10031 1071
10031 3375
10031 3887
10032 1072
10032 3376
10032 3888
10033 1073
10033 3377
10033 3889
10034 1074
10034 3378
10034 3890
10035 1075
10035 3379
10035 3891
10036 1076
10036 3380
10036 3892
10037 1077
10037 3381
10037 3893
10038 1078
10038 3382
10038 3894
10039 1079
10039 3383
10039 3895
10040 1080
10040 3384
10040 3896
10041 1081
10041 3385
10041 3897
10042 1082
10042 3386
10042 3898
10043 1083
10043 3387
10043 3899
10044 1084
10044 3388
10044 3900
10045 1085
10045 3389
10045 3901
10046 1086
10046 3390
10046 3902
10047 1087
10047 3391
10047 3903
10048 1088
10048 3392
10048 3904
10049 1089
10049 3393
10049 3905
10050 1090
10050 3394
10050 3906
10051 1091
10051 3395
10051 3907
10052 1092
10052 3396
10052 3908
10053 1093
10053 3397
10053 3909
10054 1094
10054 3398
10054 3910
10055 1095
10055 3399
10055 3911
10056 1096
10056 3400
10056 3912
10057 1097
10057 3401
10057 3913
10058 1098
10058 3402
10058 3914
10059 1099
10059 3403
10059 3915
10060 1100
10060 3404
10060 3916
10061 1101
10061 3405
10061 3917
10062 1102
10062 3406
10062 3918
10063 1103
10063 3407
10063 3919
10064 1104
10064 3408
10064 3920
10065 1105
10065 3409
10065 3921
10066 1106
10066 3410
10066 3922
10067 1107
10067 3411
10067 3923
10068 1108
10068 3412
10068 3924
10069 1109
10069 3413
10069 3925
10070 1110
10070 3414
10070 3926
10071 1111
10071 3415
10071 3927
10072 1112
10072 3416
10072 3928
10073 1113
10073 3417
10073 3929
10074 1114
10074 3418
10074 3930
10075 1115
10075 3419
10075 3931
10076 1116
10076 3420
10076 3932
10077 1117
10077 3421
10077 3933
10078 1118
10078 3422
10078 3934
10079 1119
10079 3423
10079 3935
10080 1120
10080 3424
10080 3936
10081 1121
10081 3425
10081 3937
10082 1122
10082 3426
10082 3938
10083 1123
10083 3427
10083 3939
10084 1124
10084 3428
10084 3940
10085 1125
10085 3429
10085 3941
10086 1126
10086 3430
10086 3942
10087 1127
10087 3431
10087 3943
10088 1128
10088 3432
10088 3944
10089 1129
10089 3433
10089 3945
10090 1130
10090 3434
10090 3946
10091 1131
10091 3435
10091 3947
10092 1132
10092 3436
10092 3948
10093 1133
10093 3437
10093 3949
10094 1134
10094 3438
10094 3950
10095 1135
10095 3439
10095 3951
10096 1136
10096 3440
10096 3952
10097 1137
10097 3441
10097 3953
10098 1138
10098 3442
10098 3954
10099 1139
10099 3443
10099 3955
10100 1140
10100 3444
10100 3956
10101 1141
10101 3445
10101 3957
10102 1142
10102 3446
10102 3958
10103 1143
10103 3447
10103 3959
10104 1144
10104 3448
10104 3960
10105 1145
10105 3449
10105 3961
10106 1146
10106 3450
10106 3962
10107 1147
10107 3451
10107 3963
10108 1148
10108 3452
10108 3964
10109 1149
10109 3453
10109 3965
10110 1150
10110 3454
10110 3966
10111 1151
10111 3455
10111 3967
10112 1152
10112 3456
10112 3968
10113 1153
10113 3457
10113 3969
10114 1154
10114 3458
10114 3970
10115 1155
10115 3459
10115 3971
10116 1156
10116 3460
10116 3972
10117 1157
10117 3461
10117 3973
10118 1158
10118 3462
10118 3974
10119 1159
10119 3463
10119 3975
10120 1160
10120 3464
10120 3976
10121 1161
10121 3465
10121 3977
10122 1162
10122 3466
10122 3978
10123 1163
10123 3467
10123 3979
10124 1164
10124 3468
10124 3980
10125 1165
10125 3469
10125 3981
10126 1166
10126 3470
10126 3982
10127 1167
10127 3471
10127 3983
10128 1168
10128 3472
10128 3984
10129 1169
10129 3473
10129 3985
10130 1170
10130 3474
10130 3986
10131 1171
10131 3475
10131 3987
10132 1172
10132 3476
10132 3988
10133 1173
10133 3477
10133 3989
10134 1174
10134 3478
10134 3990
10135 1175
10135 3479
10135 3991
10136 1176
10136 3480
10136 3992
10137 1177
10137 3481
10137 3993
10138 1178
10138 3482
10138 3994
10139 1179
10139 3483
10139 3995
10140 1180
10140 3484
10140 3996
10141 1181
10141 3485
10141 3997
10142 1182
10142 3486
10142 3998
10143 1183
10143 3487
10143 3999
10144 1184
10144 3488
10144 4000
10145 1185
10145 3489
10145 4001
10146 1186
10146 3490
10146 4002
10147 1187
10147 3491
10147 4003
10148 1188
10148 3492
10148 4004
10149 1189
10149 3493
10149 4005
10150 1190
10150 3494
10150 4006
10151 1191
10151 3495
10151 4007
10152 1192
10152 3496
10152 4008
10153 1193
10153 3497
10153 4009
10154 1194
10154 3498
10154 4010
10155 1195
10155 3499
10155 4011
10156 1196
10156 3500
10156 4012
10157 1197
10157 3501
10157 4013
10158 1198
10158 3502
10158 4014
10159 1199
10159 3503
10159 4015
10160 1200
10160 3504
10160 4016
10161 1201
10161 3505
10161 4017
10162 1202
10162 3506
10162 4018
10163 1203
10163 3507
10163 4019
10164 1204
10164 3508
10164 4020
10165 1205
10165 3509
10165 4021
10166 1206
10166 3510
10166 4022
10167 1207
10167 3511
10167 4023
10168 1208
10168 3512
10168 4024
10169 1209
10169 3513
10169 4025
10170 1210
10170 3514
10170 4026
10171 1211
10171 3515
10171 4027
10172 1212
10172 3516
10172 4028
10173 1213
10173 3517
10173 4029
10174 1214
10174 3518
10174 4030
10175 1215
10175 3519
10175 4031
10176 1216
10176 3520
10176 4032
10177 1217
10177 3521
10177 4033
10178 1218
10178 3522
10178 4034
10179 1219
10179 3523
10179 4035
10180 1220
10180 3524
10180 4036
10181 1221
10181 3525
10181 4037
10182 1222
10182 3526
10182 4038
10183 1223
10183 3527
10183 4039
10184 1224
10184 3528
10184 4040
10185 1225
10185 3529
10185 4041
10186 1226
10186 3530
10186 4042
10187 1227
10187 3531
10187 4043
10188 1228
10188 3532
10188 4044
10189 1229
10189 3533
10189 4045
10190 1230
10190 3534
10190 4046
10191 1231
10191 3535
10191 4047
10192 1232
10192 3536
10192 4048
10193 1233
10193 3537
10193 4049
10194 1234
10194 3538
10194 4050
10195 1235
10195 3539
10195 4051
10196 1236
10196 3540
10196 4052
10197 1237
10197 3541
10197 4053
10198 1238
10198 3542
10198 4054
10199 1239
10199 3543
10199 4055
10200 1240
10200 3544
10200 4056
10201 1241
10201 3545
10201 4057
10202 1242
10202 3546
10202 4058
10203 1243
10203 3547
10203 4059
10204 1244
10204 3548
10204 4060
10205 1245
10205 3549
10205 4061
10206 1246
10206 3550
10206 4062
10207 1247
10207 3551
10207 4063
10208 1248
10208 3552
10208 4064
10209 1249
10209 3553
10209 4065
10210 1250
10210 3554
10210 4066
10211 1251
10211 3555
10211 4067
10212 1252
10212 3556
10212 4068
10213 1253
10213 3557
10213 4069
10214 1254
10214 3558
10214 4070
10215 1255
10215 3559
10215 4071
10216 1256
10216 3560
10216 4072
10217 1257
10217 3561
10217 4073
10218 1258
10218 3562
10218 4074
10219 1259
10219 3563
10219 4075
10220 1260
10220 3564
10220 4076
10221 1261
10221 3565
10221 4077
10222 1262
10222 3566
10222 4078
10223 1263
10223 3567
10223 4079
10224 1264
10224 3568
10224 4080
10225 1265
10225 3569
10225 4081
10226 1266
10226 3570
10226 4082
10227 1267
10227 3571
10227 4083
10228 1268
10228 3572
10228 4084
10229 1269
10229 3573
10229 4085
10230 1270
10230 3574
10230 4086
10231 1271
10231 3575
10231 4087
10232 1272
10232 3576
10232 4088
10233 1273
10233 3577
10233 4089
10234 1274
10234 3578
10234 4090
10235 1275
10235 3579
10235 4091
10236 1276
10236 3580
10236 4092
10237 1277
10237 3581
10237 4093
10238 1278
10238 3582
10238 4094
10239 1279
10239 3583
10239 4095
10240 1280
10240 1792
10240 4096
10241 1281
10241 1793
10241 4097
10242 1282
10242 1794
10242 4098
10243 1283
10243 1795
10243 4099
10244 1284
10244 1796
10244 4100
10245 1285
10245 1797
10245 4101
10246 1286
10246 1798
10246 4102
10247 1287
10247 1799
10247 4103
10248 1288
10248 1800
10248 4104
10249 1289
10249 1801
10249 4105
10250 1290
10250 1802
10250 4106
10251 1291
10251 1803
10251 4107
10252 1292
10252 1804
10252 4108
10253 1293
10253 1805
10253 4109
10254 1294
10254 1806
10254 4110
10255 1295
10255 1807
10255 4111
10256 1296
10256 1808
10256 4112
10257 1297
10257 1809
10257 4113
10258 1298
10258 1810
10258 4114
10259 1299
10259 1811
10259 4115
10260 1300
10260 1812
10260 4116
10261 1301
10261 1813
10261 4117
10262 1302
10262 1814
10262 4118
10263 1303
10263 1815
10263 4119
10264 1304
10264 1816
10264 4120
10265 1305
10265 1817
10265 4121
10266 1306
10266 1818
10266 4122
10267 1307
10267 1819
10267 4123
10268 1308
10268 1820
10268 4124
10269 1309
10269 1821
10269 4125
10270 1310
10270 1822
10270 4126
10271 1311
10271 1823
10271 4127
10272 1312
10272 1824
10272 4128
10273 1313
10273 1825
10273 4129
10274 1314
10274 1826
10274 4130
10275 1315
10275 1827
10275 4131
10276 1316
10276 1828
10276 4132
10277 1317
10277 1829
10277 4133
10278 1318
10278 1830
10278 4134
10279 1319
10279 1831
10279 4135
10280 1320
10280 1832
10280 4136
10281 1321
10281 1833
10281 4137
10282 1322
10282 1834
10282 4138
10283 1323
10283 1835
10283 4139
10284 1324
10284 1836
10284 4140
10285 1325
10285 1837
10285 4141
10286 1326
10286 1838
10286 4142
10287 1327
10287 1839
10287 4143
10288 1328
10288 1840
10288 4144
10289 1329
10289 1841
10289 4145
10290 1330
10290 1842
10290 4146
10291 1331
10291 1843
10291 4147
10292 1332
10292 1844
10292 4148
10293 1333
10293 1845
10293 4149
10294 1334
10294 1846
10294 4150
10295 1335
10295 1847
10295 4151
10296 1336
10296 1848
10296 4152
10297 1337
10297 1849
10297 4153
10298 1338
10298 1850
10298 4154
10299 1339
10299 1851
10299 4155
10300 1340
10300 1852
10300 4156
10301 1341
10301 1853
10301 4157
10302 1342
10302 1854
10302 4158
10303 1343
10303 1855
10303 4159
10304 1344
10304 1856
10304 4160
10305 1345
10305 1857
10305 4161
10306 1346
10306 1858
10306 4162
10307 1347
10307 1859
10307 4163
10308 1348
10308 1860
10308 4164
10309 1349
10309 1861
10309 4165
10310 1350
10310 1862
10310 4166
10311 1351
10311 1863
10311 4167
10312 1352
10312 1864
10312 4168
10313 1353
10313 1865
10313 4169
10314 1354
10314 1866
10314 4170
10315 1355
10315 1867
10315 4171
10316 1356
10316 1868
10316 4172
10317 1357
10317 1869
10317 4173
10318 1358
10318 1870
10318 4174
10319 1359
10319 1871
10319 4175
10320 1360
10320 1872
10320 4176
10321 1361
10321 1873
10321 4177
10322 1362
10322 1874
10322 4178
10323 1363
10323 1875
10323 4179
10324 1364
10324 1876
10324 4180
10325 1365
10325 1877
10325 4181
10326 1366
10326 1878
10326 4182
10327 1367
10327 1879
10327 4183
10328 1368
10328 1880
10328 4184
10329 1369
10329 1881
10329 4185
10330 1370
10330 1882
10330 4186
10331 1371
10331 1883
10331 4187
10332 1372
10332 1884
10332 4188
10333 1373
10333 1885
10333 4189
10334 1374
10334 1886
10334 4190
10335 1375
10335 1887
10335 4191
10336 1376
10336 1888
10336 4192
10337 1377
10337 1889
10337 4193
10338 1378
10338 1890
10338 4194
10339 1379
10339 1891
10339 4195
10340 1380
10340 1892
10340 4196
10341 1381
10341 1893
10341 4197
10342 1382
10342 1894
10342 4198
10343 1383
10343 1895
10343 4199
10344 1384
10344 1896
10344 4200
10345 1385
10345 1897
10345 4201
10346 1386
10346 1898
10346 4202
10347 1387
10347 1899
10347 4203
10348 1388
10348 1900
10348 4204
10349 1389
10349 1901
10349 4205
10350 1390
10350 1902
10350 4206
10351 1391
10351 1903
10351 4207
10352 1392
10352 1904
10352 4208
10353 1393
10353 1905
10353 4209
10354 1394
10354 1906
10354 4210
10355 1395
10355 1907
10355 4211
10356 1396
10356 1908
10356 4212
10357 1397
10357 1909
10357 4213
10358 1398
10358 1910
10358 4214
10359 1399
10359 1911
10359 4215
10360 1400
10360 1912
10360 4216
10361 1401
10361 1913
10361 4217
10362 1402
10362 1914
10362 4218
10363 1403
10363 1915
10363 4219
10364 1404
10364 1916
10364 4220
10365 1405
10365 1917
10365 4221
10366 1406
10366 1918
10366 4222
10367 1407
10367 1919
10367 4223
10368 1408
10368 1920
10368 4224
10369 1409
10369 1921
10369 4225
10370 1410
10370 1922
10370 4226
10371 1411
10371 1923
10371 4227
10372 1412
10372 1924
10372 4228
10373 1413
10373 1925
10373 4229
10374 1414
10374 1926
10374 4230
10375 1415
10375 1927
10375 4231
10376 1416
10376 1928
10376 4232
10377 1417
10377 1929
10377 4233
10378 1418
10378 1930
10378 4234
10379 1419
10379 1931
10379 4235
10380 1420
10380 1932
10380 4236
10381 1421
10381 1933
10381 4237
10382 1422
10382 1934
10382 4238
10383 1423
10383 1935
10383 4239
10384 1424
10384 1936
10384 4240
10385 1425
10385 1937
10385 4241
10386 1426
10386 1938
10386 4242
10387 1427
10387 1939
10387 4243
10388 1428
10388 1940
10388 4244
10389 1429
10389 1941
10389 4245
10390 1430
10390 1942
10390 4246
10391 1431
10391 1943
10391 4247
10392 1432
10392 1944
10392 4248
10393 1433
10393 1945
10393 4249
10394 1434
10394 1946
10394 4250
10395 1435
10395 1947
10395 4251
10396 1436
10396 1948
10396 4252
10397 1437
10397 1949
10397 4253
10398 1438
10398 1950
10398 4254
10399 1439
10399 1951
10399 4255
10400 1440
10400 1952
10400 4256
10401 1441
10401 1953
10401 4257
10402 1442
10402 1954
10402 4258
10403 1443
10403 1955
10403 4259
10404 1444
10404 1956
10404 4260
10405 1445
10405 1957
10405 4261
10406 1446
10406 1958
10406 4262
10407 1447
10407 1959
10407 4263
10408 1448
10408 1960
10408 4264
10409 1449
10409 1961
10409 4265
10410 1450
10410 1962
10410 4266
10411 1451
10411 1963
10411 4267
10412 1452
10412 1964
10412 4268
10413 1453
10413 1965
10413 4269
10414 1454
10414 1966
10414 4270
10415 1455
10415 1967
10415 4271
10416 1456
10416 1968
10416 4272
10417 1457
10417 1969
10417 4273
10418 1458
10418 1970
10418 4274
10419 1459
10419 1971
10419 4275
10420 1460
10420 1972
10420 4276
10421 1461
10421 1973
10421 4277
10422 1462
10422 1974
10422 4278
10423 1463
10423 1975
10423 4279
10424 1464
10424 1976
10424 4280
10425 1465
10425 1977
10425 4281
10426 1466
10426 1978
10426 4282
10427 1467
10427 1979
10427 4283
10428 1468
10428 1980
10428 4284
10429 1469
10429 1981
10429 4285
10430 1470
10430 1982
10430 4286
10431 1471
10431 1983
10431 4287
10432 1472
10432 1984
10432 4288
10433 1473
10433 1985
10433 4289
10434 1474
10434 1986
10434 4290
10435 1475
10435 1987
10435 4291
10436 1476
10436 1988
10436 4292
10437 1477
10437 1989
10437 4293
10438 1478
10438 1990
10438 4294
10439 1479
10439 1991
10439 4295
10440 1480
10440 1992
10440 4296
10441 1481
10441 1993
10441 4297
10442 1482
10442 1994
10442 4298
10443 1483
10443 1995
10443 4299
10444 1484
10444 1996
10444 4300
10445 1485
10445 1997
10445 4301
10446 1486
10446 1998
10446 4302
10447 1487
10447 1999
10447 4303
10448 1488
10448 2000
10448 4304
10449 1489
10449 2001
10449 4305
10450 1490
10450 2002
10450 4306
10451 1491
10451 2003
10451 4307
10452 1492
10452 2004
10452 4308
10453 1493
10453 2005
10453 4309
10454 1494
10454 2006
10454 4310
10455 1495
10455 2007
10455 4311
10456 1496
10456 2008
10456 4312
10457 1497
10457 2009
10457 4313
10458 1498
10458 2010
10458 4314
10459 1499
10459 2011
10459 4315
10460 1500
10460 2012
10460 4316
10461 1501
10461 2013
10461 4317
10462 1502
10462 2014
10462 4318
10463 1503
10463 2015
10463 4319
10464 1504
10464 2016
10464 4320
10465 1505
10465 2017
10465 4321
10466 1506
10466 2018
10466 4322
10467 1507
10467 2019
10467 4323
10468 1508
10468 2020
10468 4324
10469 1509
10469 2021
10469 4325
10470 1510
10470 2022
10470 4326
10471 1511
10471 2023
10471 4327
10472 1512
10472 2024
10472 4328
10473 1513
10473 2025
10473 4329
10474 1514
10474 2026
10474 4330
10475 1515
10475 2027
10475 4331
10476 1516
10476 2028
10476 4332
10477 1517
10477 2029
10477 4333
10478 1518
10478 2030
10478 4334
10479 1519
10479 2031
10479 4335
10480 1520
10480 2032
10480 4336
10481 1521
10481 2033
10481 4337
10482 1522
10482 2034
10482 4338
10483 1523
10483 2035
10483 4339
10484 1524
10484 2036
10484 4340
10485 1525
10485 2037
10485 4341
10486 1526
10486 2038
10486 4342
10487 1527
10487 2039
10487 4343
10488 1528
10488 2040
10488 4344
10489 1529
10489 2041
10489 4345
10490 1530
10490 2042
10490 4346
10491 1531
10491 2043
10491 4347
10492 1532
10492 2044
10492 4348
10493 1533
10493 2045
10493 4349
10494 1534
10494 2046
10494 4350
10495 1535
10495 2047
10495 4351
10496 1536
10496 2048
10496 4352
10497 1537
10497 2049
10497 4353
10498 1538
10498 2050
10498 4354
10499 1539
10499 2051
10499 4355
10500 1540
10500 2052
10500 4356
10501 1541
10501 2053
10501 4357
10502 1542
10502 2054
10502 4358
10503 1543
10503 2055
10503 4359
10504 1544
10504 2056
10504 4360
10505 1545
10505 2057
10505 4361
10506 1546
10506 2058
10506 4362
10507 1547
10507 2059
10507 4363
10508 1548
10508 2060
10508 4364
10509 1549
10509 2061
10509 4365
10510 1550
10510 2062
10510 4366
10511 1551
10511 2063
10511 4367
10512 1552
10512 2064
10512 4368
10513 1553
10513 2065
10513 4369
10514 1554
10514 2066
10514 4370
10515 1555
10515 2067
10515 4371
10516 1556
10516 2068
10516 4372
10517 1557
10517 2069
10517 4373
10518 1558
10518 2070
10518 4374
10519 1559
10519 2071
10519 4375
10520 1560
10520 2072
10520 4376
10521 1561
10521 2073
10521 4377
10522 1562
10522 2074
10522 4378
10523 1563
10523 2075
10523 4379
10524 1564
10524 2076
10524 4380
10525 1565
10525 2077
10525 4381
10526 1566
10526 2078
10526 4382
10527 1567
10527 2079
10527 4383
10528 1568
10528 2080
10528 4384
10529 1569
10529 2081
10529 4385
10530 1570
10530 2082
10530 4386
10531 1571
10531 2083
10531 4387
10532 1572
10532 2084
10532 4388
10533 1573
10533 2085
10533 4389
10534 1574
10534 2086
10534 4390
10535 1575
10535 2087
10535 4391
10536 1576
10536 2088
10536 4392
10537 1577
10537 2089
10537 4393
10538 1578
10538 2090
10538 4394
10539 1579
10539 2091
10539 4395
10540 1580
10540 2092
10540 4396
10541 1581
10541 2093
10541 4397
10542 1582
10542 2094
10542 4398
10543 1583
10543 2095
10543 4399
10544 1584
10544 2096
10544 4400
10545 1585
10545 2097
10545 4401
10546 1586
10546 2098
10546 4402
10547 1587
10547 2099
10547 4403
10548 1588
10548 2100
10548 4404
10549 1589
10549 2101
10549 4405
10550 1590
10550 2102
10550 4406
10551 1591
10551 2103
10551 4407
10552 1592
10552 2104
10552 4408
10553 1593
10553 2105
10553 4409
10554 1594
10554 2106
10554 4410
10555 1595
10555 2107
10555 4411
10556 1596
10556 2108
10556 4412
10557 1597
10557 2109
10557 4413
10558 1598
10558 2110
10558 4414
10559 1599
10559 2111
10559 4415
10560 1600
10560 2112
10560 4416
10561 1601
10561 2113
10561 4417
10562 1602
10562 2114
10562 4418
10563 1603
10563 2115
10563 4419
10564 1604
10564 2116
10564 4420
10565 1605
10565 2117
10565 4421
10566 1606
10566 2118
10566 4422
10567 1607
10567 2119
10567 4423
10568 1608
10568 2120
10568 4424
10569 1609
10569 2121
10569 4425
10570 1610
10570 2122
10570 4426
10571 1611
10571 2123
10571 4427
10572 1612
10572 2124
10572 4428
10573 1613
10573 2125
10573 4429
10574 1614
10574 2126
10574 4430
10575 1615
10575 2127
10575 4431
10576 1616
10576 2128
10576 4432
10577 1617
10577 2129
10577 4433
10578 1618
10578 2130
10578 4434
10579 1619
10579 2131
10579 4435
10580 1620
10580 2132
10580 4436
10581 1621
10581 2133
10581 4437
10582 1622
10582 2134
10582 4438
10583 1623
10583 2135
10583 4439
10584 1624
10584 2136
10584 4440
10585 1625
10585 2137
10585 4441
10586 1626
10586 2138
10586 4442
10587 1627
10587 2139
10587 4443
10588 1628
10588 2140
10588 4444
10589 1629
10589 2141
10589 4445
10590 1630
10590 2142
10590 4446
10591 1631
10591 2143
10591 4447
10592 1632
10592 2144
10592 4448
10593 1633
10593 2145
10593 4449
10594 1634
10594 2146
10594 4450
10595 1635
10595 2147
10595 4451
10596 1636
10596 2148
10596 4452
10597 1637
10597 2149
10597 4453
10598 1638
10598 2150
10598 4454
10599 1639
10599 2151
10599 4455
10600 1640
10600 2152
10600 4456
10601 1641
10601 2153
10601 4457
10602 1642
10602 2154
10602 4458
10603 1643
10603 2155
10603 4459
10604 1644
10604 2156
10604 4460
10605 1645
10605 2157
10605 4461
10606 1646
10606 2158
10606 4462
10607 1647
10607 2159
10607 4463
10608 1648
10608 2160
10608 4464
10609 1649
10609 2161
10609 4465
10610 1650
10610 2162
10610 4466
10611 1651
10611 2163
10611 4467
10612 1652
10612 2164
10612 4468
10613 1653
10613 2165
10613 4469
10614 1654
10614 2166
10614 4470
10615 1655
10615 2167
10615 4471
10616 1656
10616 2168
10616 4472
10617 1657
10617 2169
10617 4473
10618 1658
10618 2170
10618 4474
10619 1659
10619 2171
10619 4475
10620 1660
10620 2172
10620 4476
10621 1661
10621 2173
10621 4477
10622 1662
10622 2174
10622 4478
10623 1663
10623 2175
10623 4479
10624 1664
10624 2176
10624 4480
10625 1665
10625 2177
10625 4481
10626 1666
10626 2178
10626 4482
10627 1667
10627 2179
10627 4483
10628 1668
10628 2180
10628 4484
10629 1669
10629 2181
10629 4485
10630 1670
10630 2182
10630 4486
10631 1671
10631 2183
10631 4487
10632 1672
10632 2184
10632 4488
10633 1673
10633 2185
10633 4489
10634 1674
10634 2186
10634 4490
10635 1675
10635 2187
10635 4491
10636 1676
10636 2188
10636 4492
10637 1677
10637 2189
10637 4493
10638 1678
10638 2190
10638 4494
10639 1679
10639 2191
10639 4495
10640 1680
10640 2192
10640 4496
10641 1681
10641 2193
10641 4497
10642 1682
10642 2194
10642 4498
10643 1683
10643 2195
10643 4499
10644 1684
10644 2196
10644 4500
10645 1685
10645 2197
10645 4501
10646 1686
10646 2198
10646 4502
10647 1687
10647 2199
10647 4503
10648 1688
10648 2200
10648 4504
10649 1689
10649 2201
10649 4505
10650 1690
10650 2202
10650 4506
10651 1691
10651 2203
10651 4507
10652 1692
10652 2204
10652 4508
10653 1693
10653 2205
10653 4509
10654 1694
10654 2206
10654 4510
10655 1695
10655 2207
10655 4511
10656 1696
10656 2208
10656 4512
10657 1697
10657 2209
10657 4513
10658 1698
10658 2210
10658 4514
10659 1699
10659 2211
10659 4515
10660 1700
10660 2212
10660 4516
10661 1701
10661 2213
10661 4517
10662 1702
10662 2214
10662 4518
10663 1703
10663 2215
10663 4519
10664 1704
10664 2216
10664 4520
10665 1705
10665 2217
10665 4521
10666 1706
10666 2218
10666 4522
10667 1707
10667 2219
10667 4523
10668 1708
10668 2220
10668 4524
10669 1709
10669 2221
10669 4525
10670 1710
10670 2222
10670 4526
10671 1711
10671 2223
10671 4527
10672 1712
10672 2224
10672 4528
10673 1713
10673 2225
10673 4529
10674 1714
10674 2226
10674 4530
10675 1715
10675 2227
10675 4531
10676 1716
10676 2228
10676 4532
10677 1717
10677 2229
10677 4533
10678 1718
10678 2230
10678 4534
10679 1719
10679 2231
10679 4535
10680 1720
10680 2232
10680 4536
10681 1721
10681 2233
10681 4537
10682 1722
10682 2234
10682 4538
10683 1723
10683 2235
10683 4539
10684 1724
10684 2236
10684 4540
10685 1725
10685 2237
10685 4541
10686 1726
10686 2238
10686 4542
10687 1727
10687 2239
10687 4543
10688 1728
10688 2240
10688 4544
10689 1729
10689 2241
10689 4545
10690 1730
10690 2242
10690 4546
10691 1731
10691 2243
10691 4547
10692 1732
10692 2244
10692 4548
10693 1733
10693 2245
10693 4549
10694 1734
10694 2246
10694 4550
10695 1735
10695 2247
10695 4551
10696 1736
10696 2248
10696 4552
10697 1737
10697 2249
10697 4553
10698 1738
10698 2250
10698 4554
10699 1739
10699 2251
10699 4555
10700 1740
10700 2252
10700 4556
10701 1741
10701 2253
10701 4557
10702 1742
10702 2254
10702 4558
10703 1743
10703 2255
10703 4559
10704 1744
10704 2256
10704 4560
10705 1745
10705 2257
10705 4561
10706 1746
10706 2258
10706 4562
10707 1747
10707 2259
10707 4563
10708 1748
10708 2260
10708 4564
10709 1749
10709 2261
10709 4565
10710 1750
10710 2262
10710 4566
10711 1751
10711 2263
10711 4567
10712 1752
10712 2264
10712 4568
10713 1753
10713 2265
10713 4569
10714 1754
10714 2266
10714 4570
10715 1755
10715 2267
10715 4571
10716 1756
10716 2268
10716 4572
10717 1757
10717 2269
10717 4573
10718 1758
10718 2270
10718 4574
10719 1759
10719 2271
10719 4575
10720 1760
10720 2272
10720 4576
10721 1761
10721 2273
10721 4577
10722 1762
10722 2274
10722 4578
10723 1763
10723 2275
10723 4579
10724 1764
10724 2276
10724 4580
10725 1765
10725 2277
10725 4581
10726 1766
10726 2278
10726 4582
10727 1767
10727 2279
10727 4583
10728 1768
10728 2280
10728 4584
10729 1769
10729 2281
10729 4585
10730 1770
10730 2282
10730 4586
10731 1771
10731 2283
10731 4587
10732 1772
10732 2284
10732 4588
10733 1773
10733 2285
10733 4589
10734 1774
10734 2286
10734 4590
10735 1775
10735 2287
10735 4591
10736 1776
10736 2288
10736 4592
10737 1777
10737 2289
10737 4593
10738 1778
10738 2290
10738 4594
10739 1779
10739 2291
10739 4595
10740 1780
10740 2292
10740 4596
10741 1781
10741 2293
10741 4597
10742 1782
10742 2294
10742 4598
10743 1783
10743 2295
10743 4599
10744 1784
10744 2296
10744 4600
10745 1785
10745 2297
10745 4601
10746 1786
10746 2298
10746 4602
10747 1787
10747 2299
10747 4603
10748 1788
10748 2300
10748 4604
10749 1789
10749 2301
10749 4605
10750 1790
10750 2302
10750 4606
10751 1791
10751 2303
10751 4607
