84 42 252
0 1
0 14
0 28
1 0
1 15
1 29
2 2
2 16
2 30
3 3
3 17
3 31
4 4
4 18
4 32
5 5
5 19
5 33
6 6
6 20
6 34
7 7
7 21
7 35
8 8
8 22
8 36
9 9
9 23
9 37
10 10
10 24
10 38
11 11
11 25
11 39
12 12
12 26
12 40
13 13
13 27
13 41
14 0
14 26
14 38
15 1
15 27
15 39
16 2
16 14
16 40
17 3
17 15
17 41
18 4
18 16
18 28
19 5
19 17
19 29
20 6
20 18
20 30
21 7
21 19
21 31
22 8
22 20
22 32
23 9
23 21
23 33
24 10
24 22
24 34
25 11
25 23
25 35
26 12
26 24
26 36
27 13
27 25
27 37
28 0
28 24
28 34
29 1
29 25
29 35
30 2
30 26
30 36
31 3
31 27
31 37
32 4
32 14
32 38
33 5
33 15
33 39
34 6
34 16
34 40
35 7
35 17
35 41
36 8
36 18
36 28
37 9
37 19
37 29
38 10
38 20
38 30
39 11
39 21
39 31
40 12
40 22
40 32
41 13
41 23
41 33
42 0
42 22
42 30
43 1
43 23
43 31
44 2
44 24
44 32
45 3
45 25
45 33
46 4
46 26
46 34
47 5
47 27
47 35
48 6
48 14
48 36
49 7
49 15
49 37
50 8
50 16
50 38
51 9
51 17
51 39
52 10
52 18
52 40
53 11
53 19
53 41
54 12
54 20
54 28
55 13
55 21
55 29
56 0
56 20
56 40
57 1
57 21
57 41
58 2
58 22
58 28
59 3
59 23
59 29
60 4
60 24
60 30
61 5
61 25
61 31
62 6
62 26
62 32
63 7
63 27
63 33
64 8
64 14
64 34
65 9
65 15
65 35
66 10
66 16
66 36
67 11
67 17
67 37
68 12
68 18
68 38
69 13
69 19
69 39
70 0
70 18
70 36
71 1
71 19
71 37
72 2
72 20
72 38
73 3
73 21
73 39
74 4
74 22
74 40
75 5
75 23
75 41
76 6
76 24
76 28
77 7
77 25
77 29
78 8
78 26
78 30
79 9
79 27
79 31
80 10
80 14
80 32
81 11
81 15
81 33
82 12
82 16
82 34
83 13
83 17
83 35
