1344 672 4032
0 1
0 224
0 448
1 2
1 225
1 449
2 3
2 226
2 450
3 4
3 227
3 451
4 5
4 228
4 452
5 6
5 229
5 453
6 7
6 230
6 454
7 8
7 231
7 455
8 9
8 232
8 456
9 10
9 233
9 457
10 11
10 234
10 458
11 12
11 235
11 459
12 13
12 236
12 460
13 14
13 237
13 461
14 15
14 238
14 462
15 16
15 239
15 463
16 17
16 240
16 464
17 18
17 241
17 465
18 19
18 242
18 466
19 20
19 243
19 467
20 21
20 244
20 468
21 22
21 245
21 469
22 23
22 246
22 470
23 24
23 247
23 471
24 25
24 248
24 472
25 26
25 249
25 473
26 27
26 250
26 474
27 28
27 251
27 475
28 29
28 252
28 476
29 30
29 253
29 477
30 31
30 254
30 478
31 0
31 255
31 479
32 32
32 256
32 480
33 33
33 257
33 481
34 34
34 258
34 482
35 35
35 259
35 483
36 36
36 260
36 484
37 37
37 261
37 485
38 38
38 262
38 486
39 39
39 263
39 487
40 40
40 264
40 488
41 41
41 265
41 489
42 42
42 266
42 490
43 43
43 267
43 491
44 44
44 268
44 492
45 45
45 269
45 493
46 46
46 270
46 494
47 47
47 271
47 495
48 48
48 272
48 496
49 49
49 273
49 497
50 50
50 274
50 498
51 51
51 275
51 499
52 52
52 276
52 500
53 53
53 277
53 501
54 54
54 278
54 502
55 55
55 279
55 503
56 56
56 280
56 504
57 57
57 281
57 505
58 58
58 282
58 506
59 59
59 283
59 507
60 60
60 284
60 508
61 61
61 285
61 509
62 62
62 286
62 510
63 63
63 287
63 511
64 64
64 288
64 512
65 65
65 289
65 513
66 66
66 290
66 514
67 67
67 291
67 515
68 68
68 292
68 516
69 69
69 293
69 517
70 70
70 294
70 518
71 71
71 295
71 519
72 72
72 296
72 520
73 73
73 297
73 521
74 74
74 298
74 522
75 75
75 299
75 523
76 76
76 300
76 524
77 77
77 301
77 525
78 78
78 302
78 526
79 79
79 303
79 527
80 80
80 304
80 528
81 81
81 305
81 529
82 82
82 306
82 530
83 83
83 307
83 531
84 84
84 308
84 532
85 85
85 309
85 533
86 86
86 310
86 534
87 87
87 311
87 535
88 88
88 312
88 536
89 89
89 313
89 537
90 90
90 314
90 538
91 91
91 315
91 539
92 92
92 316
92 540
93 93
93 317
93 541
94 94
94 318
94 542
95 95
95 319
95 543
96 96
96 320
96 544
97 97
97 321
97 545
98 98
98 322
98 546
99 99
99 323
99 547
100 100
100 324
100 548
101 101
101 325
101 549
102 102
102 326
102 550
103 103
103 327
103 551
104 104
104 328
104 552
105 105
105 329
105 553
106 106
106 330
106 554
107 107
107 331
107 555
108 108
108 332
108 556
109 109
109 333
109 557
110 110
110 334
110 558
111 111
111 335
111 559
112 112
112 336
112 560
113 113
113 337
113 561
114 114
114 338
114 562
115 115
115 339
115 563
116 116
116 340
116 564
117 117
117 341
117 565
118 118
118 342
118 566
119 119
119 343
119 567
120 120
120 344
120 568
121 121
121 345
121 569
122 122
122 346
122 570
123 123
123 347
123 571
124 124
124 348
124 572
125 125
125 349
125 573
126 126
126 350
126 574
127 127
127 351
127 575
128 128
128 352
128 576
129 129
129 353
129 577
130 130
130 354
130 578
131 131
131 355
131 579
132 132
132 356
132 580
133 133
133 357
133 581
134 134
134 358
134 582
135 135
135 359
135 583
136 136
136 360
136 584
137 137
137 361
137 585
138 138
138 362
138 586
139 139
139 363
139 587
140 140
140 364
140 588
141 141
141 365
141 589
142 142
142 366
142 590
143 143
143 367
143 591
144 144
144 368
144 592
145 145
145 369
145 593
146 146
146 370
146 594
147 147
147 371
147 595
148 148
148 372
148 596
149 149
149 373
149 597
150 150
150 374
150 598
151 151
151 375
151 599
152 152
152 376
152 600
153 153
153 377
153 601
154 154
154 378
154 602
155 155
155 379
155 603
156 156
156 380
156 604
157 157
157 381
157 605
158 158
158 382
158 606
159 159
159 383
159 607
160 160
160 384
160 608
161 161
161 385
161 609
162 162
162 386
162 610
163 163
163 387
163 611
164 164
164 388
164 612
165 165
165 389
165 613
166 166
166 390
166 614
167 167
167 391
167 615
168 168
168 392
168 616
169 169
169 393
169 617
170 170
170 394
170 618
171 171
171 395
171 619
172 172
172 396
172 620
173 173
173 397
173 621
174 174
174 398
174 622
175 175
175 399
175 623
176 176
176 400
176 624
177 177
177 401
177 625
178 178
178 402
178 626
179 179
179 403
179 627
180 180
180 404
180 628
181 181
181 405
181 629
182 182
182 406
182 630
183 183
183 407
183 631
184 184
184 408
184 632
185 185
185 409
185 633
186 186
186 410
186 634
187 187
187 411
187 635
188 188
188 412
188 636
189 189
189 413
189 637
190 190
190 414
190 638
191 191
191 415
191 639
192 192
192 416
192 640
193 193
193 417
193 641
194 194
194 418
194 642
195 195
195 419
195 643
196 196
196 420
196 644
197 197
197 421
197 645
198 198
198 422
198 646
199 199
199 423
199 647
200 200
200 424
200 648
201 201
201 425
201 649
202 202
202 426
202 650
203 203
203 427
203 651
204 204
204 428
204 652
205 205
205 429
205 653
206 206
206 430
206 654
207 207
207 431
207 655
208 208
208 432
208 656
209 209
209 433
209 657
210 210
210 434
210 658
211 211
211 435
211 659
212 212
212 436
212 660
213 213
213 437
213 661
214 214
214 438
214 662
215 215
215 439
215 663
216 216
216 440
216 664
217 217
217 441
217 665
218 218
218 442
218 666
219 219
219 443
219 667
220 220
220 444
220 668
221 221
221 445
221 669
222 222
222 446
222 670
223 223
223 447
223 671
224 0
224 416
224 608
225 1
225 417
225 609
226 2
226 418
226 610
227 3
227 419
227 611
228 4
228 420
228 612
229 5
229 421
229 613
230 6
230 422
230 614
231 7
231 423
231 615
232 8
232 424
232 616
233 9
233 425
233 617
234 10
234 426
234 618
235 11
235 427
235 619
236 12
236 428
236 620
237 13
237 429
237 621
238 14
238 430
238 622
239 15
239 431
239 623
240 16
240 432
240 624
241 17
241 433
241 625
242 18
242 434
242 626
243 19
243 435
243 627
244 20
244 436
244 628
245 21
245 437
245 629
246 22
246 438
246 630
247 23
247 439
247 631
248 24
248 440
248 632
249 25
249 441
249 633
250 26
250 442
250 634
251 27
251 443
251 635
252 28
252 444
252 636
253 29
253 445
253 637
254 30
254 446
254 638
255 31
255 447
255 639
256 32
256 224
256 640
257 33
257 225
257 641
258 34
258 226
258 642
259 35
259 227
259 643
260 36
260 228
260 644
261 37
261 229
261 645
262 38
262 230
262 646
263 39
263 231
263 647
264 40
264 232
264 648
265 41
265 233
265 649
266 42
266 234
266 650
267 43
267 235
267 651
268 44
268 236
268 652
269 45
269 237
269 653
270 46
270 238
270 654
271 47
271 239
271 655
272 48
272 240
272 656
273 49
273 241
273 657
274 50
274 242
274 658
275 51
275 243
275 659
276 52
276 244
276 660
277 53
277 245
277 661
278 54
278 246
278 662
279 55
279 247
279 663
280 56
280 248
280 664
281 57
281 249
281 665
282 58
282 250
282 666
283 59
283 251
283 667
284 60
284 252
284 668
285 61
285 253
285 669
286 62
286 254
286 670
287 63
287 255
287 671
288 64
288 256
288 448
289 65
289 257
289 449
290 66
290 258
290 450
291 67
291 259
291 451
292 68
292 260
292 452
293 69
293 261
293 453
294 70
294 262
294 454
295 71
295 263
295 455
296 72
296 264
296 456
297 73
297 265
297 457
298 74
298 266
298 458
299 75
299 267
299 459
300 76
300 268
300 460
301 77
301 269
301 461
302 78
302 270
302 462
303 79
303 271
303 463
304 80
304 272
304 464
305 81
305 273
305 465
306 82
306 274
306 466
307 83
307 275
307 467
308 84
308 276
308 468
309 85
309 277
309 469
310 86
310 278
310 470
311 87
311 279
311 471
312 88
312 280
312 472
313 89
313 281
313 473
314 90
314 282
314 474
315 91
315 283
315 475
316 92
316 284
316 476
317 93
317 285
317 477
318 94
318 286
318 478
319 95
319 287
319 479
320 96
320 288
320 480
321 97
321 289
321 481
322 98
322 290
322 482
323 99
323 291
323 483
324 100
324 292
324 484
325 101
325 293
325 485
326 102
326 294
326 486
327 103
327 295
327 487
328 104
328 296
328 488
329 105
329 297
329 489
330 106
330 298
330 490
331 107
331 299
331 491
332 108
332 300
332 492
333 109
333 301
333 493
334 110
334 302
334 494
335 111
335 303
335 495
336 112
336 304
336 496
337 113
337 305
337 497
338 114
338 306
338 498
339 115
339 307
339 499
340 116
340 308
340 500
341 117
341 309
341 501
342 118
342 310
342 502
343 119
343 311
343 503
344 120
344 312
344 504
345 121
345 313
345 505
346 122
346 314
346 506
347 123
347 315
347 507
348 124
348 316
348 508
349 125
349 317
349 509
350 126
350 318
350 510
351 127
351 319
351 511
352 128
352 320
352 512
353 129
353 321
353 513
354 130
354 322
354 514
355 131
355 323
355 515
356 132
356 324
356 516
357 133
357 325
357 517
358 134
358 326
358 518
359 135
359 327
359 519
360 136
360 328
360 520
361 137
361 329
361 521
362 138
362 330
362 522
363 139
363 331
363 523
364 140
364 332
364 524
365 141
365 333
365 525
366 142
366 334
366 526
367 143
367 335
367 527
368 144
368 336
368 528
369 145
369 337
369 529
370 146
370 338
370 530
371 147
371 339
371 531
372 148
372 340
372 532
373 149
373 341
373 533
374 150
374 342
374 534
375 151
375 343
375 535
376 152
376 344
376 536
377 153
377 345
377 537
378 154
378 346
378 538
379 155
379 347
379 539
380 156
380 348
380 540
381 157
381 349
381 541
382 158
382 350
382 542
383 159
383 351
383 543
384 160
384 352
384 544
385 161
385 353
385 545
386 162
386 354
386 546
387 163
387 355
387 547
388 164
388 356
388 548
389 165
389 357
389 549
390 166
390 358
390 550
391 167
391 359
391 551
392 168
392 360
392 552
393 169
393 361
393 553
394 170
394 362
394 554
395 171
395 363
395 555
396 172
396 364
396 556
397 173
397 365
397 557
398 174
398 366
398 558
399 175
399 367
399 559
400 176
400 368
400 560
401 177
401 369
401 561
402 178
402 370
402 562
403 179
403 371
403 563
404 180
404 372
404 564
405 181
405 373
405 565
406 182
406 374
406 566
407 183
407 375
407 567
408 184
408 376
408 568
409 185
409 377
409 569
410 186
410 378
410 570
411 187
411 379
411 571
412 188
412 380
412 572
413 189
413 381
413 573
414 190
414 382
414 574
415 191
415 383
415 575
416 192
416 384
416 576
417 193
417 385
417 577
418 194
418 386
418 578
419 195
419 387
419 579
420 196
420 388
420 580
421 197
421 389
421 581
422 198
422 390
422 582
423 199
423 391
423 583
424 200
424 392
424 584
425 201
425 393
425 585
426 202
426 394
426 586
427 203
427 395
427 587
428 204
428 396
428 588
429 205
429 397
429 589
430 206
430 398
430 590
431 207
431 399
431 591
432 208
432 400
432 592
433 209
433 401
433 593
434 210
434 402
434 594
435 211
435 403
435 595
436 212
436 404
436 596
437 213
437 405
437 597
438 214
438 406
438 598
439 215
439 407
439 599
440 216
440 408
440 600
441 217
441 409
441 601
442 218
442 410
442 602
443 219
443 411
443 603
444 220
444 412
444 604
445 221
445 413
445 605
446 222
446 414
446 606
447 223
447 415
447 607
448 0
448 384
448 544
449 1
449 385
449 545
450 2
450 386
450 546
451 3
451 387
451 547
452 4
452 388
452 548
453 5
453 389
453 549
454 6
454 390
454 550
455 7
455 391
455 551
456 8
456 392
456 552
457 9
457 393
457 553
458 10
458 394
458 554
459 11
459 395
459 555
460 12
460 396
460 556
461 13
461 397
461 557
462 14
462 398
462 558
463 15
463 399
463 559
464 16
464 400
464 560
465 17
465 401
465 561
466 18
466 402
466 562
467 19
467 403
467 563
468 20
468 404
468 564
469 21
469 405
469 565
470 22
470 406
470 566
471 23
471 407
471 567
472 24
472 408
472 568
473 25
473 409
473 569
474 26
474 410
474 570
475 27
475 411
475 571
476 28
476 412
476 572
477 29
477 413
477 573
478 30
478 414
478 574
479 31
479 415
479 575
480 32
480 416
480 576
481 33
481 417
481 577
482 34
482 418
482 578
483 35
483 419
483 579
484 36
484 420
484 580
485 37
485 421
485 581
486 38
486 422
486 582
487 39
487 423
487 583
488 40
488 424
488 584
489 41
489 425
489 585
490 42
490 426
490 586
491 43
491 427
491 587
492 44
492 428
492 588
493 45
493 429
493 589
494 46
494 430
494 590
495 47
495 431
495 591
496 48
496 432
496 592
497 49
497 433
497 593
498 50
498 434
498 594
499 51
499 435
499 595
500 52
500 436
500 596
501 53
501 437
501 597
502 54
502 438
502 598
503 55
503 439
503 599
504 56
504 440
504 600
505 57
505 441
505 601
506 58
506 442
506 602
507 59
507 443
507 603
508 60
508 444
508 604
509 61
509 445
509 605
510 62
510 446
510 606
511 63
511 447
511 607
512 64
512 224
512 608
513 65
513 225
513 609
514 66
514 226
514 610
515 67
515 227
515 611
516 68
516 228
516 612
517 69
517 229
517 613
518 70
518 230
518 614
519 71
519 231
519 615
520 72
520 232
520 616
521 73
521 233
521 617
522 74
522 234
522 618
523 75
523 235
523 619
524 76
524 236
524 620
525 77
525 237
525 621
526 78
526 238
526 622
527 79
527 239
527 623
528 80
528 240
528 624
529 81
529 241
529 625
530 82
530 242
530 626
531 83
531 243
531 627
532 84
532 244
532 628
533 85
533 245
533 629
534 86
534 246
534 630
535 87
535 247
535 631
536 88
536 248
536 632
537 89
537 249
537 633
538 90
538 250
538 634
539 91
539 251
539 635
540 92
540 252
540 636
541 93
541 253
541 637
542 94
542 254
542 638
543 95
543 255
543 639
544 96
544 256
544 640
545 97
545 257
545 641
546 98
546 258
546 642
547 99
547 259
547 643
548 100
548 260
548 644
549 101
549 261
549 645
550 102
550 262
550 646
551 103
551 263
551 647
552 104
552 264
552 648
553 105
553 265
553 649
554 106
554 266
554 650
555 107
555 267
555 651
556 108
556 268
556 652
557 109
557 269
557 653
558 110
558 270
558 654
559 111
559 271
559 655
560 112
560 272
560 656
561 113
561 273
561 657
562 114
562 274
562 658
563 115
563 275
563 659
564 116
564 276
564 660
565 117
565 277
565 661
566 118
566 278
566 662
567 119
567 279
567 663
568 120
568 280
568 664
569 121
569 281
569 665
570 122
570 282
570 666
571 123
571 283
571 667
572 124
572 284
572 668
573 125
573 285
573 669
574 126
574 286
574 670
575 127
575 287
575 671
576 128
576 288
576 448
577 129
577 289
577 449
578 130
578 290
578 450
579 131
579 291
579 451
580 132
580 292
580 452
581 133
581 293
581 453
582 134
582 294
582 454
583 135
583 295
583 455
584 136
584 296
584 456
585 137
585 297
585 457
586 138
586 298
586 458
587 139
587 299
587 459
588 140
588 300
588 460
589 141
589 301
589 461
590 142
590 302
590 462
591 143
591 303
591 463
592 144
592 304
592 464
593 145
593 305
593 465
594 146
594 306
594 466
595 147
595 307
595 467
596 148
596 308
596 468
597 149
597 309
597 469
598 150
598 310
598 470
599 151
599 311
599 471
600 152
600 312
600 472
601 153
601 313
601 473
602 154
602 314
602 474
603 155
603 315
603 475
604 156
604 316
604 476
605 157
605 317
605 477
606 158
606 318
606 478
607 159
607 319
607 479
608 160
608 320
608 480
609 161
609 321
609 481
610 162
610 322
610 482
611 163
611 323
611 483
612 164
612 324
612 484
613 165
613 325
613 485
614 166
614 326
614 486
615 167
615 327
615 487
616 168
616 328
616 488
617 169
617 329
617 489
618 170
618 330
618 490
619 171
619 331
619 491
620 172
620 332
620 492
621 173
621 333
621 493
622 174
622 334
622 494
623 175
623 335
623 495
624 176
624 336
624 496
625 177
625 337
625 497
626 178
626 338
626 498
627 179
627 339
627 499
628 180
628 340
628 500
629 181
629 341
629 501
630 182
630 342
630 502
631 183
631 343
631 503
632 184
632 344
632 504
633 185
633 345
633 505
634 186
634 346
634 506
635 187
635 347
635 507
636 188
636 348
636 508
637 189
637 349
637 509
638 190
638 350
638 510
639 191
639 351
639 511
640 192
640 352
640 512
641 193
641 353
641 513
642 194
642 354
642 514
643 195
643 355
643 515
644 196
644 356
644 516
645 197
645 357
645 517
646 198
646 358
646 518
647 199
647 359
647 519
648 200
648 360
648 520
649 201
649 361
649 521
650 202
650 362
650 522
651 203
651 363
651 523
652 204
652 364
652 524
653 205
653 365
653 525
654 206
654 366
654 526
655 207
655 367
655 527
656 208
656 368
656 528
657 209
657 369
657 529
658 210
658 370
658 530
659 211
659 371
659 531
660 212
660 372
660 532
661 213
661 373
661 533
662 214
662 374
662 534
663 215
663 375
663 535
664 216
664 376
664 536
665 217
665 377
665 537
666 218
666 378
666 538
667 219
667 379
667 539
668 220
668 380
668 540
669 221
669 381
669 541
670 222
670 382
670 542
671 223
671 383
671 543
672 0
672 352
672 480
673 1
673 353
673 481
674 2
674 354
674 482
675 3
675 355
675 483
676 4
676 356
676 484
677 5
677 357
677 485
678 6
678 358
678 486
679 7
679 359
679 487
680 8
680 360
680 488
681 9
681 361
681 489
682 10
682 362
682 490
683 11
683 363
683 491
684 12
684 364
684 492
685 13
685 365
685 493
686 14
686 366
686 494
687 15
687 367
687 495
688 16
688 368
688 496
689 17
689 369
689 497
690 18
690 370
690 498
691 19
691 371
691 499
692 20
692 372
692 500
693 21
693 373
693 501
694 22
694 374
694 502
695 23
695 375
695 503
696 24
696 376
696 504
697 25
697 377
697 505
698 26
698 378
698 506
699 27
699 379
699 507
700 28
700 380
700 508
701 29
701 381
701 509
702 30
702 382
702 510
703 31
703 383
703 511
704 32
704 384
704 512
705 33
705 385
705 513
706 34
706 386
706 514
707 35
707 387
707 515
708 36
708 388
708 516
709 37
709 389
709 517
710 38
710 390
710 518
711 39
711 391
711 519
712 40
712 392
712 520
713 41
713 393
713 521
714 42
714 394
714 522
715 43
715 395
715 523
716 44
716 396
716 524
717 45
717 397
717 525
718 46
718 398
718 526
719 47
719 399
719 527
720 48
720 400
720 528
721 49
721 401
721 529
722 50
722 402
722 530
723 51
723 403
723 531
724 52
724 404
724 532
725 53
725 405
725 533
726 54
726 406
726 534
727 55
727 407
727 535
728 56
728 408
728 536
729 57
729 409
729 537
730 58
730 410
730 538
731 59
731 411
731 539
732 60
732 412
732 540
733 61
733 413
733 541
734 62
734 414
734 542
735 63
735 415
735 543
736 64
736 416
736 544
737 65
737 417
737 545
738 66
738 418
738 546
739 67
739 419
739 547
740 68
740 420
740 548
741 69
741 421
741 549
742 70
742 422
742 550
743 71
743 423
743 551
744 72
744 424
744 552
745 73
745 425
745 553
746 74
746 426
746 554
747 75
747 427
747 555
748 76
748 428
748 556
749 77
749 429
749 557
750 78
750 430
750 558
751 79
751 431
751 559
752 80
752 432
752 560
753 81
753 433
753 561
754 82
754 434
754 562
755 83
755 435
755 563
756 84
756 436
756 564
757 85
757 437
757 565
758 86
758 438
758 566
759 87
759 439
759 567
760 88
760 440
760 568
761 89
761 441
761 569
762 90
762 442
762 570
763 91
763 443
763 571
764 92
764 444
764 572
765 93
765 445
765 573
766 94
766 446
766 574
767 95
767 447
767 575
768 96
768 224
768 576
769 97
769 225
769 577
770 98
770 226
770 578
771 99
771 227
771 579
772 100
772 228
772 580
773 101
773 229
773 581
774 102
774 230
774 582
775 103
775 231
775 583
776 104
776 232
776 584
777 105
777 233
777 585
778 106
778 234
778 586
779 107
779 235
779 587
780 108
780 236
780 588
781 109
781 237
781 589
782 110
782 238
782 590
783 111
783 239
783 591
784 112
784 240
784 592
785 113
785 241
785 593
786 114
786 242
786 594
787 115
787 243
787 595
788 116
788 244
788 596
789 117
789 245
789 597
790 118
790 246
790 598
791 119
791 247
791 599
792 120
792 248
792 600
793 121
793 249
793 601
794 122
794 250
794 602
795 123
795 251
795 603
796 124
796 252
796 604
797 125
797 253
797 605
798 126
798 254
798 606
799 127
799 255
799 607
800 128
800 256
800 608
801 129
801 257
801 609
802 130
802 258
802 610
803 131
803 259
803 611
804 132
804 260
804 612
805 133
805 261
805 613
806 134
806 262
806 614
807 135
807 263
807 615
808 136
808 264
808 616
809 137
809 265
809 617
810 138
810 266
810 618
811 139
811 267
811 619
812 140
812 268
812 620
813 141
813 269
813 621
814 142
814 270
814 622
815 143
815 271
815 623
816 144
816 272
816 624
817 145
817 273
817 625
818 146
818 274
818 626
819 147
819 275
819 627
820 148
820 276
820 628
821 149
821 277
821 629
822 150
822 278
822 630
823 151
823 279
823 631
824 152
824 280
824 632
825 153
825 281
825 633
826 154
826 282
826 634
827 155
827 283
827 635
828 156
828 284
828 636
829 157
829 285
829 637
830 158
830 286
830 638
831 159
831 287
831 639
832 160
832 288
832 640
833 161
833 289
833 641
834 162
834 290
834 642
835 163
835 291
835 643
836 164
836 292
836 644
837 165
837 293
837 645
838 166
838 294
838 646
839 167
839 295
839 647
840 168
840 296
840 648
841 169
841 297
841 649
842 170
842 298
842 650
843 171
843 299
843 651
844 172
844 300
844 652
845 173
845 301
845 653
846 174
846 302
846 654
847 175
847 303
847 655
848 176
848 304
848 656
849 177
849 305
849 657
850 178
850 306
850 658
851 179
851 307
851 659
852 180
852 308
852 660
853 181
853 309
853 661
854 182
854 310
854 662
855 183
855 311
855 663
856 184
856 312
856 664
857 185
857 313
857 665
858 186
858 314
858 666
859 187
859 315
859 667
860 188
860 316
860 668
861 189
861 317
861 669
862 190
862 318
862 670
863 191
863 319
863 671
864 192
864 320
864 448
865 193
865 321
865 449
866 194
866 322
866 450
867 195
867 323
867 451
868 196
868 324
868 452
869 197
869 325
869 453
870 198
870 326
870 454
871 199
871 327
871 455
872 200
872 328
872 456
873 201
873 329
873 457
874 202
874 330
874 458
875 203
875 331
875 459
876 204
876 332
876 460
877 205
877 333
877 461
878 206
878 334
878 462
879 207
879 335
879 463
880 208
880 336
880 464
881 209
881 337
881 465
882 210
882 338
882 466
883 211
883 339
883 467
884 212
884 340
884 468
885 213
885 341
885 469
886 214
886 342
886 470
887 215
887 343
887 471
888 216
888 344
888 472
889 217
889 345
889 473
890 218
890 346
890 474
891 219
891 347
891 475
892 220
892 348
892 476
893 221
893 349
893 477
894 222
894 350
894 478
895 223
895 351
895 479
896 0
896 320
896 640
897 1
897 321
897 641
898 2
898 322
898 642
899 3
899 323
899 643
900 4
900 324
900 644
901 5
901 325
901 645
902 6
902 326
902 646
903 7
903 327
903 647
904 8
904 328
904 648
905 9
905 329
905 649
906 10
906 330
906 650
907 11
907 331
907 651
908 12
908 332
908 652
909 13
909 333
909 653
910 14
910 334
910 654
911 15
911 335
911 655
912 16
912 336
912 656
913 17
913 337
913 657
914 18
914 338
914 658
915 19
915 339
915 659
916 20
916 340
916 660
917 21
917 341
917 661
918 22
918 342
918 662
919 23
919 343
919 663
920 24
920 344
920 664
921 25
921 345
921 665
922 26
922 346
922 666
923 27
923 347
923 667
924 28
924 348
924 668
925 29
925 349
925 669
926 30
926 350
926 670
927 31
927 351
927 671
928 32
928 352
928 448
929 33
929 353
929 449
930 34
930 354
930 450
931 35
931 355
931 451
932 36
932 356
932 452
933 37
933 357
933 453
934 38
934 358
934 454
935 39
935 359
935 455
936 40
936 360
936 456
937 41
937 361
937 457
938 42
938 362
938 458
939 43
939 363
939 459
940 44
940 364
940 460
941 45
941 365
941 461
942 46
942 366
942 462
943 47
943 367
943 463
944 48
944 368
944 464
945 49
945 369
945 465
946 50
946 370
946 466
947 51
947 371
947 467
948 52
948 372
948 468
949 53
949 373
949 469
950 54
950 374
950 470
951 55
951 375
951 471
952 56
952 376
952 472
953 57
953 377
953 473
954 58
954 378
954 474
955 59
955 379
955 475
956 60
956 380
956 476
957 61
957 381
957 477
958 62
958 382
958 478
959 63
959 383
959 479
960 64
960 384
960 480
961 65
961 385
961 481
962 66
962 386
962 482
963 67
963 387
963 483
964 68
964 388
964 484
965 69
965 389
965 485
966 70
966 390
966 486
967 71
967 391
967 487
968 72
968 392
968 488
969 73
969 393
969 489
970 74
970 394
970 490
971 75
971 395
971 491
972 76
972 396
972 492
973 77
973 397
973 493
974 78
974 398
974 494
975 79
975 399
975 495
976 80
976 400
976 496
977 81
977 401
977 497
978 82
978 402
978 498
979 83
979 403
979 499
980 84
980 404
980 500
981 85
981 405
981 501
982 86
982 406
982 502
983 87
983 407
983 503
984 88
984 408
984 504
985 89
985 409
985 505
986 90
986 410
986 506
987 91
987 411
987 507
988 92
988 412
988 508
989 93
989 413
989 509
990 94
990 414
990 510
991 95
991 415
991 511
992 96
992 416
992 512
993 97
993 417
993 513
994 98
994 418
994 514
995 99
995 419
995 515
996 100
996 420
996 516
997 101
997 421
997 517
998 102
998 422
998 518
999 103
999 423
999 519
1000 104
1000 424
1000 520
1001 105
1001 425
1001 521
1002 106
1002 426
1002 522
1003 107
1003 427
1003 523
1004 108
1004 428
1004 524
1005 109
1005 429
1005 525
1006 110
1006 430
1006 526
1007 111
1007 431
1007 527
1008 112
1008 432
1008 528
1009 113
1009 433
1009 529
1010 114
1010 434
1010 530
1011 115
1011 435
1011 531
1012 116
1012 436
1012 532
1013 117
1013 437
1013 533
1014 118
1014 438
1014 534
1015 119
1015 439
1015 535
1016 120
1016 440
1016 536
1017 121
1017 441
1017 537
1018 122
1018 442
1018 538
1019 123
1019 443
1019 539
1020 124
1020 444
1020 540
1021 125
1021 445
1021 541
1022 126
1022 446
1022 542
1023 127
1023 447
1023 543
1024 128
1024 224
1024 544
1025 129
1025 225
1025 545
1026 130
1026 226
1026 546
1027 131
1027 227
1027 547
1028 132
1028 228
1028 548
1029 133
1029 229
1029 549
1030 134
1030 230
1030 550
1031 135
1031 231
1031 551
1032 136
1032 232
1032 552
1033 137
1033 233
1033 553
1034 138
1034 234
1034 554
1035 139
1035 235
1035 555
1036 140
1036 236
1036 556
1037 141
1037 237
1037 557
1038 142
1038 238
1038 558
1039 143
1039 239
1039 559
1040 144
1040 240
1040 560
1041 145
1041 241
1041 561
1042 146
1042 242
1042 562
1043 147
1043 243
1043 563
1044 148
1044 244
1044 564
1045 149
1045 245
1045 565
1046 150
1046 246
1046 566
1047 151
1047 247
1047 567
1048 152
1048 248
1048 568
1049 153
1049 249
1049 569
1050 154
1050 250
1050 570
1051 155
1051 251
1051 571
1052 156
1052 252
1052 572
1053 157
1053 253
1053 573
1054 158
1054 254
1054 574
1055 159
1055 255
1055 575
1056 160
1056 256
1056 576
1057 161
1057 257
1057 577
1058 162
1058 258
1058 578
1059 163
1059 259
1059 579
1060 164
1060 260
1060 580
1061 165
1061 261
1061 581
1062 166
1062 262
1062 582
1063 167
1063 263
1063 583
1064 168
1064 264
1064 584
1065 169
1065 265
1065 585
1066 170
1066 266
1066 586
1067 171
1067 267
1067 587
1068 172
1068 268
1068 588
1069 173
1069 269
1069 589
1070 174
1070 270
1070 590
1071 175
1071 271
1071 591
1072 176
1072 272
1072 592
1073 177
1073 273
1073 593
1074 178
1074 274
1074 594
1075 179
1075 275
1075 595
1076 180
1076 276
1076 596
1077 181
1077 277
1077 597
1078 182
1078 278
1078 598
1079 183
1079 279
1079 599
1080 184
1080 280
1080 600
1081 185
1081 281
1081 601
1082 186
1082 282
1082 602
1083 187
1083 283
1083 603
1084 188
1084 284
1084 604
1085 189
1085 285
1085 605
1086 190
1086 286
1086 606
1087 191
1087 287
1087 607
1088 192
1088 288
1088 608
1089 193
1089 289
1089 609
1090 194
1090 290
1090 610
1091 195
1091 291
1091 611
1092 196
1092 292
1092 612
1093 197
1093 293
1093 613
1094 198
1094 294
1094 614
1095 199
1095 295
1095 615
1096 200
1096 296
1096 616
1097 201
1097 297
1097 617
1098 202
1098 298
1098 618
1099 203
1099 299
1099 619
1100 204
1100 300
1100 620
1101 205
1101 301
1101 621
1102 206
1102 302
1102 622
1103 207
1103 303
1103 623
1104 208
1104 304
1104 624
1105 209
1105 305
1105 625
1106 210
1106 306
1106 626
1107 211
1107 307
1107 627
1108 212
1108 308
1108 628
1109 213
1109 309
1109 629
1110 214
1110 310
1110 630
1111 215
1111 311
1111 631
1112 216
1112 312
1112 632
1113 217
1113 313
1113 633
1114 218
1114 314
1114 634
1115 219
1115 315
1115 635
1116 220
1116 316
1116 636
1117 221
1117 317
1117 637
1118 222
1118 318
1118 638
1119 223
1119 319
1119 639
1120 0
1120 288
1120 576
1121 1
1121 289
1121 577
1122 2
1122 290
1122 578
1123 3
1123 291
1123 579
1124 4
1124 292
1124 580
1125 5
1125 293
1125 581
1126 6
1126 294
1126 582
1127 7
1127 295
1127 583
1128 8
1128 296
1128 584
1129 9
1129 297
1129 585
1130 10
1130 298
1130 586
1131 11
1131 299
1131 587
1132 12
1132 300
1132 588
1133 13
1133 301
1133 589
1134 14
1134 302
1134 590
1135 15
1135 303
1135 591
1136 16
1136 304
1136 592
1137 17
1137 305
1137 593
1138 18
1138 306
1138 594
1139 19
1139 307
1139 595
1140 20
1140 308
1140 596
1141 21
1141 309
1141 597
1142 22
1142 310
1142 598
1143 23
1143 311
1143 599
1144 24
1144 312
1144 600
1145 25
1145 313
1145 601
1146 26
1146 314
1146 602
1147 27
1147 315
1147 603
1148 28
1148 316
1148 604
1149 29
1149 317
1149 605
1150 30
1150 318
1150 606
1151 31
1151 319
1151 607
1152 32
1152 320
1152 608
1153 33
1153 321
1153 609
1154 34
1154 322
1154 610
1155 35
1155 323
1155 611
1156 36
1156 324
1156 612
1157 37
1157 325
1157 613
1158 38
1158 326
1158 614
1159 39
1159 327
1159 615
1160 40
1160 328
1160 616
1161 41
1161 329
1161 617
1162 42
1162 330
1162 618
1163 43
1163 331
1163 619
1164 44
1164 332
1164 620
1165 45
1165 333
1165 621
1166 46
1166 334
1166 622
1167 47
1167 335
1167 623
1168 48
1168 336
1168 624
1169 49
1169 337
1169 625
1170 50
1170 338
1170 626
1171 51
1171 339
1171 627
1172 52
1172 340
1172 628
1173 53
1173 341
1173 629
1174 54
1174 342
1174 630
1175 55
1175 343
1175 631
1176 56
1176 344
1176 632
1177 57
1177 345
1177 633
1178 58
1178 346
1178 634
1179 59
1179 347
1179 635
1180 60
1180 348
1180 636
1181 61
1181 349
1181 637
1182 62
1182 350
1182 638
1183 63
1183 351
1183 639
1184 64
1184 352
1184 640
1185 65
1185 353
1185 641
1186 66
1186 354
1186 642
1187 67
1187 355
1187 643
1188 68
1188 356
1188 644
1189 69
1189 357
1189 645
1190 70
1190 358
1190 646
1191 71
1191 359
1191 647
1192 72
1192 360
1192 648
1193 73
1193 361
1193 649
1194 74
1194 362
1194 650
1195 75
1195 363
1195 651
1196 76
1196 364
1196 652
1197 77
1197 365
1197 653
1198 78
1198 366
1198 654
1199 79
1199 367
1199 655
1200 80
1200 368
1200 656
1201 81
1201 369
1201 657
1202 82
1202 370
1202 658
1203 83
1203 371
1203 659
1204 84
1204 372
1204 660
1205 85
1205 373
1205 661
1206 86
1206 374
1206 662
1207 87
1207 375
1207 663
1208 88
1208 376
1208 664
1209 89
1209 377
1209 665
1210 90
1210 378
1210 666
1211 91
1211 379
1211 667
1212 92
1212 380
1212 668
1213 93
1213 381
1213 669
1214 94
1214 382
1214 670
1215 95
1215 383
1215 671
1216 96
1216 384
1216 448
1217 97
1217 385
1217 449
1218 98
1218 386
1218 450
1219 99
1219 387
1219 451
1220 100
1220 388
1220 452
1221 101
1221 389
1221 453
1222 102
1222 390
1222 454
1223 103
1223 391
1223 455
1224 104
1224 392
1224 456
1225 105
1225 393
1225 457
1226 106
1226 394
1226 458
1227 107
1227 395
1227 459
1228 108
1228 396
1228 460
1229 109
1229 397
1229 461
1230 110
1230 398
1230 462
1231 111
1231 399
1231 463
1232 112
1232 400
1232 464
1233 113
1233 401
1233 465
1234 114
1234 402
1234 466
1235 115
1235 403
1235 467
1236 116
1236 404
1236 468
1237 117
1237 405
1237 469
1238 118
1238 406
1238 470
1239 119
1239 407
1239 471
1240 120
1240 408
1240 472
1241 121
1241 409
1241 473
1242 122
1242 410
1242 474
1243 123
1243 411
1243 475
1244 124
1244 412
1244 476
1245 125
1245 413
1245 477
1246 126
1246 414
1246 478
1247 127
1247 415
1247 479
1248 128
1248 416
1248 480
1249 129
1249 417
1249 481
1250 130
1250 418
1250 482
1251 131
1251 419
1251 483
1252 132
1252 420
1252 484
1253 133
1253 421
1253 485
1254 134
1254 422
1254 486
1255 135
1255 423
1255 487
1256 136
1256 424
1256 488
1257 137
1257 425
1257 489
1258 138
1258 426
1258 490
1259 139
1259 427
1259 491
1260 140
1260 428
1260 492
1261 141
1261 429
1261 493
1262 142
1262 430
1262 494
1263 143
1263 431
1263 495
1264 144
1264 432
1264 496
1265 145
1265 433
1265 497
1266 146
1266 434
1266 498
1267 147
1267 435
1267 499
1268 148
1268 436
1268 500
1269 149
1269 437
1269 501
1270 150
1270 438
1270 502
1271 151
1271 439
1271 503
1272 152
1272 440
1272 504
1273 153
1273 441
1273 505
1274 154
1274 442
1274 506
1275 155
1275 443
1275 507
1276 156
1276 444
1276 508
1277 157
1277 445
1277 509
1278 158
1278 446
1278 510
1279 159
1279 447
1279 511
1280 160
1280 224
1280 512
1281 161
1281 225
1281 513
1282 162
1282 226
1282 514
1283 163
1283 227
1283 515
1284 164
1284 228
1284 516
1285 165
1285 229
1285 517
1286 166
1286 230
1286 518
1287 167
1287 231
1287 519
1288 168
1288 232
1288 520
1289 169
1289 233
1289 521
1290 170
1290 234
1290 522
1291 171
1291 235
1291 523
1292 172
1292 236
1292 524
1293 173
1293 237
1293 525
1294 174
1294 238
1294 526
1295 175
1295 239
1295 527
1296 176
1296 240
1296 528
1297 177
1297 241
1297 529
1298 178
1298 242
1298 530
1299 179
1299 243
1299 531
1300 180
1300 244
1300 532
1301 181
1301 245
1301 533
1302 182
1302 246
1302 534
1303 183
1303 247
1303 535
1304 184
1304 248
1304 536
1305 185
1305 249
1305 537
1306 186
1306 250
1306 538
1307 187
1307 251
1307 539
1308 188
1308 252
1308 540
1309 189
1309 253
1309 541
1310 190
1310 254
1310 542
1311 191
1311 255
1311 543
1312 192
1312 256
1312 544
1313 193
1313 257
1313 545
1314 194
1314 258
1314 546
1315 195
1315 259
1315 547
1316 196
1316 260
1316 548
1317 197
1317 261
1317 549
1318 198
1318 262
1318 550
1319 199
1319 263
1319 551
1320 200
1320 264
1320 552
1321 201
1321 265
1321 553
1322 202
1322 266
1322 554
1323 203
1323 267
1323 555
1324 204
1324 268
1324 556
1325 205
1325 269
1325 557
1326 206
1326 270
1326 558
1327 207
1327 271
1327 559
1328 208
1328 272
1328 560
1329 209
1329 273
1329 561
1330 210
1330 274
1330 562
1331 211
1331 275
1331 563
1332 212
1332 276
1332 564
1333 213
1333 277
1333 565
1334 214
1334 278
1334 566
1335 215
1335 279
1335 567
1336 216
1336 280
1336 568
1337 217
1337 281
1337 569
1338 218
1338 282
1338 570
1339 219
1339 283
1339 571
1340 220
1340 284
1340 572
1341 221
1341 285
1341 573
1342 222
1342 286
1342 574
1343 223
1343 287
1343 575
