168 84 504
0 1
0 28
0 56
1 2
1 29
1 57
2 3
2 30
2 58
3 0
3 31
3 59
4 4
4 32
4 60
5 5
5 33
5 61
6 6
6 34
6 62
7 7
7 35
7 63
8 8
8 36
8 64
9 9
9 37
9 65
10 10
10 38
10 66
11 11
11 39
11 67
12 12
12 40
12 68
13 13
13 41
13 69
14 14
14 42
14 70
15 15
15 43
15 71
16 16
16 44
16 72
17 17
17 45
17 73
18 18
18 46
18 74
19 19
19 47
19 75
20 20
20 48
20 76
21 21
21 49
21 77
22 22
22 50
22 78
23 23
23 51
23 79
24 24
24 52
24 80
25 25
25 53
25 81
26 26
26 54
26 82
27 27
27 55
27 83
28 0
28 52
28 76
29 1
29 53
29 77
30 2
30 54
30 78
31 3
31 55
31 79
32 4
32 28
32 80
33 5
33 29
33 81
34 6
34 30
34 82
35 7
35 31
35 83
36 8
36 32
36 56
37 9
37 33
37 57
38 10
38 34
38 58
39 11
39 35
39 59
40 12
40 36
40 60
41 13
41 37
41 61
42 14
42 38
42 62
43 15
43 39
43 63
44 16
44 40
44 64
45 17
45 41
45 65
46 18
46 42
46 66
47 19
47 43
47 67
48 20
48 44
48 68
49 21
49 45
49 69
50 22
50 46
50 70
51 23
51 47
51 71
52 24
52 48
52 72
53 25
53 49
53 73
54 26
54 50
54 74
55 27
55 51
55 75
56 0
56 48
56 68
57 1
57 49
57 69
58 2
58 50
58 70
59 3
59 51
59 71
60 4
60 52
60 72
61 5
61 53
61 73
62 6
62 54
62 74
63 7
63 55
63 75
64 8
64 28
64 76
65 9
65 29
65 77
66 10
66 30
66 78
67 11
67 31
67 79
68 12
68 32
68 80
69 13
69 33
69 81
70 14
70 34
70 82
71 15
71 35
71 83
72 16
72 36
72 56
73 17
73 37
73 57
74 18
74 38
74 58
75 19
75 39
75 59
76 20
76 40
76 60
77 21
77 41
77 61
78 22
78 42
78 62
79 23
79 43
79 63
80 24
80 44
80 64
81 25
81 45
81 65
82 26
82 46
82 66
83 27
83 47
83 67
84 0
84 44
84 60
85 1
85 45
85 61
86 2
86 46
86 62
87 3
87 47
87 63
88 4
88 48
88 64
89 5
89 49
89 65
90 6
90 50
90 66
91 7
91 51
91 67
92 8
92 52
92 68
93 9
93 53
93 69
94 10
94 54
94 70
95 11
95 55
95 71
96 12
96 28
96 72
97 13
97 29
97 73
98 14
98 30
98 74
99 15
99 31
99 75
100 16
100 32
100 76
101 17
101 33
101 77
102 18
102 34
102 78
103 19
103 35
103 79
104 20
104 36
104 80
105 21
105 37
105 81
106 22
106 38
106 82
107 23
107 39
107 83
108 24
108 40
108 56
109 25
109 41
109 57
110 26
110 42
110 58
111 27
111 43
111 59
112 0
112 40
112 80
113 1
113 41
113 81
114 2
114 42
114 82
115 3
115 43
115 83
116 4
116 44
116 56
117 5
117 45
117 57
118 6
118 46
118 58
119 7
119 47
119 59
120 8
120 48
120 60
121 9
121 49
121 61
122 10
122 50
122 62
123 11
123 51
123 63
124 12
124 52
124 64
125 13
125 53
125 65
126 14
126 54
126 66
127 15
127 55
127 67
128 16
128 28
128 68
129 17
129 29
129 69
130 18
130 30
130 70
131 19
131 31
131 71
132 20
132 32
132 72
133 21
133 33
133 73
134 22
134 34
134 74
135 23
135 35
135 75
136 24
136 36
136 76
137 25
137 37
137 77
138 26
138 38
138 78
139 27
139 39
139 79
140 0
140 36
140 72
141 1
141 37
141 73
142 2
142 38
142 74
143 3
143 39
143 75
144 4
144 40
144 76
145 5
145 41
145 77
146 6
146 42
146 78
147 7
147 43
147 79
148 8
148 44
148 80
149 9
149 45
149 81
150 10
150 46
150 82
151 11
151 47
151 83
152 12
152 48
152 56
153 13
153 49
153 57
154 14
154 50
154 58
155 15
155 51
155 59
156 16
156 52
156 60
157 17
157 53
157 61
158 18
158 54
158 62
159 19
159 55
159 63
160 20
160 28
160 64
161 21
161 29
161 65
162 22
162 30
162 66
163 23
163 31
163 67
164 24
164 32
164 68
165 25
165 33
165 69
166 26
166 34
166 70
167 27
167 35
167 71
