336 168 1008
0 1
0 56
0 112
1 2
1 57
1 113
2 3
2 58
2 114
3 4
3 59
3 115
4 5
4 60
4 116
5 6
5 61
5 117
6 7
6 62
6 118
7 0
7 63
7 119
8 8
8 64
8 120
9 9
9 65
9 121
10 10
10 66
10 122
11 11
11 67
11 123
12 12
12 68
12 124
13 13
13 69
13 125
14 14
14 70
14 126
15 15
15 71
15 127
16 16
16 72
16 128
17 17
17 73
17 129
18 18
18 74
18 130
19 19
19 75
19 131
20 20
20 76
20 132
21 21
21 77
21 133
22 22
22 78
22 134
23 23
23 79
23 135
24 24
24 80
24 136
25 25
25 81
25 137
26 26
26 82
26 138
27 27
27 83
27 139
28 28
28 84
28 140
29 29
29 85
29 141
30 30
30 86
30 142
31 31
31 87
31 143
32 32
32 88
32 144
33 33
33 89
33 145
34 34
34 90
34 146
35 35
35 91
35 147
36 36
36 92
36 148
37 37
37 93
37 149
38 38
38 94
38 150
39 39
39 95
39 151
40 40
40 96
40 152
41 41
41 97
41 153
42 42
42 98
42 154
43 43
43 99
43 155
44 44
44 100
44 156
45 45
45 101
45 157
46 46
46 102
46 158
47 47
47 103
47 159
48 48
48 104
48 160
49 49
49 105
49 161
50 50
50 106
50 162
51 51
51 107
51 163
52 52
52 108
52 164
53 53
53 109
53 165
54 54
54 110
54 166
55 55
55 111
55 167
56 0
56 104
56 152
57 1
57 105
57 153
58 2
58 106
58 154
59 3
59 107
59 155
60 4
60 108
60 156
61 5
61 109
61 157
62 6
62 110
62 158
63 7
63 111
63 159
64 8
64 56
64 160
65 9
65 57
65 161
66 10
66 58
66 162
67 11
67 59
67 163
68 12
68 60
68 164
69 13
69 61
69 165
70 14
70 62
70 166
71 15
71 63
71 167
72 16
72 64
72 112
73 17
73 65
73 113
74 18
74 66
74 114
75 19
75 67
75 115
76 20
76 68
76 116
77 21
77 69
77 117
78 22
78 70
78 118
79 23
79 71
79 119
80 24
80 72
80 120
81 25
81 73
81 121
82 26
82 74
82 122
83 27
83 75
83 123
84 28
84 76
84 124
85 29
85 77
85 125
86 30
86 78
86 126
87 31
87 79
87 127
88 32
88 80
88 128
89 33
89 81
89 129
90 34
90 82
90 130
91 35
91 83
91 131
92 36
92 84
92 132
93 37
93 85
93 133
94 38
94 86
94 134
95 39
95 87
95 135
96 40
96 88
96 136
97 41
97 89
97 137
98 42
98 90
98 138
99 43
99 91
99 139
100 44
100 92
100 140
101 45
101 93
101 141
102 46
102 94
102 142
103 47
103 95
103 143
104 48
104 96
104 144
105 49
105 97
105 145
106 50
106 98
106 146
107 51
107 99
107 147
108 52
108 100
108 148
109 53
109 101
109 149
110 54
110 102
110 150
111 55
111 103
111 151
112 0
112 96
112 136
113 1
113 97
113 137
114 2
114 98
114 138
115 3
115 99
115 139
116 4
116 100
116 140
117 5
117 101
117 141
118 6
118 102
118 142
119 7
119 103
119 143
120 8
120 104
120 144
121 9
121 105
121 145
122 10
122 106
122 146
123 11
123 107
123 147
124 12
124 108
124 148
125 13
125 109
125 149
126 14
126 110
126 150
127 15
127 111
127 151
128 16
128 56
128 152
129 17
129 57
129 153
130 18
130 58
130 154
131 19
131 59
131 155
132 20
132 60
132 156
133 21
133 61
133 157
134 22
134 62
134 158
135 23
135 63
135 159
136 24
136 64
136 160
137 25
137 65
137 161
138 26
138 66
138 162
139 27
139 67
139 163
140 28
140 68
140 164
141 29
141 69
141 165
142 30
142 70
142 166
143 31
143 71
143 167
144 32
144 72
144 112
145 33
145 73
145 113
146 34
146 74
146 114
147 35
147 75
147 115
148 36
148 76
148 116
149 37
149 77
149 117
150 38
150 78
150 118
151 39
151 79
151 119
152 40
152 80
152 120
153 41
153 81
153 121
154 42
154 82
154 122
155 43
155 83
155 123
156 44
156 84
156 124
157 45
157 85
157 125
158 46
158 86
158 126
159 47
159 87
159 127
160 48
160 88
160 128
161 49
161 89
161 129
162 50
162 90
162 130
163 51
163 91
163 131
164 52
164 92
164 132
165 53
165 93
165 133
166 54
166 94
166 134
167 55
167 95
167 135
168 0
168 88
168 120
169 1
169 89
169 121
170 2
170 90
170 122
171 3
171 91
171 123
172 4
172 92
172 124
173 5
173 93
173 125
174 6
174 94
174 126
175 7
175 95
175 127
176 8
176 96
176 128
177 9
177 97
177 129
178 10
178 98
178 130
179 11
179 99
179 131
180 12
180 100
180 132
181 13
181 101
181 133
182 14
182 102
182 134
183 15
183 103
183 135
184 16
184 104
184 136
185 17
185 105
185 137
186 18
186 106
186 138
187 19
187 107
187 139
188 20
188 108
188 140
189 21
189 109
189 141
190 22
190 110
190 142
191 23
191 111
191 143
192 24
192 56
192 144
193 25
193 57
193 145
194 26
194 58
194 146
195 27
195 59
195 147
196 28
196 60
196 148
197 29
197 61
197 149
198 30
198 62
198 150
199 31
199 63
199 151
200 32
200 64
200 152
201 33
201 65
201 153
202 34
202 66
202 154
203 35
203 67
203 155
204 36
204 68
204 156
205 37
205 69
205 157
206 38
206 70
206 158
207 39
207 71
207 159
208 40
208 72
208 160
209 41
209 73
209 161
210 42
210 74
210 162
211 43
211 75
211 163
212 44
212 76
212 164
213 45
213 77
213 165
214 46
214 78
214 166
215 47
215 79
215 167
216 48
216 80
216 112
217 49
217 81
217 113
218 50
218 82
218 114
219 51
219 83
219 115
220 52
220 84
220 116
221 53
221 85
221 117
222 54
222 86
222 118
223 55
223 87
223 119
224 0
224 80
224 160
225 1
225 81
225 161
226 2
226 82
226 162
227 3
227 83
227 163
228 4
228 84
228 164
229 5
229 85
229 165
230 6
230 86
230 166
231 7
231 87
231 167
232 8
232 88
232 112
233 9
233 89
233 113
234 10
234 90
234 114
235 11
235 91
235 115
236 12
236 92
236 116
237 13
237 93
237 117
238 14
238 94
238 118
239 15
239 95
239 119
240 16
240 96
240 120
241 17
241 97
241 121
242 18
242 98
242 122
243 19
243 99
243 123
244 20
244 100
244 124
245 21
245 101
245 125
246 22
246 102
246 126
247 23
247 103
247 127
248 24
248 104
248 128
249 25
249 105
249 129
250 26
250 106
250 130
251 27
251 107
251 131
252 28
252 108
252 132
253 29
253 109
253 133
254 30
254 110
254 134
255 31
255 111
255 135
256 32
256 56
256 136
257 33
257 57
257 137
258 34
258 58
258 138
259 35
259 59
259 139
260 36
260 60
260 140
261 37
261 61
261 141
262 38
262 62
262 142
263 39
263 63
263 143
264 40
264 64
264 144
265 41
265 65
265 145
266 42
266 66
266 146
267 43
267 67
267 147
268 44
268 68
268 148
269 45
269 69
269 149
270 46
270 70
270 150
271 47
271 71
271 151
272 48
272 72
272 152
273 49
273 73
273 153
274 50
274 74
274 154
275 51
275 75
275 155
276 52
276 76
276 156
277 53
277 77
277 157
278 54
278 78
278 158
279 55
279 79
279 159
280 0
280 72
280 144
281 1
281 73
281 145
282 2
282 74
282 146
283 3
283 75
283 147
284 4
284 76
284 148
285 5
285 77
285 149
286 6
286 78
286 150
287 7
287 79
287 151
288 8
288 80
288 152
289 9
289 81
289 153
290 10
290 82
290 154
291 11
291 83
291 155
292 12
292 84
292 156
293 13
293 85
293 157
294 14
294 86
294 158
295 15
295 87
295 159
296 16
296 88
296 160
297 17
297 89
297 161
298 18
298 90
298 162
299 19
299 91
299 163
300 20
300 92
300 164
301 21
301 93
301 165
302 22
302 94
302 166
303 23
303 95
303 167
304 24
304 96
304 112
305 25
305 97
305 113
306 26
306 98
306 114
307 27
307 99
307 115
308 28
308 100
308 116
309 29
309 101
309 117
310 30
310 102
310 118
311 31
311 103
311 119
312 32
312 104
312 120
313 33
313 105
313 121
314 34
314 106
314 122
315 35
315 107
315 123
316 36
316 108
316 124
317 37
317 109
317 125
318 38
318 110
318 126
319 39
319 111
319 127
320 40
320 56
320 128
321 41
321 57
321 129
322 42
322 58
322 130
323 43
323 59
323 131
324 44
324 60
324 132
325 45
325 61
325 133
326 46
326 62
326 134
327 47
327 63
327 135
328 48
328 64
328 136
329 49
329 65
329 137
330 50
330 66
330 138
331 51
331 67
331 139
332 52
332 68
332 140
333 53
333 69
333 141
334 54
334 70
334 142
335 55
335 71
335 143
