2560 1920 7680
0 99
0 756
0 1394
1 56
1 745
1 1378
2 46
2 732
2 1309
3 22
3 671
3 1349
4 53
4 712
4 1338
5 41
5 719
5 1381
6 64
6 741
6 1323
7 62
7 707
7 1369
8 124
8 691
8 1332
9 106
9 650
9 1388
10 52
10 725
10 1329
11 45
11 716
11 1401
12 30
12 767
12 1395
13 82
13 747
13 1286
14 36
14 760
14 1375
15 25
15 726
15 1333
16 57
16 675
16 1382
17 125
17 676
17 1406
18 114
18 708
18 1315
19 117
19 659
19 1305
20 61
20 682
20 1352
21 94
21 688
21 1404
22 59
22 663
22 1358
23 116
23 667
23 1405
24 96
24 697
24 1283
25 93
25 758
25 1331
26 0
26 734
26 1280
27 110
27 724
27 1371
28 9
28 750
28 1355
29 83
29 649
29 1302
30 121
30 766
30 1301
31 37
31 687
31 1284
32 122
32 740
32 1380
33 44
33 672
33 1293
34 4
34 721
34 1354
35 127
35 761
35 1321
36 51
36 730
36 1334
37 42
37 660
37 1346
38 48
38 752
38 1364
39 34
39 731
39 1393
40 112
40 739
40 1335
41 97
41 643
41 1342
42 40
42 753
42 1328
43 104
43 733
43 1348
44 60
44 655
44 1300
45 103
45 658
45 1324
46 14
46 644
46 1344
47 27
47 718
47 1319
48 21
48 685
48 1384
49 105
49 700
49 1290
50 28
50 757
50 1347
51 2
51 642
51 1356
52 5
52 689
52 1366
53 108
53 651
53 1368
54 63
54 677
54 1377
55 43
55 705
55 1365
56 49
56 695
56 1325
57 118
57 662
57 1390
58 32
58 701
58 1307
59 11
59 763
59 1282
60 78
60 710
60 1339
61 58
61 744
61 1318
62 66
62 706
62 1350
63 18
63 762
63 1291
64 113
64 738
64 1340
65 98
65 715
65 1336
66 95
66 669
66 1304
67 7
67 717
67 1376
68 77
68 654
68 1308
69 70
69 640
69 1320
70 65
70 749
70 1322
71 39
71 684
71 1296
72 26
72 680
72 1316
73 115
73 664
73 1402
74 92
74 764
74 1330
75 87
75 679
75 1343
76 10
76 668
76 1385
77 109
77 709
77 1397
78 15
78 678
78 1360
79 120
79 698
79 1289
80 84
80 737
80 1285
81 8
81 729
81 1398
82 73
82 748
82 1337
83 31
83 723
83 1392
84 79
84 641
84 1403
85 16
85 742
85 1386
86 35
86 693
86 1363
87 75
87 728
87 1407
88 107
88 656
88 1367
89 100
89 661
89 1379
90 38
90 711
90 1383
91 50
91 694
91 1372
92 90
92 646
92 1373
93 101
93 652
93 1303
94 86
94 755
94 1288
95 69
95 665
95 1298
96 81
96 645
96 1317
97 68
97 736
97 1287
98 89
98 714
98 1281
99 102
99 648
99 1311
100 67
100 666
100 1374
101 111
101 690
101 1351
102 88
102 735
102 1294
103 19
103 670
103 1396
104 13
104 754
104 1361
105 29
105 653
105 1389
106 55
106 692
106 1387
107 119
107 647
107 1326
108 3
108 727
108 1312
109 33
109 751
109 1345
110 17
110 674
110 1306
111 23
111 743
111 1313
112 85
112 686
112 1359
113 24
113 683
113 1400
114 1
114 765
114 1391
115 71
115 681
115 1341
116 126
116 746
116 1353
117 20
117 699
117 1362
118 72
118 696
118 1297
119 76
119 673
119 1357
120 80
120 720
120 1292
121 6
121 722
121 1310
122 47
122 703
122 1295
123 91
123 713
123 1399
124 54
124 759
124 1327
125 123
125 702
125 1314
126 74
126 704
126 1370
127 12
127 657
127 1299
128 170
128 858
128 1497
129 192
129 778
129 1432
130 232
130 795
130 1421
131 191
131 779
131 1518
132 211
132 840
132 1482
133 169
133 836
133 1422
134 205
134 814
134 1439
135 197
135 838
135 1505
136 202
136 856
136 1424
137 213
137 807
137 1441
138 142
138 768
138 1467
139 186
139 809
139 1512
140 214
140 886
140 1428
141 207
141 805
141 1474
142 132
142 818
142 1529
143 138
143 890
143 1489
144 234
144 810
144 1416
145 180
145 829
145 1487
146 212
146 775
146 1427
147 238
147 784
147 1471
148 156
148 827
148 1445
149 244
149 895
149 1494
150 131
150 883
150 1423
151 231
151 802
151 1442
152 248
152 801
152 1532
153 198
153 860
153 1493
154 221
154 819
154 1412
155 128
155 808
155 1483
156 209
156 797
156 1425
157 133
157 798
157 1516
158 241
158 813
158 1435
159 235
159 817
159 1528
160 193
160 786
160 1419
161 243
161 852
161 1501
162 185
162 862
162 1514
163 150
163 869
163 1430
164 176
164 848
164 1478
165 230
165 772
165 1504
166 178
166 865
166 1492
167 225
167 815
167 1485
168 252
168 859
168 1525
169 165
169 787
169 1519
170 229
170 863
170 1410
171 148
171 845
171 1498
172 236
172 867
172 1481
173 224
173 849
173 1507
174 247
174 799
174 1420
175 246
175 885
175 1480
176 177
176 892
176 1520
177 216
177 857
177 1506
178 249
178 837
178 1457
179 194
179 853
179 1452
180 183
180 847
180 1460
181 251
181 792
181 1461
182 242
182 861
182 1433
183 130
183 831
183 1462
184 182
184 873
184 1409
185 162
185 785
185 1524
186 145
186 894
186 1499
187 139
187 878
187 1444
188 227
188 872
188 1510
189 171
189 828
189 1434
190 237
190 841
190 1408
191 196
191 770
191 1527
192 155
192 844
192 1449
193 254
193 790
193 1418
194 152
194 888
194 1417
195 200
195 804
195 1411
196 157
196 791
196 1491
197 253
197 893
197 1468
198 158
198 842
198 1533
199 239
199 879
199 1496
200 217
200 874
200 1414
201 161
201 891
201 1459
202 255
202 774
202 1469
203 151
203 864
203 1486
204 189
204 882
204 1426
205 181
205 851
205 1437
206 168
206 821
206 1473
207 174
207 789
207 1534
208 222
208 884
208 1511
209 226
209 875
209 1530
210 143
210 781
210 1454
211 141
211 835
211 1535
212 218
212 839
212 1513
213 140
213 771
213 1502
214 149
214 889
214 1413
215 146
215 803
215 1522
216 179
216 834
216 1508
217 223
217 823
217 1443
218 250
218 833
218 1450
219 172
219 855
219 1447
220 160
220 826
220 1484
221 187
221 822
221 1526
222 199
222 800
222 1436
223 154
223 854
223 1477
224 219
224 777
224 1465
225 163
225 846
225 1488
226 201
226 850
226 1455
227 135
227 843
227 1466
228 147
228 816
228 1456
229 195
229 788
229 1500
230 134
230 820
230 1446
231 164
231 811
231 1464
232 240
232 830
232 1440
233 210
233 880
233 1431
234 203
234 793
234 1503
235 173
235 866
235 1463
236 136
236 769
236 1490
237 215
237 871
237 1509
238 137
238 780
238 1438
239 153
239 782
239 1470
240 206
240 773
240 1521
241 166
241 776
241 1448
242 159
242 806
242 1479
243 208
243 881
243 1476
244 233
244 783
244 1517
245 175
245 887
245 1515
246 167
246 870
246 1495
247 184
247 825
247 1458
248 129
248 876
248 1531
249 190
249 812
249 1523
250 188
250 824
250 1475
251 204
251 794
251 1472
252 144
252 832
252 1429
253 228
253 796
253 1451
254 245
254 868
254 1453
255 220
255 877
255 1415
256 380
256 953
256 1594
257 345
257 971
257 1646
258 288
258 1021
258 1567
259 374
259 933
259 1637
260 317
260 939
260 1635
261 279
261 908
261 1660
262 373
262 935
262 1624
263 316
263 1016
263 1626
264 312
264 997
264 1568
265 337
265 999
265 1643
266 287
266 914
266 1593
267 375
267 931
267 1607
268 336
268 1008
268 1605
269 364
269 917
269 1596
270 363
270 986
270 1613
271 274
271 965
271 1590
272 281
272 1002
272 1648
273 273
273 911
273 1639
274 296
274 936
274 1591
275 306
275 934
275 1587
276 358
276 1020
276 1634
277 320
277 1010
277 1622
278 278
278 921
278 1628
279 355
279 915
279 1620
280 264
280 943
280 1561
281 382
281 978
281 1608
282 305
282 967
282 1657
283 293
283 910
283 1545
284 303
284 1017
284 1578
285 329
285 945
285 1630
286 353
286 905
286 1550
287 356
287 948
287 1662
288 339
288 941
288 1610
289 289
289 962
289 1559
290 276
290 904
290 1612
291 322
291 951
291 1603
292 365
292 1009
292 1645
293 346
293 958
293 1577
294 309
294 989
294 1555
295 257
295 980
295 1584
296 327
296 899
296 1583
297 341
297 956
297 1589
298 338
298 973
298 1641
299 351
299 1012
299 1604
300 354
300 920
300 1541
301 261
301 1014
301 1540
302 362
302 982
302 1602
303 268
303 981
303 1652
304 344
304 979
304 1586
305 295
305 927
305 1661
306 324
306 975
306 1658
307 376
307 949
307 1644
308 283
308 974
308 1551
309 378
309 898
309 1638
310 326
310 983
310 1619
311 321
311 984
311 1575
312 286
312 913
312 1579
313 315
313 987
313 1585
314 307
314 996
314 1616
315 302
315 963
315 1569
316 361
316 940
316 1546
317 299
317 990
317 1562
318 263
318 929
318 1539
319 285
319 1023
319 1629
320 319
320 969
320 1599
321 258
321 946
321 1566
322 359
322 906
322 1659
323 308
323 900
323 1571
324 371
324 901
324 1574
325 325
325 932
325 1553
326 260
326 919
326 1573
327 333
327 926
327 1653
328 259
328 1001
328 1636
329 369
329 923
329 1549
330 290
330 924
330 1543
331 381
331 964
331 1625
332 292
332 1007
332 1581
333 352
333 928
333 1536
334 300
334 1003
334 1572
335 343
335 909
335 1557
336 269
336 918
336 1565
337 256
337 955
337 1647
338 357
338 897
338 1614
339 318
339 994
339 1655
340 267
340 907
340 1600
341 349
341 1011
341 1609
342 332
342 903
342 1564
343 331
343 938
343 1588
344 372
344 985
344 1621
345 284
345 1018
345 1632
346 323
346 942
346 1663
347 379
347 961
347 1548
348 298
348 1013
348 1538
349 367
349 1015
349 1640
350 377
350 968
350 1651
351 272
351 925
351 1560
352 311
352 1004
352 1542
353 277
353 916
353 1611
354 348
354 1019
354 1595
355 282
355 947
355 1544
356 265
356 1000
356 1558
357 366
357 998
357 1642
358 368
358 944
358 1537
359 291
359 1005
359 1633
360 330
360 988
360 1627
361 335
361 993
361 1592
362 347
362 896
362 1601
363 275
363 972
363 1654
364 334
364 959
364 1552
365 314
365 960
365 1618
366 301
366 902
366 1547
367 313
367 1022
367 1631
368 297
368 966
368 1623
369 328
369 930
369 1554
370 310
370 954
370 1649
371 340
371 977
371 1656
372 280
372 976
372 1615
373 350
373 912
373 1556
374 262
374 950
374 1580
375 271
375 1006
375 1597
376 294
376 957
376 1606
377 370
377 992
377 1563
378 383
378 922
378 1650
379 270
379 952
379 1570
380 304
380 970
380 1598
381 360
381 995
381 1576
382 342
382 991
382 1582
383 266
383 937
383 1617
384 445
384 1151
384 1671
385 497
385 1115
385 1715
386 417
386 1122
386 1665
387 416
387 1098
387 1667
388 479
388 1097
388 1670
389 508
389 1135
389 1750
390 458
390 1029
390 1711
391 434
391 1077
391 1687
392 447
392 1044
392 1721
393 401
393 1048
393 1748
394 452
394 1127
394 1772
395 419
395 1067
395 1752
396 468
396 1120
396 1756
397 485
397 1111
397 1754
398 444
398 1086
398 1680
399 413
399 1132
399 1779
400 418
400 1126
400 1684
401 460
401 1150
401 1788
402 430
402 1088
402 1678
403 474
403 1133
403 1693
404 501
404 1136
404 1666
405 421
405 1094
405 1726
406 436
406 1148
406 1713
407 504
407 1130
407 1674
408 498
408 1030
408 1682
409 410
409 1114
409 1739
410 424
410 1149
410 1689
411 385
411 1040
411 1742
412 461
412 1104
412 1766
413 510
413 1113
413 1700
414 451
414 1102
414 1706
415 393
415 1101
415 1778
416 499
416 1034
416 1708
417 472
417 1087
417 1683
418 480
418 1108
418 1765
419 398
419 1107
419 1691
420 400
420 1131
420 1740
421 443
421 1063
421 1720
422 471
422 1026
422 1719
423 475
423 1066
423 1735
424 399
424 1118
424 1763
425 463
425 1055
425 1703
426 403
426 1103
426 1738
427 511
427 1089
427 1712
428 484
428 1028
428 1681
429 420
429 1138
429 1767
430 392
430 1109
430 1781
431 456
431 1093
431 1791
432 437
432 1053
432 1769
433 446
433 1140
433 1777
434 462
434 1037
434 1709
435 481
435 1046
435 1741
436 487
436 1128
436 1694
437 486
437 1074
437 1749
438 469
438 1145
438 1732
439 482
439 1099
439 1746
440 391
440 1045
440 1786
441 394
441 1052
441 1724
442 408
442 1081
442 1679
443 490
443 1027
443 1710
444 464
444 1100
444 1783
445 494
445 1031
445 1776
446 402
446 1068
446 1753
447 432
447 1119
447 1676
448 455
448 1143
448 1701
449 450
449 1082
449 1771
450 428
450 1129
450 1731
451 507
451 1057
451 1729
452 439
452 1085
452 1762
453 506
453 1062
453 1784
454 438
454 1032
454 1775
455 395
455 1036
455 1672
456 478
456 1125
456 1737
457 409
457 1092
457 1751
458 431
458 1106
458 1785
459 425
459 1078
459 1743
460 488
460 1090
460 1696
461 386
461 1134
461 1760
462 509
462 1141
462 1699
463 423
463 1083
463 1780
464 405
464 1142
464 1733
465 406
465 1060
465 1669
466 465
466 1054
466 1690
467 495
467 1061
467 1782
468 435
468 1121
468 1745
469 415
469 1096
469 1692
470 440
470 1095
470 1759
471 388
471 1144
471 1698
472 489
472 1024
472 1688
473 466
473 1117
473 1697
474 396
474 1064
474 1704
475 384
475 1080
475 1768
476 459
476 1110
476 1761
477 503
477 1073
477 1714
478 453
478 1058
478 1702
479 449
479 1047
479 1725
480 404
480 1079
480 1707
481 467
481 1051
481 1717
482 470
482 1112
482 1736
483 505
483 1072
483 1668
484 412
484 1042
484 1789
485 502
485 1050
485 1790
486 491
486 1075
486 1723
487 442
487 1033
487 1770
488 448
488 1056
488 1664
489 454
489 1039
489 1730
490 414
490 1147
490 1685
491 441
491 1076
491 1728
492 492
492 1049
492 1744
493 483
493 1041
493 1758
494 457
494 1123
494 1695
495 493
495 1139
495 1686
496 397
496 1071
496 1747
497 473
497 1025
497 1673
498 496
498 1038
498 1677
499 477
499 1043
499 1787
500 422
500 1069
500 1755
501 390
501 1091
501 1705
502 427
502 1146
502 1774
503 426
503 1065
503 1773
504 389
504 1059
504 1757
505 387
505 1035
505 1716
506 411
506 1116
506 1734
507 476
507 1084
507 1727
508 407
508 1137
508 1764
509 433
509 1070
509 1718
510 500
510 1124
510 1722
511 429
511 1105
511 1675
512 615
512 1256
512 1823
513 579
513 1203
513 1838
514 521
514 1152
514 1844
515 541
515 1278
515 1919
516 531
516 1177
516 1831
517 574
517 1268
517 1893
518 536
518 1202
518 1828
519 559
519 1229
519 1798
520 515
520 1154
520 1875
521 583
521 1243
521 1891
522 588
522 1275
522 1861
523 544
523 1167
523 1842
524 617
524 1237
524 1880
525 621
525 1271
525 1795
526 550
526 1217
526 1890
527 534
527 1236
527 1834
528 602
528 1246
528 1854
529 567
529 1205
529 1902
530 529
530 1174
530 1885
531 599
531 1180
531 1897
532 619
532 1270
532 1810
533 571
533 1207
533 1797
534 518
534 1216
534 1793
535 538
535 1186
535 1912
536 514
536 1227
536 1827
537 629
537 1179
537 1864
538 556
538 1234
538 1857
539 535
539 1251
539 1850
540 519
540 1253
540 1909
541 527
541 1261
541 1881
542 565
542 1238
542 1886
543 553
543 1262
543 1868
544 618
544 1264
544 1807
545 558
545 1156
545 1877
546 526
546 1184
546 1845
547 626
547 1254
547 1899
548 606
548 1208
548 1895
549 563
549 1171
549 1848
550 589
550 1206
550 1870
551 612
551 1191
551 1913
552 623
552 1273
552 1884
553 532
553 1214
553 1876
554 625
554 1190
554 1826
555 555
555 1197
555 1799
556 608
556 1163
556 1819
557 593
557 1232
557 1896
558 562
558 1165
558 1918
559 551
559 1258
559 1802
560 512
560 1259
560 1871
561 540
561 1195
561 1820
562 578
562 1185
562 1817
563 549
563 1194
563 1889
564 591
564 1153
564 1824
565 542
565 1168
565 1829
566 561
566 1193
566 1821
567 513
567 1241
567 1816
568 622
568 1164
568 1900
569 611
569 1155
569 1822
570 630
570 1230
570 1863
571 633
571 1272
571 1860
572 557
572 1200
572 1915
573 596
573 1239
573 1879
574 636
574 1183
574 1836
575 577
575 1260
575 1916
576 545
576 1187
576 1830
577 520
577 1218
577 1853
578 627
578 1263
578 1814
579 597
579 1279
579 1811
580 586
580 1250
580 1803
581 616
581 1224
581 1874
582 635
582 1188
582 1914
583 581
583 1160
583 1901
584 605
584 1204
584 1910
585 537
585 1170
585 1833
586 587
586 1178
586 1865
587 516
587 1277
587 1813
588 525
588 1166
588 1907
589 601
589 1244
589 1839
590 609
590 1169
590 1898
591 637
591 1175
591 1851
592 598
592 1212
592 1801
593 582
593 1226
593 1883
594 570
594 1192
594 1852
595 566
595 1223
595 1806
596 584
596 1242
596 1812
597 523
597 1247
597 1872
598 530
598 1210
598 1878
599 546
599 1249
599 1856
600 524
600 1159
600 1869
601 603
601 1198
601 1837
602 632
602 1209
602 1905
603 564
603 1269
603 1873
604 604
604 1233
604 1859
605 607
605 1240
605 1808
606 580
606 1274
606 1835
607 590
607 1257
607 1825
608 533
608 1235
608 1792
609 620
609 1196
609 1888
610 548
610 1222
610 1846
611 614
611 1162
611 1894
612 539
612 1199
612 1862
613 568
613 1176
613 1855
614 613
614 1182
614 1804
615 576
615 1173
615 1904
616 639
616 1213
616 1805
617 634
617 1255
617 1911
618 594
618 1215
618 1840
619 554
619 1189
619 1892
620 585
620 1220
620 1796
621 624
621 1211
621 1843
622 547
622 1172
622 1800
623 517
623 1266
623 1841
624 573
624 1158
624 1832
625 638
625 1231
625 1809
626 628
626 1252
626 1887
627 552
627 1181
627 1815
628 610
628 1276
628 1903
629 575
629 1157
629 1858
630 572
630 1248
630 1849
631 600
631 1219
631 1866
632 595
632 1201
632 1917
633 569
633 1228
633 1906
634 543
634 1267
634 1794
635 522
635 1221
635 1867
636 528
636 1245
636 1882
637 631
637 1265
637 1818
638 592
638 1161
638 1908
639 560
639 1225
639 1847
640 113
640 1234
640 1706
641 111
641 1164
641 1665
642 93
642 1174
642 1754
643 63
643 1243
643 1699
644 0
644 1219
644 1730
645 22
645 1239
645 1728
646 16
646 1241
646 1712
647 95
647 1213
647 1785
648 83
648 1246
648 1681
649 56
649 1204
649 1774
650 119
650 1153
650 1719
651 86
651 1271
651 1709
652 11
652 1203
652 1777
653 43
653 1237
653 1738
654 89
654 1262
654 1722
655 8
655 1235
655 1705
656 51
656 1233
656 1667
657 41
657 1250
657 1680
658 127
658 1229
658 1766
659 84
659 1180
659 1779
660 49
660 1221
660 1748
661 74
661 1256
661 1672
662 106
662 1279
662 1768
663 118
663 1165
663 1696
664 30
664 1199
664 1750
665 5
665 1265
665 1703
666 104
666 1260
666 1790
667 112
667 1275
667 1691
668 67
668 1257
668 1664
669 117
669 1183
669 1679
670 18
670 1266
670 1742
671 25
671 1217
671 1668
672 92
672 1192
672 1731
673 88
673 1185
673 1701
674 3
674 1232
674 1715
675 61
675 1212
675 1687
676 94
676 1188
676 1737
677 122
677 1156
677 1733
678 109
678 1200
678 1718
679 77
679 1163
679 1744
680 29
680 1186
680 1760
681 96
681 1209
681 1756
682 39
682 1211
682 1700
683 40
683 1223
683 1673
684 71
684 1181
684 1711
685 37
685 1245
685 1770
686 99
686 1172
686 1704
687 58
687 1231
687 1755
688 20
688 1158
688 1747
689 4
689 1225
689 1762
690 33
690 1190
690 1690
691 15
691 1160
691 1713
692 76
692 1215
692 1707
693 103
693 1276
693 1732
694 70
694 1198
694 1788
695 13
695 1197
695 1741
696 60
696 1176
696 1727
697 78
697 1168
697 1677
698 121
698 1238
698 1778
699 1
699 1169
699 1789
700 23
700 1214
700 1780
701 82
701 1253
701 1753
702 45
702 1228
702 1695
703 65
703 1152
703 1724
704 38
704 1268
704 1682
705 36
705 1157
705 1771
706 53
706 1278
706 1725
707 75
707 1248
707 1743
708 85
708 1259
708 1683
709 47
709 1205
709 1782
710 9
710 1184
710 1751
711 26
711 1207
711 1721
712 114
712 1193
712 1765
713 32
713 1270
713 1740
714 55
714 1196
714 1714
715 72
715 1273
715 1726
716 120
716 1247
716 1686
717 87
717 1175
717 1763
718 2
718 1162
718 1749
719 90
719 1272
719 1752
720 124
720 1252
720 1693
721 27
721 1187
721 1791
722 35
722 1226
722 1786
723 42
723 1191
723 1735
724 64
724 1171
724 1781
725 19
725 1254
725 1692
726 115
726 1189
726 1739
727 97
727 1224
727 1698
728 102
728 1227
728 1757
729 91
729 1249
729 1776
730 50
730 1258
730 1746
731 34
731 1210
731 1674
732 6
732 1240
732 1764
733 31
733 1269
733 1710
734 21
734 1195
734 1676
735 69
735 1261
735 1702
736 81
736 1194
736 1775
737 7
737 1173
737 1745
738 14
738 1155
738 1671
739 123
739 1201
739 1685
740 54
740 1202
740 1694
741 73
741 1179
741 1783
742 66
742 1242
742 1769
743 101
743 1182
743 1689
744 100
744 1159
744 1787
745 24
745 1222
745 1761
746 44
746 1177
746 1708
747 110
747 1255
747 1784
748 68
748 1263
748 1716
749 52
749 1264
749 1678
750 126
750 1244
750 1723
751 98
751 1166
751 1767
752 108
752 1267
752 1684
753 48
753 1178
753 1772
754 80
754 1208
754 1734
755 28
755 1154
755 1720
756 125
756 1277
756 1736
757 57
757 1167
757 1688
758 12
758 1218
758 1697
759 105
759 1170
759 1669
760 107
760 1236
760 1729
761 46
761 1220
761 1675
762 17
762 1216
762 1666
763 59
763 1230
763 1758
764 62
764 1161
764 1759
765 116
765 1251
765 1670
766 10
766 1206
766 1773
767 79
767 1274
767 1717
768 175
768 662
768 1861
769 220
769 706
769 1889
770 154
770 661
770 1915
771 166
771 755
771 1877
772 174
772 670
772 1841
773 225
773 704
773 1807
774 155
774 685
774 1895
775 236
775 709
775 1887
776 226
776 680
776 1837
777 163
777 736
777 1883
778 254
778 722
778 1859
779 210
779 652
779 1816
780 218
780 701
780 1818
781 252
781 751
781 1881
782 169
782 719
782 1919
783 239
783 696
783 1856
784 164
784 647
784 1813
785 208
785 712
785 1804
786 202
786 741
786 1855
787 199
787 643
787 1797
788 171
788 674
788 1910
789 237
789 668
789 1858
790 205
790 733
790 1914
791 189
791 649
791 1810
792 138
792 745
792 1866
793 185
793 688
793 1835
794 248
794 666
794 1918
795 165
795 708
795 1796
796 181
796 651
796 1849
797 229
797 703
797 1899
798 243
798 641
798 1868
799 207
799 724
799 1825
800 159
800 660
800 1917
801 206
801 683
801 1870
802 230
802 759
802 1885
803 146
803 698
803 1821
804 195
804 653
804 1798
805 238
805 742
805 1800
806 240
806 707
806 1913
807 246
807 687
807 1890
808 191
808 748
808 1845
809 141
809 757
809 1852
810 242
810 713
810 1802
811 143
811 715
811 1834
812 160
812 727
812 1882
813 227
813 764
813 1864
814 216
814 657
814 1871
815 201
815 729
815 1840
816 193
816 689
816 1830
817 167
817 746
817 1873
818 153
818 763
818 1888
819 231
819 716
819 1846
820 148
820 743
820 1828
821 249
821 711
821 1879
822 133
822 650
822 1820
823 255
823 671
823 1903
824 190
824 767
824 1854
825 177
825 760
825 1823
826 212
826 710
826 1891
827 173
827 645
827 1912
828 234
828 739
828 1905
829 144
829 749
829 1904
830 197
830 747
830 1847
831 157
831 684
831 1880
832 251
832 673
832 1838
833 158
833 681
833 1878
834 180
834 753
834 1831
835 137
835 734
835 1850
836 131
836 750
836 1862
837 128
837 686
837 1909
838 150
838 766
838 1875
839 161
839 672
839 1865
840 182
840 691
840 1898
841 235
841 726
841 1801
842 253
842 737
842 1792
843 184
843 648
843 1799
844 140
844 756
844 1844
845 172
845 765
845 1819
846 183
846 676
846 1806
847 241
847 682
847 1842
848 147
848 665
848 1892
849 136
849 675
849 1822
850 192
850 723
850 1814
851 211
851 655
851 1906
852 145
852 732
852 1907
853 200
853 664
853 1805
854 215
854 754
854 1916
855 196
855 694
855 1886
856 179
856 728
856 1863
857 232
857 690
857 1833
858 228
858 658
858 1827
859 247
859 678
859 1843
860 132
860 642
860 1836
861 209
861 735
861 1815
862 176
862 679
862 1896
863 187
863 758
863 1908
864 233
864 656
864 1872
865 203
865 721
865 1900
866 198
866 705
866 1853
867 156
867 677
867 1826
868 194
868 752
868 1824
869 178
869 699
869 1893
870 244
870 744
870 1897
871 222
871 692
871 1874
872 250
872 663
872 1832
873 134
873 667
873 1811
874 130
874 695
874 1809
875 204
875 702
875 1793
876 142
876 693
876 1795
877 186
877 718
877 1808
878 224
878 740
878 1911
879 139
879 700
879 1848
880 151
880 730
880 1794
881 214
881 762
881 1894
882 223
882 646
882 1829
883 219
883 720
883 1884
884 135
884 714
884 1857
885 168
885 644
885 1803
886 213
886 654
886 1901
887 149
887 669
887 1869
888 129
888 640
888 1817
889 188
889 731
889 1860
890 170
890 697
890 1839
891 245
891 717
891 1812
892 221
892 761
892 1876
893 152
893 725
893 1902
894 162
894 738
894 1851
895 217
895 659
895 1867
896 375
896 837
896 1374
897 348
897 893
897 1319
898 315
898 803
898 1337
899 352
899 879
899 1354
900 298
900 845
900 1367
901 303
901 872
901 1395
902 354
902 817
902 1380
903 358
903 768
903 1330
904 267
904 794
904 1292
905 321
905 880
905 1404
906 353
906 814
906 1378
907 339
907 800
907 1375
908 307
908 778
908 1353
909 378
909 809
909 1403
910 285
910 841
910 1381
911 382
911 795
911 1318
912 261
912 816
912 1348
913 351
913 840
913 1338
914 346
914 878
914 1326
915 295
915 866
915 1288
916 370
916 869
916 1308
917 372
917 877
917 1339
918 316
918 824
918 1322
919 381
919 830
919 1310
920 338
920 788
920 1376
921 335
921 829
921 1315
922 271
922 819
922 1387
923 360
923 777
923 1391
924 310
924 859
924 1406
925 359
925 791
925 1345
926 288
926 827
926 1296
927 301
927 828
927 1389
928 343
928 786
928 1398
929 277
929 790
929 1369
930 376
930 804
930 1321
931 306
931 888
931 1394
932 373
932 789
932 1301
933 273
933 831
933 1379
934 290
934 825
934 1400
935 296
935 805
935 1382
936 329
936 889
936 1324
937 300
937 799
937 1295
938 342
938 855
938 1300
939 268
939 810
939 1320
940 286
940 895
940 1405
941 365
941 793
941 1323
942 294
942 887
942 1284
943 377
943 813
943 1302
944 363
944 842
944 1360
945 304
945 890
945 1362
946 327
946 821
946 1357
947 324
947 822
947 1390
948 280
948 858
948 1384
949 322
949 876
949 1356
950 266
950 848
950 1299
951 276
951 776
951 1402
952 369
952 836
952 1385
953 281
953 775
953 1307
954 319
954 811
954 1303
955 336
955 885
955 1393
956 272
956 844
956 1328
957 311
957 883
957 1344
958 334
958 806
958 1314
959 308
959 785
959 1350
960 330
960 852
960 1346
961 312
961 875
961 1373
962 299
962 856
962 1317
963 297
963 891
963 1293
964 357
964 833
964 1370
965 345
965 812
965 1392
966 313
966 863
966 1283
967 355
967 874
967 1351
968 279
968 835
968 1304
969 256
969 815
969 1363
970 350
970 781
970 1368
971 289
971 779
971 1358
972 332
972 773
972 1282
973 326
973 771
973 1281
974 367
974 801
974 1327
975 258
975 784
975 1316
976 270
976 846
976 1383
977 278
977 797
977 1366
978 347
978 772
978 1335
979 275
979 857
979 1397
980 318
980 808
980 1329
981 380
981 774
981 1287
982 264
982 834
982 1386
983 309
983 823
983 1388
984 320
984 865
984 1407
985 287
985 832
985 1401
986 371
986 871
986 1371
987 314
987 854
987 1312
988 259
988 807
988 1359
989 291
989 787
989 1343
990 374
990 770
990 1333
991 317
991 894
991 1355
992 383
992 868
992 1285
993 269
993 864
993 1309
994 356
994 884
994 1289
995 333
995 783
995 1352
996 337
996 850
996 1291
997 362
997 886
997 1332
998 260
998 769
998 1349
999 344
999 796
999 1280
1000 282
1000 882
1000 1290
1001 366
1001 892
1001 1347
1002 323
1002 861
1002 1399
1003 265
1003 839
1003 1294
1004 368
1004 851
1004 1342
1005 257
1005 843
1005 1297
1006 293
1006 802
1006 1396
1007 284
1007 838
1007 1365
1008 274
1008 860
1008 1313
1009 340
1009 792
1009 1334
1010 283
1010 798
1010 1377
1011 331
1011 820
1011 1286
1012 262
1012 782
1012 1331
1013 325
1013 818
1013 1336
1014 361
1014 870
1014 1325
1015 292
1015 826
1015 1298
1016 328
1016 873
1016 1306
1017 341
1017 881
1017 1341
1018 302
1018 853
1018 1311
1019 364
1019 847
1019 1305
1020 379
1020 862
1020 1340
1021 263
1021 867
1021 1364
1022 305
1022 849
1022 1372
1023 349
1023 780
1023 1361
1024 398
1024 968
1024 1446
1025 491
1025 1010
1025 1488
1026 443
1026 938
1026 1441
1027 498
1027 939
1027 1495
1028 422
1028 983
1028 1418
1029 407
1029 972
1029 1500
1030 458
1030 999
1030 1434
1031 510
1031 1001
1031 1462
1032 401
1032 905
1032 1463
1033 396
1033 924
1033 1411
1034 387
1034 941
1034 1477
1035 404
1035 899
1035 1413
1036 508
1036 1002
1036 1504
1037 441
1037 902
1037 1444
1038 471
1038 962
1038 1410
1039 503
1039 975
1039 1501
1040 478
1040 1016
1040 1493
1041 477
1041 940
1041 1485
1042 430
1042 928
1042 1433
1043 509
1043 927
1043 1522
1044 452
1044 971
1044 1473
1045 479
1045 943
1045 1490
1046 511
1046 1007
1046 1527
1047 438
1047 936
1047 1431
1048 421
1048 912
1048 1457
1049 469
1049 994
1049 1422
1050 406
1050 915
1050 1417
1051 500
1051 918
1051 1515
1052 483
1052 977
1052 1451
1053 397
1053 934
1053 1528
1054 492
1054 1000
1054 1520
1055 459
1055 989
1055 1505
1056 497
1056 965
1056 1534
1057 405
1057 984
1057 1419
1058 446
1058 980
1058 1414
1059 403
1059 993
1059 1425
1060 410
1060 906
1060 1509
1061 466
1061 1023
1061 1429
1062 419
1062 960
1062 1432
1063 495
1063 1005
1063 1529
1064 480
1064 942
1064 1475
1065 473
1065 1009
1065 1523
1066 425
1066 919
1066 1503
1067 476
1067 898
1067 1496
1068 431
1068 964
1068 1484
1069 490
1069 1017
1069 1478
1070 465
1070 904
1070 1466
1071 486
1071 974
1071 1430
1072 426
1072 998
1072 1510
1073 455
1073 914
1073 1479
1074 385
1074 1021
1074 1464
1075 428
1075 1011
1075 1486
1076 389
1076 1013
1076 1412
1077 488
1077 991
1077 1438
1078 496
1078 985
1078 1494
1079 504
1079 909
1079 1458
1080 436
1080 926
1080 1416
1081 388
1081 955
1081 1511
1082 468
1082 976
1082 1435
1083 449
1083 908
1083 1454
1084 463
1084 1003
1084 1533
1085 416
1085 981
1085 1514
1086 440
1086 910
1086 1421
1087 462
1087 900
1087 1415
1088 489
1088 953
1088 1517
1089 418
1089 1015
1089 1524
1090 485
1090 959
1090 1461
1091 429
1091 923
1091 1465
1092 451
1092 978
1092 1423
1093 461
1093 970
1093 1426
1094 445
1094 963
1094 1521
1095 413
1095 947
1095 1532
1096 482
1096 967
1096 1455
1097 391
1097 930
1097 1424
1098 448
1098 1020
1098 1469
1099 467
1099 988
1099 1460
1100 402
1100 903
1100 1499
1101 501
1101 949
1101 1449
1102 432
1102 916
1102 1474
1103 457
1103 954
1103 1468
1104 494
1104 951
1104 1452
1105 475
1105 937
1105 1513
1106 456
1106 1012
1106 1428
1107 453
1107 961
1107 1447
1108 427
1108 973
1108 1506
1109 442
1109 982
1109 1480
1110 434
1110 995
1110 1487
1111 481
1111 922
1111 1456
1112 399
1112 1014
1112 1531
1113 395
1113 932
1113 1530
1114 472
1114 913
1114 1408
1115 454
1115 897
1115 1507
1116 507
1116 1008
1116 1481
1117 394
1117 987
1117 1472
1118 384
1118 990
1118 1508
1119 493
1119 896
1119 1437
1120 464
1120 957
1120 1497
1121 423
1121 1006
1121 1519
1122 447
1122 946
1122 1518
1123 411
1123 917
1123 1491
1124 506
1124 996
1124 1516
1125 415
1125 997
1125 1439
1126 484
1126 986
1126 1482
1127 470
1127 925
1127 1471
1128 460
1128 950
1128 1489
1129 412
1129 1022
1129 1476
1130 433
1130 935
1130 1459
1131 437
1131 901
1131 1525
1132 409
1132 1018
1132 1453
1133 444
1133 992
1133 1420
1134 417
1134 952
1134 1448
1135 505
1135 969
1135 1526
1136 386
1136 933
1136 1440
1137 487
1137 956
1137 1470
1138 408
1138 948
1138 1502
1139 390
1139 911
1139 1445
1140 424
1140 944
1140 1436
1141 414
1141 920
1141 1427
1142 393
1142 907
1142 1442
1143 392
1143 929
1143 1492
1144 502
1144 945
1144 1535
1145 420
1145 966
1145 1450
1146 435
1146 979
1146 1483
1147 474
1147 921
1147 1498
1148 450
1148 931
1148 1443
1149 499
1149 1004
1149 1467
1150 439
1150 1019
1150 1512
1151 400
1151 958
1151 1409
1152 534
1152 1030
1152 1536
1153 555
1153 1053
1153 1573
1154 581
1154 1093
1154 1662
1155 527
1155 1117
1155 1659
1156 597
1156 1122
1156 1626
1157 514
1157 1056
1157 1663
1158 619
1158 1043
1158 1555
1159 596
1159 1046
1159 1661
1160 589
1160 1071
1160 1615
1161 624
1161 1048
1161 1579
1162 570
1162 1092
1162 1632
1163 616
1163 1118
1163 1645
1164 522
1164 1040
1164 1550
1165 545
1165 1099
1165 1608
1166 575
1166 1041
1166 1603
1167 628
1167 1085
1167 1599
1168 588
1168 1073
1168 1595
1169 632
1169 1109
1169 1642
1170 515
1170 1025
1170 1588
1171 562
1171 1129
1171 1622
1172 598
1172 1101
1172 1574
1173 637
1173 1062
1173 1609
1174 569
1174 1120
1174 1620
1175 605
1175 1082
1175 1571
1176 554
1176 1141
1176 1585
1177 591
1177 1123
1177 1614
1178 599
1178 1077
1178 1552
1179 520
1179 1124
1179 1565
1180 617
1180 1091
1180 1653
1181 525
1181 1034
1181 1649
1182 559
1182 1088
1182 1639
1183 529
1183 1067
1183 1630
1184 518
1184 1089
1184 1575
1185 621
1185 1065
1185 1546
1186 609
1186 1058
1186 1621
1187 629
1187 1151
1187 1560
1188 547
1188 1114
1188 1651
1189 612
1189 1055
1189 1592
1190 584
1190 1084
1190 1578
1191 538
1191 1066
1191 1583
1192 639
1192 1079
1192 1660
1193 523
1193 1145
1193 1570
1194 539
1194 1047
1194 1656
1195 571
1195 1063
1195 1587
1196 542
1196 1113
1196 1577
1197 553
1197 1128
1197 1624
1198 561
1198 1044
1198 1607
1199 535
1199 1024
1199 1619
1200 567
1200 1142
1200 1627
1201 568
1201 1049
1201 1613
1202 630
1202 1050
1202 1590
1203 552
1203 1083
1203 1636
1204 579
1204 1036
1204 1584
1205 536
1205 1072
1205 1640
1206 524
1206 1133
1206 1564
1207 607
1207 1132
1207 1545
1208 618
1208 1138
1208 1617
1209 551
1209 1100
1209 1591
1210 512
1210 1054
1210 1631
1211 576
1211 1068
1211 1658
1212 633
1212 1130
1212 1612
1213 603
1213 1134
1213 1568
1214 587
1214 1126
1214 1601
1215 564
1215 1042
1215 1633
1216 541
1216 1038
1216 1625
1217 615
1217 1027
1217 1637
1218 537
1218 1149
1218 1629
1219 540
1219 1111
1219 1569
1220 521
1220 1028
1220 1581
1221 560
1221 1031
1221 1611
1222 625
1222 1064
1222 1556
1223 636
1223 1057
1223 1540
1224 566
1224 1081
1224 1547
1225 585
1225 1033
1225 1538
1226 583
1226 1112
1226 1606
1227 548
1227 1107
1227 1586
1228 572
1228 1116
1228 1566
1229 613
1229 1029
1229 1657
1230 627
1230 1032
1230 1549
1231 580
1231 1037
1231 1618
1232 626
1232 1143
1232 1646
1233 573
1233 1035
1233 1544
1234 600
1234 1097
1234 1641
1235 592
1235 1059
1235 1655
1236 519
1236 1087
1236 1559
1237 531
1237 1095
1237 1543
1238 590
1238 1078
1238 1558
1239 549
1239 1139
1239 1562
1240 528
1240 1086
1240 1561
1241 604
1241 1135
1241 1580
1242 543
1242 1136
1242 1616
1243 620
1243 1105
1243 1610
1244 533
1244 1127
1244 1553
1245 574
1245 1148
1245 1643
1246 526
1246 1074
1246 1551
1247 606
1247 1039
1247 1542
1248 565
1248 1070
1248 1652
1249 608
1249 1061
1249 1602
1250 595
1250 1146
1250 1638
1251 558
1251 1045
1251 1648
1252 610
1252 1060
1252 1576
1253 586
1253 1144
1253 1647
1254 634
1254 1115
1254 1594
1255 557
1255 1026
1255 1600
1256 532
1256 1096
1256 1539
1257 550
1257 1080
1257 1567
1258 516
1258 1104
1258 1650
1259 582
1259 1069
1259 1582
1260 638
1260 1098
1260 1628
1261 577
1261 1102
1261 1593
1262 513
1262 1075
1262 1589
1263 517
1263 1110
1263 1644
1264 593
1264 1140
1264 1598
1265 594
1265 1137
1265 1572
1266 611
1266 1103
1266 1537
1267 530
1267 1121
1267 1634
1268 601
1268 1076
1268 1605
1269 631
1269 1125
1269 1557
1270 614
1270 1131
1270 1596
1271 622
1271 1052
1271 1597
1272 602
1272 1119
1272 1604
1273 578
1273 1108
1273 1563
1274 623
1274 1090
1274 1541
1275 544
1275 1051
1275 1548
1276 563
1276 1147
1276 1635
1277 635
1277 1094
1277 1654
1278 556
1278 1150
1278 1623
1279 546
1279 1106
1279 1554
1280 63
1280 1092
1280 1535
1281 85
1281 1027
1281 1466
1282 31
1282 1074
1282 1526
1283 98
1283 1055
1283 1463
1284 113
1284 1099
1284 1423
1285 120
1285 1078
1285 1420
1286 108
1286 1139
1286 1517
1287 48
1287 1049
1287 1506
1288 42
1288 1042
1288 1429
1289 46
1289 1145
1289 1452
1290 58
1290 1124
1290 1465
1291 23
1291 1143
1291 1482
1292 60
1292 1119
1292 1492
1293 68
1293 1086
1293 1508
1294 17
1294 1084
1294 1509
1295 53
1295 1091
1295 1415
1296 100
1296 1127
1296 1524
1297 71
1297 1060
1297 1513
1298 117
1298 1106
1298 1479
1299 77
1299 1033
1299 1476
1300 44
1300 1043
1300 1409
1301 49
1301 1045
1301 1426
1302 122
1302 1108
1302 1438
1303 32
1303 1101
1303 1496
1304 92
1304 1079
1304 1433
1305 59
1305 1105
1305 1441
1306 88
1306 1041
1306 1445
1307 93
1307 1147
1307 1515
1308 79
1308 1093
1308 1480
1309 107
1309 1115
1309 1424
1310 56
1310 1067
1310 1510
1311 43
1311 1065
1311 1470
1312 4
1312 1053
1312 1459
1313 75
1313 1081
1313 1486
1314 19
1314 1047
1314 1516
1315 38
1315 1117
1315 1487
1316 73
1316 1094
1316 1504
1317 95
1317 1056
1317 1521
1318 55
1318 1129
1318 1491
1319 39
1319 1048
1319 1501
1320 127
1320 1080
1320 1484
1321 2
1321 1151
1321 1467
1322 66
1322 1066
1322 1469
1323 34
1323 1037
1323 1439
1324 74
1324 1131
1324 1410
1325 6
1325 1061
1325 1430
1326 20
1326 1083
1326 1518
1327 57
1327 1036
1327 1428
1328 0
1328 1096
1328 1447
1329 62
1329 1059
1329 1519
1330 83
1330 1128
1330 1408
1331 115
1331 1026
1331 1522
1332 11
1332 1054
1332 1498
1333 50
1333 1103
1333 1427
1334 106
1334 1025
1334 1477
1335 28
1335 1148
1335 1471
1336 40
1336 1097
1336 1457
1337 64
1337 1130
1337 1456
1338 16
1338 1057
1338 1495
1339 90
1339 1062
1339 1418
1340 82
1340 1111
1340 1500
1341 72
1341 1116
1341 1422
1342 22
1342 1044
1342 1416
1343 114
1343 1032
1343 1529
1344 67
1344 1110
1344 1475
1345 45
1345 1076
1345 1454
1346 125
1346 1098
1346 1533
1347 65
1347 1104
1347 1443
1348 5
1348 1138
1348 1413
1349 70
1349 1095
1349 1461
1350 123
1350 1112
1350 1421
1351 96
1351 1035
1351 1431
1352 47
1352 1068
1352 1512
1353 54
1353 1122
1353 1528
1354 14
1354 1123
1354 1488
1355 103
1355 1039
1355 1485
1356 3
1356 1118
1356 1473
1357 105
1357 1137
1357 1497
1358 110
1358 1113
1358 1453
1359 86
1359 1144
1359 1474
1360 104
1360 1038
1360 1494
1361 69
1361 1120
1361 1503
1362 21
1362 1063
1362 1481
1363 52
1363 1029
1363 1505
1364 35
1364 1125
1364 1432
1365 97
1365 1034
1365 1523
1366 18
1366 1024
1366 1450
1367 84
1367 1077
1367 1531
1368 41
1368 1050
1368 1425
1369 101
1369 1140
1369 1507
1370 29
1370 1146
1370 1514
1371 33
1371 1046
1371 1483
1372 76
1372 1070
1372 1446
1373 78
1373 1132
1373 1455
1374 30
1374 1102
1374 1472
1375 91
1375 1087
1375 1527
1376 112
1376 1072
1376 1442
1377 121
1377 1121
1377 1437
1378 27
1378 1090
1378 1511
1379 81
1379 1088
1379 1462
1380 99
1380 1073
1380 1489
1381 1
1381 1069
1381 1458
1382 26
1382 1149
1382 1417
1383 87
1383 1040
1383 1493
1384 15
1384 1075
1384 1468
1385 61
1385 1028
1385 1448
1386 36
1386 1052
1386 1436
1387 51
1387 1082
1387 1440
1388 94
1388 1100
1388 1449
1389 89
1389 1109
1389 1490
1390 111
1390 1134
1390 1502
1391 10
1391 1058
1391 1499
1392 12
1392 1031
1392 1478
1393 80
1393 1133
1393 1411
1394 8
1394 1089
1394 1460
1395 109
1395 1136
1395 1412
1396 124
1396 1064
1396 1525
1397 102
1397 1107
1397 1435
1398 13
1398 1030
1398 1451
1399 119
1399 1142
1399 1530
1400 24
1400 1150
1400 1532
1401 25
1401 1135
1401 1520
1402 9
1402 1126
1402 1534
1403 7
1403 1114
1403 1419
1404 37
1404 1051
1404 1414
1405 126
1405 1141
1405 1444
1406 118
1406 1085
1406 1434
1407 116
1407 1071
1407 1464
1408 242
1408 1184
1408 1566
1409 177
1409 1232
1409 1559
1410 212
1410 1199
1410 1622
1411 249
1411 1187
1411 1626
1412 180
1412 1250
1412 1654
1413 203
1413 1238
1413 1588
1414 213
1414 1153
1414 1604
1415 244
1415 1156
1415 1644
1416 146
1416 1276
1416 1649
1417 134
1417 1234
1417 1598
1418 169
1418 1261
1418 1613
1419 201
1419 1160
1419 1536
1420 230
1420 1262
1420 1575
1421 172
1421 1176
1421 1605
1422 156
1422 1216
1422 1556
1423 251
1423 1279
1423 1647
1424 139
1424 1265
1424 1640
1425 195
1425 1188
1425 1593
1426 167
1426 1186
1426 1610
1427 198
1427 1275
1427 1646
1428 223
1428 1182
1428 1582
1429 234
1429 1253
1429 1590
1430 170
1430 1213
1430 1618
1431 226
1431 1159
1431 1619
1432 215
1432 1192
1432 1623
1433 135
1433 1255
1433 1585
1434 236
1434 1257
1434 1572
1435 137
1435 1181
1435 1599
1436 232
1436 1165
1436 1553
1437 184
1437 1240
1437 1570
1438 138
1438 1236
1438 1611
1439 150
1439 1195
1439 1567
1440 140
1440 1172
1440 1554
1441 149
1441 1170
1441 1569
1442 163
1442 1258
1442 1601
1443 191
1443 1242
1443 1594
1444 147
1444 1229
1444 1659
1445 224
1445 1274
1445 1617
1446 136
1446 1200
1446 1658
1447 182
1447 1163
1447 1595
1448 221
1448 1210
1448 1642
1449 231
1449 1246
1449 1577
1450 243
1450 1270
1450 1660
1451 160
1451 1278
1451 1655
1452 168
1452 1190
1452 1563
1453 235
1453 1206
1453 1564
1454 189
1454 1169
1454 1540
1455 250
1455 1201
1455 1651
1456 155
1456 1207
1456 1637
1457 132
1457 1244
1457 1631
1458 142
1458 1174
1458 1632
1459 240
1459 1189
1459 1574
1460 175
1460 1277
1460 1546
1461 159
1461 1268
1461 1662
1462 148
1462 1196
1462 1548
1463 151
1463 1272
1463 1602
1464 207
1464 1168
1464 1650
1465 145
1465 1248
1465 1596
1466 216
1466 1157
1466 1576
1467 233
1467 1158
1467 1561
1468 141
1468 1231
1468 1549
1469 153
1469 1243
1469 1608
1470 205
1470 1162
1470 1616
1471 165
1471 1161
1471 1628
1472 171
1472 1218
1472 1652
1473 229
1473 1239
1473 1607
1474 193
1474 1225
1474 1557
1475 239
1475 1269
1475 1551
1476 179
1476 1155
1476 1542
1477 217
1477 1185
1477 1624
1478 225
1478 1267
1478 1552
1479 161
1479 1252
1479 1643
1480 197
1480 1220
1480 1656
1481 178
1481 1217
1481 1635
1482 222
1482 1223
1482 1555
1483 209
1483 1233
1483 1580
1484 176
1484 1237
1484 1550
1485 129
1485 1205
1485 1639
1486 164
1486 1191
1486 1603
1487 220
1487 1245
1487 1591
1488 131
1488 1227
1488 1592
1489 130
1489 1273
1489 1597
1490 133
1490 1164
1490 1547
1491 208
1491 1154
1491 1620
1492 255
1492 1175
1492 1645
1493 187
1493 1260
1493 1565
1494 246
1494 1183
1494 1638
1495 247
1495 1211
1495 1544
1496 206
1496 1219
1496 1653
1497 211
1497 1266
1497 1543
1498 200
1498 1247
1498 1648
1499 183
1499 1198
1499 1625
1500 188
1500 1221
1500 1633
1501 166
1501 1263
1501 1614
1502 241
1502 1173
1502 1573
1503 228
1503 1202
1503 1558
1504 204
1504 1264
1504 1537
1505 210
1505 1194
1505 1629
1506 237
1506 1212
1506 1657
1507 190
1507 1166
1507 1661
1508 144
1508 1203
1508 1579
1509 219
1509 1193
1509 1584
1510 154
1510 1224
1510 1627
1511 227
1511 1177
1511 1634
1512 248
1512 1209
1512 1560
1513 192
1513 1235
1513 1621
1514 162
1514 1251
1514 1630
1515 185
1515 1226
1515 1606
1516 254
1516 1230
1516 1586
1517 199
1517 1214
1517 1636
1518 252
1518 1215
1518 1541
1519 128
1519 1204
1519 1562
1520 143
1520 1241
1520 1615
1521 186
1521 1254
1521 1609
1522 152
1522 1197
1522 1581
1523 173
1523 1222
1523 1578
1524 196
1524 1271
1524 1612
1525 157
1525 1256
1525 1571
1526 245
1526 1259
1526 1538
1527 202
1527 1249
1527 1600
1528 214
1528 1152
1528 1539
1529 181
1529 1171
1529 1641
1530 238
1530 1180
1530 1587
1531 194
1531 1208
1531 1589
1532 174
1532 1179
1532 1663
1533 218
1533 1228
1533 1583
1534 253
1534 1178
1534 1568
1535 158
1535 1167
1535 1545
1536 262
1536 690
1536 1734
1537 311
1537 692
1537 1777
1538 322
1538 642
1538 1680
1539 360
1539 681
1539 1752
1540 332
1540 686
1540 1696
1541 263
1541 653
1541 1683
1542 273
1542 716
1542 1779
1543 355
1543 729
1543 1766
1544 362
1544 641
1544 1753
1545 358
1545 688
1545 1722
1546 329
1546 699
1546 1716
1547 289
1547 721
1547 1707
1548 256
1548 694
1548 1773
1549 296
1549 650
1549 1681
1550 283
1550 718
1550 1682
1551 304
1551 755
1551 1740
1552 379
1552 749
1552 1712
1553 376
1553 762
1553 1704
1554 293
1554 742
1554 1667
1555 377
1555 759
1555 1758
1556 364
1556 646
1556 1756
1557 279
1557 670
1557 1745
1558 324
1558 704
1558 1678
1559 368
1559 727
1559 1702
1560 369
1560 723
1560 1694
1561 267
1561 682
1561 1717
1562 338
1562 695
1562 1677
1563 383
1563 731
1563 1770
1564 301
1564 700
1564 1674
1565 297
1565 640
1565 1784
1566 292
1566 698
1566 1729
1567 318
1567 703
1567 1733
1568 363
1568 719
1568 1713
1569 300
1569 767
1569 1684
1570 333
1570 743
1570 1775
1571 271
1571 658
1571 1743
1572 277
1572 660
1572 1774
1573 287
1573 736
1573 1706
1574 341
1574 752
1574 1670
1575 343
1575 662
1575 1763
1576 307
1576 763
1576 1748
1577 314
1577 739
1577 1727
1578 335
1578 648
1578 1790
1579 310
1579 645
1579 1723
1580 281
1580 717
1580 1726
1581 298
1581 765
1581 1788
1582 264
1582 673
1582 1695
1583 372
1583 735
1583 1737
1584 337
1584 758
1584 1781
1585 351
1585 734
1585 1769
1586 361
1586 697
1586 1700
1587 272
1587 713
1587 1715
1588 302
1588 655
1588 1719
1589 257
1589 730
1589 1676
1590 340
1590 733
1590 1787
1591 312
1591 708
1591 1731
1592 266
1592 683
1592 1778
1593 284
1593 724
1593 1689
1594 378
1594 714
1594 1789
1595 345
1595 732
1595 1686
1596 259
1596 705
1596 1764
1597 348
1597 710
1597 1746
1598 308
1598 754
1598 1783
1599 375
1599 654
1599 1699
1600 382
1600 756
1600 1698
1601 309
1601 671
1601 1749
1602 286
1602 741
1602 1664
1603 294
1603 661
1603 1671
1604 282
1604 764
1604 1741
1605 334
1605 672
1605 1703
1606 370
1606 726
1606 1782
1607 290
1607 766
1607 1744
1608 274
1608 643
1608 1679
1609 373
1609 720
1609 1697
1610 288
1610 664
1610 1692
1611 342
1611 667
1611 1701
1612 265
1612 737
1612 1708
1613 280
1613 744
1613 1668
1614 349
1614 706
1614 1776
1615 352
1615 657
1615 1747
1616 331
1616 696
1616 1724
1617 269
1617 740
1617 1755
1618 270
1618 746
1618 1738
1619 299
1619 680
1619 1714
1620 323
1620 651
1620 1751
1621 261
1621 668
1621 1759
1622 268
1622 647
1622 1730
1623 346
1623 679
1623 1728
1624 353
1624 687
1624 1768
1625 371
1625 753
1625 1721
1626 367
1626 728
1626 1735
1627 258
1627 712
1627 1709
1628 320
1628 663
1628 1767
1629 285
1629 702
1629 1765
1630 317
1630 757
1630 1757
1631 315
1631 685
1631 1691
1632 336
1632 649
1632 1718
1633 276
1633 678
1633 1780
1634 381
1634 751
1634 1688
1635 380
1635 745
1635 1772
1636 325
1636 659
1636 1690
1637 354
1637 722
1637 1786
1638 313
1638 693
1638 1760
1639 303
1639 701
1639 1672
1640 347
1640 715
1640 1725
1641 260
1641 709
1641 1705
1642 350
1642 711
1642 1736
1643 365
1643 674
1643 1693
1644 356
1644 750
1644 1665
1645 330
1645 738
1645 1685
1646 357
1646 656
1646 1771
1647 321
1647 669
1647 1673
1648 306
1648 652
1648 1762
1649 359
1649 691
1649 1791
1650 291
1650 725
1650 1739
1651 305
1651 675
1651 1710
1652 344
1652 689
1652 1750
1653 366
1653 707
1653 1754
1654 328
1654 676
1654 1711
1655 319
1655 644
1655 1761
1656 327
1656 761
1656 1666
1657 339
1657 677
1657 1720
1658 278
1658 665
1658 1732
1659 374
1659 760
1659 1669
1660 316
1660 748
1660 1675
1661 295
1661 684
1661 1785
1662 326
1662 666
1662 1687
1663 275
1663 747
1663 1742
1664 400
1664 795
1664 1896
1665 494
1665 837
1665 1844
1666 464
1666 868
1666 1817
1667 468
1667 832
1667 1861
1668 501
1668 847
1668 1806
1669 394
1669 786
1669 1856
1670 428
1670 819
1670 1909
1671 444
1671 812
1671 1903
1672 488
1672 866
1672 1907
1673 456
1673 776
1673 1852
1674 393
1674 880
1674 1873
1675 505
1675 869
1675 1902
1676 419
1676 791
1676 1813
1677 438
1677 834
1677 1901
1678 504
1678 777
1678 1853
1679 409
1679 827
1679 1881
1680 451
1680 784
1680 1835
1681 455
1681 809
1681 1839
1682 445
1682 788
1682 1898
1683 397
1683 839
1683 1908
1684 476
1684 872
1684 1876
1685 405
1685 875
1685 1879
1686 477
1686 862
1686 1906
1687 490
1687 770
1687 1831
1688 449
1688 846
1688 1911
1689 492
1689 826
1689 1916
1690 483
1690 876
1690 1800
1691 422
1691 885
1691 1847
1692 443
1692 799
1692 1913
1693 502
1693 790
1693 1910
1694 469
1694 772
1694 1864
1695 473
1695 802
1695 1886
1696 399
1696 893
1696 1857
1697 474
1697 811
1697 1801
1698 426
1698 848
1698 1904
1699 495
1699 823
1699 1805
1700 471
1700 800
1700 1822
1701 486
1701 787
1701 1825
1702 475
1702 870
1702 1794
1703 484
1703 815
1703 1851
1704 390
1704 886
1704 1815
1705 396
1705 861
1705 1841
1706 446
1706 783
1706 1793
1707 487
1707 894
1707 1799
1708 430
1708 891
1708 1860
1709 496
1709 882
1709 1900
1710 450
1710 878
1710 1846
1711 410
1711 818
1711 1810
1712 509
1712 854
1712 1915
1713 391
1713 828
1713 1871
1714 507
1714 803
1714 1830
1715 459
1715 856
1715 1897
1716 408
1716 877
1716 1862
1717 406
1717 771
1717 1880
1718 431
1718 774
1718 1892
1719 465
1719 810
1719 1899
1720 489
1720 843
1720 1912
1721 404
1721 814
1721 1838
1722 392
1722 887
1722 1865
1723 436
1723 889
1723 1803
1724 415
1724 840
1724 1807
1725 437
1725 796
1725 1818
1726 386
1726 853
1726 1863
1727 403
1727 879
1727 1843
1728 412
1728 822
1728 1889
1729 414
1729 883
1729 1848
1730 500
1730 806
1730 1866
1731 499
1731 782
1731 1867
1732 470
1732 873
1732 1798
1733 429
1733 778
1733 1797
1734 435
1734 792
1734 1918
1735 402
1735 807
1735 1827
1736 420
1736 888
1736 1870
1737 401
1737 871
1737 1832
1738 510
1738 830
1738 1885
1739 448
1739 825
1739 1917
1740 461
1740 864
1740 1855
1741 411
1741 831
1741 1874
1742 424
1742 775
1742 1837
1743 511
1743 850
1743 1795
1744 485
1744 863
1744 1872
1745 421
1745 824
1745 1868
1746 417
1746 895
1746 1893
1747 467
1747 808
1747 1804
1748 462
1748 833
1748 1891
1749 452
1749 884
1749 1854
1750 413
1750 844
1750 1821
1751 457
1751 768
1751 1895
1752 385
1752 829
1752 1914
1753 423
1753 779
1753 1875
1754 497
1754 781
1754 1884
1755 466
1755 801
1755 1883
1756 493
1756 865
1756 1816
1757 479
1757 849
1757 1820
1758 398
1758 851
1758 1878
1759 508
1759 780
1759 1845
1760 389
1760 890
1760 1833
1761 433
1761 841
1761 1836
1762 491
1762 867
1762 1812
1763 384
1763 821
1763 1858
1764 503
1764 852
1764 1834
1765 407
1765 860
1765 1890
1766 480
1766 804
1766 1808
1767 478
1767 816
1767 1828
1768 441
1768 773
1768 1796
1769 454
1769 855
1769 1829
1770 416
1770 835
1770 1869
1771 482
1771 857
1771 1792
1772 434
1772 789
1772 1859
1773 447
1773 769
1773 1814
1774 427
1774 881
1774 1811
1775 463
1775 794
1775 1888
1776 498
1776 836
1776 1882
1777 395
1777 798
1777 1894
1778 425
1778 817
1778 1887
1779 453
1779 838
1779 1824
1780 481
1780 859
1780 1840
1781 460
1781 874
1781 1877
1782 506
1782 845
1782 1842
1783 440
1783 785
1783 1850
1784 387
1784 820
1784 1849
1785 458
1785 842
1785 1819
1786 432
1786 793
1786 1802
1787 418
1787 892
1787 1823
1788 472
1788 858
1788 1905
1789 388
1789 813
1789 1809
1790 442
1790 797
1790 1919
1791 439
1791 805
1791 1826
1792 620
1792 936
1792 1284
1793 555
1793 1018
1793 1340
1794 612
1794 974
1794 1292
1795 513
1795 996
1795 1375
1796 579
1796 984
1796 1301
1797 578
1797 977
1797 1368
1798 514
1798 992
1798 1373
1799 518
1799 989
1799 1365
1800 587
1800 939
1800 1357
1801 618
1801 912
1801 1333
1802 628
1802 907
1802 1376
1803 637
1803 1006
1803 1382
1804 569
1804 954
1804 1294
1805 608
1805 956
1805 1296
1806 522
1806 902
1806 1307
1807 621
1807 958
1807 1389
1808 527
1808 944
1808 1386
1809 550
1809 933
1809 1392
1810 629
1810 987
1810 1331
1811 525
1811 945
1811 1287
1812 588
1812 1007
1812 1326
1813 633
1813 957
1813 1400
1814 523
1814 904
1814 1280
1815 624
1815 898
1815 1320
1816 605
1816 941
1816 1401
1817 526
1817 983
1817 1380
1818 581
1818 960
1818 1362
1819 577
1819 1000
1819 1290
1820 551
1820 927
1820 1304
1821 540
1821 1005
1821 1406
1822 530
1822 976
1822 1343
1823 521
1823 901
1823 1385
1824 617
1824 1022
1824 1397
1825 539
1825 1016
1825 1281
1826 594
1826 923
1826 1308
1827 574
1827 1010
1827 1330
1828 534
1828 1017
1828 1305
1829 546
1829 979
1829 1395
1830 557
1830 931
1830 1404
1831 582
1831 910
1831 1288
1832 524
1832 982
1832 1393
1833 567
1833 995
1833 1353
1834 585
1834 913
1834 1351
1835 552
1835 929
1835 1356
1836 516
1836 998
1836 1402
1837 519
1837 947
1837 1289
1838 563
1838 938
1838 1314
1839 599
1839 942
1839 1354
1840 571
1840 978
1840 1285
1841 515
1841 990
1841 1348
1842 610
1842 970
1842 1363
1843 558
1843 896
1843 1342
1844 601
1844 994
1844 1387
1845 592
1845 1001
1845 1306
1846 542
1846 969
1846 1282
1847 589
1847 914
1847 1311
1848 626
1848 955
1848 1334
1849 547
1849 926
1849 1367
1850 611
1850 900
1850 1391
1851 590
1851 968
1851 1355
1852 580
1852 963
1852 1293
1853 545
1853 920
1853 1364
1854 630
1854 997
1854 1327
1855 538
1855 964
1855 1310
1856 583
1856 937
1856 1302
1857 543
1857 991
1857 1347
1858 548
1858 1011
1858 1346
1859 584
1859 921
1859 1359
1860 554
1860 932
1860 1309
1861 597
1861 915
1861 1407
1862 576
1862 967
1862 1336
1863 535
1863 953
1863 1295
1864 623
1864 1020
1864 1332
1865 615
1865 905
1865 1339
1866 631
1866 940
1866 1374
1867 614
1867 917
1867 1390
1868 602
1868 985
1868 1337
1869 634
1869 973
1869 1312
1870 625
1870 993
1870 1291
1871 600
1871 1023
1871 1372
1872 573
1872 1008
1872 1366
1873 635
1873 925
1873 1321
1874 517
1874 965
1874 1318
1875 570
1875 922
1875 1341
1876 529
1876 950
1876 1360
1877 562
1877 962
1877 1338
1878 639
1878 999
1878 1352
1879 616
1879 961
1879 1384
1880 627
1880 928
1880 1300
1881 528
1881 1002
1881 1313
1882 536
1882 909
1882 1388
1883 622
1883 919
1883 1371
1884 549
1884 930
1884 1349
1885 520
1885 980
1885 1399
1886 595
1886 1019
1886 1323
1887 566
1887 935
1887 1297
1888 544
1888 1012
1888 1345
1889 559
1889 916
1889 1325
1890 564
1890 924
1890 1403
1891 512
1891 951
1891 1379
1892 596
1892 1004
1892 1394
1893 586
1893 943
1893 1299
1894 556
1894 1015
1894 1324
1895 613
1895 946
1895 1322
1896 565
1896 986
1896 1377
1897 532
1897 959
1897 1298
1898 572
1898 918
1898 1344
1899 603
1899 906
1899 1383
1900 598
1900 948
1900 1286
1901 607
1901 934
1901 1350
1902 609
1902 903
1902 1315
1903 575
1903 981
1903 1317
1904 533
1904 1013
1904 1398
1905 591
1905 1014
1905 1370
1906 593
1906 897
1906 1405
1907 561
1907 975
1907 1381
1908 541
1908 966
1908 1329
1909 568
1909 952
1909 1369
1910 537
1910 1009
1910 1335
1911 553
1911 1021
1911 1303
1912 560
1912 972
1912 1358
1913 636
1913 899
1913 1378
1914 606
1914 908
1914 1361
1915 604
1915 971
1915 1283
1916 619
1916 911
1916 1328
1917 638
1917 949
1917 1319
1918 531
1918 988
1918 1396
1919 632
1919 1003
1919 1316
1920 55
1920 986
1920 1918
1921 59
1921 954
1921 1807
1922 19
1922 1009
1922 1822
1923 54
1923 897
1923 1846
1924 34
1924 932
1924 1873
1925 72
1925 962
1925 1859
1926 77
1926 912
1926 1868
1927 127
1927 903
1927 1875
1928 94
1928 907
1928 1813
1929 39
1929 937
1929 1909
1930 91
1930 899
1930 1901
1931 21
1931 953
1931 1879
1932 43
1932 967
1932 1816
1933 97
1933 930
1933 1908
1934 44
1934 956
1934 1852
1935 37
1935 1005
1935 1851
1936 95
1936 1010
1936 1809
1937 81
1937 997
1937 1899
1938 8
1938 905
1938 1793
1939 125
1939 901
1939 1797
1940 42
1940 921
1940 1799
1941 70
1941 951
1941 1904
1942 51
1942 928
1942 1802
1943 92
1943 946
1943 1910
1944 63
1944 900
1944 1792
1945 118
1945 1019
1945 1914
1946 29
1946 978
1946 1849
1947 57
1947 981
1947 1854
1948 17
1948 926
1948 1815
1949 114
1949 979
1949 1818
1950 86
1950 1015
1950 1864
1951 126
1951 958
1951 1878
1952 85
1952 896
1952 1858
1953 22
1953 919
1953 1836
1954 119
1954 980
1954 1912
1955 62
1955 970
1955 1911
1956 12
1956 985
1956 1877
1957 0
1957 927
1957 1857
1958 103
1958 1007
1958 1905
1959 65
1959 929
1959 1855
1960 112
1960 975
1960 1892
1961 115
1961 1022
1961 1885
1962 53
1962 964
1962 1826
1963 4
1963 994
1963 1863
1964 80
1964 1021
1964 1820
1965 76
1965 959
1965 1830
1966 11
1966 973
1966 1842
1967 45
1967 941
1967 1828
1968 88
1968 990
1968 1825
1969 84
1969 902
1969 1860
1970 122
1970 996
1970 1913
1971 113
1971 909
1971 1907
1972 56
1972 963
1972 1845
1973 20
1973 966
1973 1896
1974 60
1974 952
1974 1806
1975 25
1975 957
1975 1884
1976 78
1976 972
1976 1915
1977 23
1977 989
1977 1888
1978 109
1978 933
1978 1890
1979 5
1979 969
1979 1794
1980 117
1980 914
1980 1834
1981 71
1981 1014
1981 1810
1982 61
1982 931
1982 1838
1983 101
1983 983
1983 1898
1984 116
1984 915
1984 1824
1985 75
1985 924
1985 1872
1986 123
1986 1023
1986 1870
1987 107
1987 1013
1987 1796
1988 121
1988 987
1988 1829
1989 1
1989 917
1989 1832
1990 26
1990 942
1990 1916
1991 96
1991 995
1991 1839
1992 99
1992 939
1992 1798
1993 87
1993 1018
1993 1811
1994 83
1994 1011
1994 1889
1995 35
1995 913
1995 1803
1996 27
1996 898
1996 1902
1997 124
1997 918
1997 1874
1998 74
1998 935
1998 1841
1999 24
1999 968
1999 1900
2000 68
2000 1001
2000 1817
2001 67
2001 993
2001 1840
2002 33
2002 1006
2002 1865
2003 64
2003 910
2003 1848
2004 30
2004 1017
2004 1823
2005 46
2005 1020
2005 1827
2006 79
2006 965
2006 1835
2007 2
2007 961
2007 1919
2008 15
2008 1008
2008 1895
2009 73
2009 922
2009 1843
2010 93
2010 960
2010 1821
2011 111
2011 976
2011 1853
2012 32
2012 1004
2012 1897
2013 100
2013 943
2013 1880
2014 49
2014 999
2014 1887
2015 52
2015 998
2015 1814
2016 69
2016 971
2016 1906
2017 104
2017 925
2017 1886
2018 41
2018 1003
2018 1844
2019 47
2019 948
2019 1891
2020 31
2020 991
2020 1795
2021 10
2021 984
2021 1856
2022 58
2022 923
2022 1850
2023 7
2023 1002
2023 1833
2024 82
2024 949
2024 1882
2025 106
2025 936
2025 1883
2026 36
2026 938
2026 1831
2027 13
2027 950
2027 1903
2028 28
2028 934
2028 1871
2029 3
2029 1016
2029 1800
2030 120
2030 992
2030 1917
2031 38
2031 1000
2031 1894
2032 89
2032 988
2032 1812
2033 66
2033 908
2033 1867
2034 40
2034 955
2034 1804
2035 105
2035 920
2035 1837
2036 108
2036 1012
2036 1869
2037 98
2037 911
2037 1862
2038 50
2038 947
2038 1861
2039 14
2039 906
2039 1866
2040 90
2040 945
2040 1893
2041 16
2041 944
2041 1801
2042 9
2042 916
2042 1881
2043 102
2043 982
2043 1819
2044 6
2044 904
2044 1876
2045 110
2045 940
2045 1808
2046 18
2046 974
2046 1805
2047 48
2047 977
2047 1847
2048 184
2048 1138
2048 1388
2049 161
2049 1042
2049 1307
2050 140
2050 1057
2050 1383
2051 228
2051 1070
2051 1331
2052 204
2052 1045
2052 1291
2053 233
2053 1030
2053 1399
2054 238
2054 1027
2054 1284
2055 250
2055 1072
2055 1286
2056 145
2056 1144
2056 1400
2057 189
2057 1118
2057 1348
2058 241
2058 1116
2058 1402
2059 176
2059 1049
2059 1347
2060 196
2060 1112
2060 1346
2061 197
2061 1124
2061 1282
2062 195
2062 1076
2062 1338
2063 163
2063 1110
2063 1309
2064 202
2064 1120
2064 1281
2065 177
2065 1127
2065 1304
2066 132
2066 1086
2066 1381
2067 186
2067 1075
2067 1366
2068 224
2068 1026
2068 1407
2069 243
2069 1097
2069 1390
2070 246
2070 1149
2070 1392
2071 191
2071 1047
2071 1323
2072 171
2072 1114
2072 1332
2073 215
2073 1071
2073 1320
2074 151
2074 1105
2074 1335
2075 251
2075 1101
2075 1292
2076 136
2076 1091
2076 1280
2077 205
2077 1038
2077 1389
2078 128
2078 1094
2078 1305
2079 149
2079 1037
2079 1289
2080 240
2080 1132
2080 1325
2081 252
2081 1081
2081 1358
2082 181
2082 1113
2082 1372
2083 210
2083 1131
2083 1362
2084 138
2084 1046
2084 1369
2085 249
2085 1043
2085 1295
2086 162
2086 1073
2086 1318
2087 166
2087 1048
2087 1322
2088 188
2088 1096
2088 1405
2089 253
2089 1053
2089 1396
2090 216
2090 1115
2090 1336
2091 134
2091 1107
2091 1368
2092 153
2092 1061
2092 1285
2093 221
2093 1146
2093 1373
2094 139
2094 1145
2094 1315
2095 235
2095 1092
2095 1306
2096 222
2096 1130
2096 1328
2097 182
2097 1141
2097 1374
2098 147
2098 1123
2098 1387
2099 209
2099 1060
2099 1333
2100 158
2100 1083
2100 1342
2101 244
2101 1089
2101 1302
2102 148
2102 1025
2102 1298
2103 130
2103 1122
2103 1300
2104 255
2104 1031
2104 1343
2105 129
2105 1055
2105 1353
2106 185
2106 1035
2106 1365
2107 236
2107 1143
2107 1377
2108 200
2108 1034
2108 1376
2109 247
2109 1056
2109 1303
2110 190
2110 1079
2110 1327
2111 231
2111 1137
2111 1340
2112 242
2112 1044
2112 1363
2113 178
2113 1104
2113 1355
2114 218
2114 1142
2114 1395
2115 175
2115 1111
2115 1367
2116 168
2116 1109
2116 1317
2117 248
2117 1148
2117 1345
2118 169
2118 1133
2118 1352
2119 133
2119 1063
2119 1319
2120 211
2120 1129
2120 1354
2121 227
2121 1087
2121 1394
2122 206
2122 1050
2122 1299
2123 193
2123 1140
2123 1364
2124 172
2124 1058
2124 1283
2125 144
2125 1108
2125 1382
2126 223
2126 1068
2126 1393
2127 154
2127 1028
2127 1296
2128 220
2128 1065
2128 1310
2129 237
2129 1085
2129 1357
2130 219
2130 1080
2130 1406
2131 214
2131 1039
2131 1293
2132 131
2132 1121
2132 1404
2133 180
2133 1088
2133 1391
2134 183
2134 1139
2134 1370
2135 198
2135 1119
2135 1403
2136 159
2136 1029
2136 1380
2137 157
2137 1135
2137 1290
2138 234
2138 1151
2138 1301
2139 194
2139 1082
2139 1398
2140 155
2140 1064
2140 1287
2141 137
2141 1125
2141 1288
2142 232
2142 1059
2142 1385
2143 152
2143 1066
2143 1344
2144 141
2144 1074
2144 1326
2145 165
2145 1102
2145 1371
2146 207
2146 1090
2146 1375
2147 167
2147 1147
2147 1378
2148 208
2148 1106
2148 1341
2149 135
2149 1024
2149 1334
2150 229
2150 1103
2150 1349
2151 143
2151 1036
2151 1361
2152 160
2152 1100
2152 1337
2153 226
2153 1062
2153 1339
2154 245
2154 1041
2154 1294
2155 192
2155 1033
2155 1297
2156 150
2156 1093
2156 1329
2157 254
2157 1126
2157 1384
2158 164
2158 1117
2158 1379
2159 146
2159 1150
2159 1311
2160 179
2160 1052
2160 1308
2161 173
2161 1098
2161 1351
2162 217
2162 1099
2162 1350
2163 174
2163 1032
2163 1324
2164 142
2164 1067
2164 1316
2165 225
2165 1136
2165 1312
2166 187
2166 1077
2166 1386
2167 230
2167 1054
2167 1330
2168 170
2168 1051
2168 1313
2169 239
2169 1069
2169 1401
2170 212
2170 1134
2170 1359
2171 199
2171 1040
2171 1314
2172 203
2172 1128
2172 1356
2173 213
2173 1078
2173 1360
2174 156
2174 1095
2174 1321
2175 201
2175 1084
2175 1397
2176 365
2176 1270
2176 1485
2177 308
2177 1174
2177 1445
2178 351
2178 1181
2178 1431
2179 341
2179 1176
2179 1481
2180 360
2180 1211
2180 1474
2181 310
2181 1215
2181 1459
2182 337
2182 1203
2182 1438
2183 318
2183 1171
2183 1527
2184 312
2184 1255
2184 1514
2185 303
2185 1223
2185 1462
2186 316
2186 1175
2186 1434
2187 354
2187 1166
2187 1419
2188 348
2188 1173
2188 1443
2189 285
2189 1189
2189 1455
2190 345
2190 1193
2190 1425
2191 301
2191 1209
2191 1522
2192 325
2192 1267
2192 1471
2193 349
2193 1183
2193 1523
2194 368
2194 1240
2194 1464
2195 338
2195 1231
2195 1463
2196 331
2196 1252
2196 1492
2197 258
2197 1196
2197 1499
2198 293
2198 1194
2198 1484
2199 272
2199 1200
2199 1436
2200 264
2200 1186
2200 1413
2201 334
2201 1248
2201 1451
2202 269
2202 1228
2202 1410
2203 302
2203 1236
2203 1489
2204 371
2204 1216
2204 1420
2205 362
2205 1179
2205 1482
2206 292
2206 1195
2206 1448
2207 358
2207 1206
2207 1473
2208 262
2208 1224
2208 1461
2209 370
2209 1156
2209 1521
2210 257
2210 1269
2210 1458
2211 263
2211 1246
2211 1517
2212 267
2212 1204
2212 1511
2213 295
2213 1264
2213 1494
2214 382
2214 1177
2214 1427
2215 357
2215 1271
2215 1493
2216 366
2216 1167
2216 1414
2217 311
2217 1229
2217 1509
2218 305
2218 1272
2218 1503
2219 278
2219 1214
2219 1428
2220 322
2220 1230
2220 1456
2221 356
2221 1237
2221 1460
2222 266
2222 1260
2222 1429
2223 261
2223 1158
2223 1508
2224 288
2224 1155
2224 1518
2225 377
2225 1201
2225 1424
2226 326
2226 1244
2226 1487
2227 300
2227 1188
2227 1450
2228 332
2228 1250
2228 1479
2229 352
2229 1190
2229 1409
2230 329
2230 1268
2230 1533
2231 350
2231 1161
2231 1491
2232 320
2232 1277
2232 1422
2233 347
2233 1212
2233 1470
2234 299
2234 1247
2234 1433
2235 270
2235 1254
2235 1480
2236 369
2236 1258
2236 1418
2237 294
2237 1169
2237 1440
2238 333
2238 1185
2238 1519
2239 359
2239 1275
2239 1502
2240 319
2240 1220
2240 1535
2241 363
2241 1152
2241 1432
2242 342
2242 1154
2242 1498
2243 328
2243 1222
2243 1446
2244 364
2244 1238
2244 1505
2245 265
2245 1263
2245 1501
2246 355
2246 1245
2246 1468
2247 289
2247 1192
2247 1530
2248 340
2248 1232
2248 1435
2249 296
2249 1197
2249 1504
2250 287
2250 1261
2250 1495
2251 286
2251 1257
2251 1534
2252 335
2252 1168
2252 1442
2253 284
2253 1178
2253 1497
2254 324
2254 1226
2254 1526
2255 346
2255 1182
2255 1426
2256 314
2256 1265
2256 1486
2257 315
2257 1163
2257 1532
2258 281
2258 1170
2258 1500
2259 274
2259 1165
2259 1472
2260 381
2260 1276
2260 1457
2261 268
2261 1162
2261 1453
2262 256
2262 1249
2262 1529
2263 379
2263 1205
2263 1513
2264 327
2264 1239
2264 1488
2265 343
2265 1180
2265 1531
2266 297
2266 1218
2266 1490
2267 353
2267 1157
2267 1466
2268 277
2268 1234
2268 1475
2269 380
2269 1251
2269 1469
2270 291
2270 1191
2270 1408
2271 276
2271 1242
2271 1524
2272 290
2272 1243
2272 1510
2273 280
2273 1259
2273 1478
2274 372
2274 1164
2274 1437
2275 361
2275 1278
2275 1444
2276 307
2276 1198
2276 1496
2277 339
2277 1159
2277 1528
2278 375
2278 1235
2278 1465
2279 376
2279 1187
2279 1516
2280 344
2280 1279
2280 1452
2281 323
2281 1227
2281 1412
2282 378
2282 1207
2282 1441
2283 260
2283 1266
2283 1417
2284 373
2284 1210
2284 1411
2285 282
2285 1221
2285 1430
2286 309
2286 1274
2286 1506
2287 259
2287 1225
2287 1467
2288 304
2288 1217
2288 1512
2289 367
2289 1241
2289 1477
2290 271
2290 1213
2290 1416
2291 279
2291 1208
2291 1449
2292 321
2292 1233
2292 1421
2293 283
2293 1273
2293 1515
2294 374
2294 1219
2294 1454
2295 330
2295 1256
2295 1447
2296 383
2296 1199
2296 1415
2297 275
2297 1160
2297 1525
2298 273
2298 1172
2298 1507
2299 313
2299 1153
2299 1520
2300 317
2300 1262
2300 1476
2301 306
2301 1184
2301 1423
2302 298
2302 1202
2302 1483
2303 336
2303 1253
2303 1439
2304 511
2304 721
2304 1634
2305 505
2305 676
2305 1631
2306 429
2306 716
2306 1624
2307 405
2307 662
2307 1604
2308 463
2308 727
2308 1646
2309 419
2309 642
2309 1608
2310 489
2310 687
2310 1645
2311 437
2311 759
2311 1648
2312 482
2312 757
2312 1555
2313 402
2313 737
2313 1638
2314 462
2314 640
2314 1661
2315 432
2315 695
2315 1596
2316 426
2316 699
2316 1567
2317 487
2317 717
2317 1577
2318 483
2318 665
2318 1597
2319 389
2319 653
2319 1541
2320 392
2320 732
2320 1630
2321 510
2321 700
2321 1570
2322 408
2322 675
2322 1636
2323 441
2323 674
2323 1576
2324 468
2324 641
2324 1566
2325 394
2325 731
2325 1647
2326 477
2326 698
2326 1611
2327 473
2327 736
2327 1663
2328 493
2328 733
2328 1540
2329 391
2329 713
2329 1633
2330 425
2330 689
2330 1640
2331 498
2331 751
2331 1587
2332 461
2332 764
2332 1619
2333 470
2333 703
2333 1560
2334 428
2334 651
2334 1635
2335 436
2335 680
2335 1543
2336 427
2336 763
2336 1662
2337 406
2337 681
2337 1547
2338 414
2338 715
2338 1625
2339 388
2339 691
2339 1578
2340 450
2340 679
2340 1561
2341 444
2341 690
2341 1651
2342 399
2342 734
2342 1548
2343 448
2343 708
2343 1614
2344 404
2344 645
2344 1573
2345 509
2345 720
2345 1585
2346 486
2346 740
2346 1538
2347 446
2347 712
2347 1598
2348 496
2348 678
2348 1559
2349 479
2349 742
2349 1652
2350 452
2350 643
2350 1655
2351 396
2351 688
2351 1552
2352 449
2352 683
2352 1603
2353 397
2353 729
2353 1556
2354 415
2354 760
2354 1537
2355 442
2355 657
2355 1591
2356 488
2356 668
2356 1605
2357 411
2357 752
2357 1602
2358 385
2358 702
2358 1542
2359 491
2359 755
2359 1613
2360 401
2360 709
2360 1558
2361 451
2361 746
2361 1583
2362 418
2362 758
2362 1606
2363 421
2363 644
2363 1593
2364 447
2364 659
2364 1551
2365 499
2365 649
2365 1620
2366 501
2366 648
2366 1571
2367 480
2367 707
2367 1539
2368 387
2368 692
2368 1557
2369 484
2369 660
2369 1618
2370 507
2370 650
2370 1575
2371 494
2371 669
2371 1659
2372 464
2372 747
2372 1616
2373 410
2373 714
2373 1607
2374 455
2374 647
2374 1579
2375 495
2375 745
2375 1658
2376 422
2376 765
2376 1637
2377 443
2377 726
2377 1650
2378 506
2378 722
2378 1545
2379 420
2379 711
2379 1563
2380 431
2380 725
2380 1623
2381 478
2381 654
2381 1657
2382 465
2382 697
2382 1580
2383 439
2383 766
2383 1653
2384 481
2384 710
2384 1595
2385 395
2385 754
2385 1568
2386 433
2386 741
2386 1617
2387 475
2387 656
2387 1554
2388 417
2388 719
2388 1600
2389 474
2389 661
2389 1629
2390 467
2390 748
2390 1615
2391 485
2391 677
2391 1612
2392 386
2392 663
2392 1586
2393 434
2393 762
2393 1644
2394 500
2394 743
2394 1569
2395 416
2395 670
2395 1574
2396 456
2396 684
2396 1536
2397 497
2397 652
2397 1654
2398 454
2398 667
2398 1562
2399 438
2399 738
2399 1643
2400 424
2400 761
2400 1584
2401 504
2401 693
2401 1546
2402 393
2402 744
2402 1610
2403 503
2403 672
2403 1549
2404 492
2404 739
2404 1590
2405 476
2405 704
2405 1572
2406 460
2406 666
2406 1581
2407 472
2407 682
2407 1621
2408 423
2408 694
2408 1628
2409 453
2409 673
2409 1609
2410 440
2410 749
2410 1632
2411 490
2411 723
2411 1642
2412 458
2412 735
2412 1601
2413 435
2413 655
2413 1626
2414 469
2414 750
2414 1594
2415 400
2415 658
2415 1550
2416 457
2416 686
2416 1649
2417 445
2417 664
2417 1582
2418 390
2418 701
2418 1588
2419 398
2419 730
2419 1592
2420 413
2420 706
2420 1656
2421 459
2421 724
2421 1564
2422 412
2422 767
2422 1589
2423 502
2423 671
2423 1622
2424 508
2424 756
2424 1641
2425 407
2425 685
2425 1544
2426 471
2426 728
2426 1627
2427 384
2427 705
2427 1660
2428 403
2428 718
2428 1565
2429 466
2429 753
2429 1639
2430 430
2430 646
2430 1553
2431 409
2431 696
2431 1599
2432 627
2432 836
2432 1753
2433 535
2433 853
2433 1685
2434 559
2434 792
2434 1783
2435 534
2435 773
2435 1697
2436 607
2436 889
2436 1760
2437 590
2437 887
2437 1691
2438 583
2438 828
2438 1762
2439 516
2439 800
2439 1741
2440 579
2440 826
2440 1670
2441 619
2441 787
2441 1673
2442 565
2442 864
2442 1726
2443 544
2443 888
2443 1742
2444 629
2444 780
2444 1731
2445 540
2445 877
2445 1678
2446 611
2446 799
2446 1706
2447 613
2447 837
2447 1714
2448 615
2448 805
2448 1699
2449 512
2449 838
2449 1754
2450 550
2450 883
2450 1751
2451 639
2451 860
2451 1666
2452 605
2452 867
2452 1788
2453 562
2453 768
2453 1752
2454 636
2454 829
2454 1790
2455 617
2455 871
2455 1779
2456 584
2456 830
2456 1768
2457 582
2457 825
2457 1665
2458 519
2458 882
2458 1745
2459 609
2459 778
2459 1669
2460 626
2460 872
2460 1725
2461 538
2461 874
2461 1776
2462 524
2462 801
2462 1664
2463 558
2463 834
2463 1695
2464 614
2464 850
2464 1778
2465 525
2465 841
2465 1767
2466 588
2466 790
2466 1780
2467 618
2467 895
2467 1711
2468 616
2468 865
2468 1683
2469 601
2469 807
2469 1712
2470 638
2470 824
2470 1721
2471 568
2471 809
2471 1743
2472 520
2472 776
2472 1715
2473 596
2473 852
2473 1675
2474 518
2474 869
2474 1750
2475 602
2475 810
2475 1720
2476 576
2476 827
2476 1692
2477 554
2477 833
2477 1759
2478 526
2478 784
2478 1668
2479 523
2479 866
2479 1717
2480 548
2480 786
2480 1687
2481 536
2481 884
2481 1740
2482 622
2482 821
2482 1770
2483 610
2483 859
2483 1789
2484 564
2484 812
2484 1781
2485 581
2485 873
2485 1677
2486 623
2486 885
2486 1674
2487 597
2487 879
2487 1777
2488 606
2488 769
2488 1708
2489 621
2489 843
2489 1773
2490 573
2490 789
2490 1672
2491 549
2491 794
2491 1775
2492 625
2492 863
2492 1774
2493 598
2493 848
2493 1771
2494 547
2494 779
2494 1764
2495 541
2495 781
2495 1756
2496 521
2496 835
2496 1696
2497 600
2497 818
2497 1681
2498 608
2498 862
2498 1689
2499 566
2499 795
2499 1782
2500 575
2500 775
2500 1758
2501 594
2501 816
2501 1701
2502 531
2502 820
2502 1710
2503 595
2503 817
2503 1727
2504 537
2504 892
2504 1700
2505 574
2505 774
2505 1722
2506 555
2506 813
2506 1702
2507 593
2507 890
2507 1732
2508 527
2508 870
2508 1763
2509 585
2509 891
2509 1694
2510 631
2510 842
2510 1693
2511 546
2511 847
2511 1679
2512 589
2512 796
2512 1686
2513 577
2513 793
2513 1791
2514 513
2514 880
2514 1746
2515 530
2515 849
2515 1747
2516 572
2516 803
2516 1785
2517 556
2517 832
2517 1733
2518 567
2518 770
2518 1716
2519 543
2519 886
2519 1728
2520 633
2520 878
2520 1698
2521 612
2521 785
2521 1713
2522 515
2522 868
2522 1707
2523 624
2523 894
2523 1723
2524 539
2524 881
2524 1730
2525 578
2525 840
2525 1676
2526 635
2526 861
2526 1671
2527 591
2527 791
2527 1684
2528 603
2528 806
2528 1749
2529 517
2529 876
2529 1719
2530 628
2530 815
2530 1709
2531 630
2531 856
2531 1744
2532 533
2532 875
2532 1766
2533 569
2533 823
2533 1718
2534 563
2534 798
2534 1734
2535 604
2535 783
2535 1729
2536 557
2536 788
2536 1748
2537 545
2537 814
2537 1724
2538 560
2538 782
2538 1739
2539 570
2539 844
2539 1735
2540 514
2540 777
2540 1786
2541 528
2541 819
2541 1705
2542 551
2542 857
2542 1680
2543 522
2543 804
2543 1757
2544 587
2544 797
2544 1784
2545 542
2545 855
2545 1736
2546 586
2546 846
2546 1769
2547 592
2547 851
2547 1755
2548 532
2548 831
2548 1704
2549 620
2549 802
2549 1682
2550 580
2550 808
2550 1787
2551 571
2551 822
2551 1761
2552 553
2552 858
2552 1737
2553 552
2553 845
2553 1690
2554 637
2554 839
2554 1738
2555 561
2555 772
2555 1688
2556 634
2556 854
2556 1765
2557 599
2557 771
2557 1772
2558 632
2558 893
2558 1703
2559 529
2559 811
2559 1667
