2560 1920 7680
0 1
0 640
0 1280
1 2
1 641
1 1281
2 3
2 642
2 1282
3 4
3 643
3 1283
4 5
4 644
4 1284
5 6
5 645
5 1285
6 7
6 646
6 1286
7 8
7 647
7 1287
8 9
8 648
8 1288
9 10
9 649
9 1289
10 11
10 650
10 1290
11 12
11 651
11 1291
12 13
12 652
12 1292
13 14
13 653
13 1293
14 15
14 654
14 1294
15 16
15 655
15 1295
16 17
16 656
16 1296
17 18
17 657
17 1297
18 19
18 658
18 1298
19 20
19 659
19 1299
20 21
20 660
20 1300
21 22
21 661
21 1301
22 23
22 662
22 1302
23 24
23 663
23 1303
24 25
24 664
24 1304
25 26
25 665
25 1305
26 27
26 666
26 1306
27 28
27 667
27 1307
28 29
28 668
28 1308
29 30
29 669
29 1309
30 31
30 670
30 1310
31 32
31 671
31 1311
32 33
32 672
32 1312
33 34
33 673
33 1313
34 35
34 674
34 1314
35 36
35 675
35 1315
36 37
36 676
36 1316
37 38
37 677
37 1317
38 39
38 678
38 1318
39 40
39 679
39 1319
40 41
40 680
40 1320
41 42
41 681
41 1321
42 43
42 682
42 1322
43 44
43 683
43 1323
44 45
44 684
44 1324
45 46
45 685
45 1325
46 47
46 686
46 1326
47 48
47 687
47 1327
48 49
48 688
48 1328
49 50
49 689
49 1329
50 51
50 690
50 1330
51 52
51 691
51 1331
52 53
52 692
52 1332
53 54
53 693
53 1333
54 55
54 694
54 1334
55 56
55 695
55 1335
56 57
56 696
56 1336
57 58
57 697
57 1337
58 59
58 698
58 1338
59 60
59 699
59 1339
60 61
60 700
60 1340
61 62
61 701
61 1341
62 63
62 702
62 1342
63 64
63 703
63 1343
64 65
64 704
64 1344
65 66
65 705
65 1345
66 67
66 706
66 1346
67 68
67 707
67 1347
68 69
68 708
68 1348
69 70
69 709
69 1349
70 71
70 710
70 1350
71 72
71 711
71 1351
72 73
72 712
72 1352
73 74
73 713
73 1353
74 75
74 714
74 1354
75 76
75 715
75 1355
76 77
76 716
76 1356
77 78
77 717
77 1357
78 79
78 718
78 1358
79 80
79 719
79 1359
80 81
80 720
80 1360
81 82
81 721
81 1361
82 83
82 722
82 1362
83 84
83 723
83 1363
84 85
84 724
84 1364
85 86
85 725
85 1365
86 87
86 726
86 1366
87 88
87 727
87 1367
88 89
88 728
88 1368
89 90
89 729
89 1369
90 91
90 730
90 1370
91 92
91 731
91 1371
92 93
92 732
92 1372
93 94
93 733
93 1373
94 95
94 734
94 1374
95 96
95 735
95 1375
96 97
96 736
96 1376
97 98
97 737
97 1377
98 99
98 738
98 1378
99 100
99 739
99 1379
100 101
100 740
100 1380
101 102
101 741
101 1381
102 103
102 742
102 1382
103 104
103 743
103 1383
104 105
104 744
104 1384
105 106
105 745
105 1385
106 107
106 746
106 1386
107 108
107 747
107 1387
108 109
108 748
108 1388
109 110
109 749
109 1389
110 111
110 750
110 1390
111 112
111 751
111 1391
112 113
112 752
112 1392
113 114
113 753
113 1393
114 115
114 754
114 1394
115 116
115 755
115 1395
116 117
116 756
116 1396
117 118
117 757
117 1397
118 119
118 758
118 1398
119 120
119 759
119 1399
120 121
120 760
120 1400
121 122
121 761
121 1401
122 123
122 762
122 1402
123 124
123 763
123 1403
124 125
124 764
124 1404
125 126
125 765
125 1405
126 127
126 766
126 1406
127 0
127 767
127 1407
128 128
128 768
128 1408
129 129
129 769
129 1409
130 130
130 770
130 1410
131 131
131 771
131 1411
132 132
132 772
132 1412
133 133
133 773
133 1413
134 134
134 774
134 1414
135 135
135 775
135 1415
136 136
136 776
136 1416
137 137
137 777
137 1417
138 138
138 778
138 1418
139 139
139 779
139 1419
140 140
140 780
140 1420
141 141
141 781
141 1421
142 142
142 782
142 1422
143 143
143 783
143 1423
144 144
144 784
144 1424
145 145
145 785
145 1425
146 146
146 786
146 1426
147 147
147 787
147 1427
148 148
148 788
148 1428
149 149
149 789
149 1429
150 150
150 790
150 1430
151 151
151 791
151 1431
152 152
152 792
152 1432
153 153
153 793
153 1433
154 154
154 794
154 1434
155 155
155 795
155 1435
156 156
156 796
156 1436
157 157
157 797
157 1437
158 158
158 798
158 1438
159 159
159 799
159 1439
160 160
160 800
160 1440
161 161
161 801
161 1441
162 162
162 802
162 1442
163 163
163 803
163 1443
164 164
164 804
164 1444
165 165
165 805
165 1445
166 166
166 806
166 1446
167 167
167 807
167 1447
168 168
168 808
168 1448
169 169
169 809
169 1449
170 170
170 810
170 1450
171 171
171 811
171 1451
172 172
172 812
172 1452
173 173
173 813
173 1453
174 174
174 814
174 1454
175 175
175 815
175 1455
176 176
176 816
176 1456
177 177
177 817
177 1457
178 178
178 818
178 1458
179 179
179 819
179 1459
180 180
180 820
180 1460
181 181
181 821
181 1461
182 182
182 822
182 1462
183 183
183 823
183 1463
184 184
184 824
184 1464
185 185
185 825
185 1465
186 186
186 826
186 1466
187 187
187 827
187 1467
188 188
188 828
188 1468
189 189
189 829
189 1469
190 190
190 830
190 1470
191 191
191 831
191 1471
192 192
192 832
192 1472
193 193
193 833
193 1473
194 194
194 834
194 1474
195 195
195 835
195 1475
196 196
196 836
196 1476
197 197
197 837
197 1477
198 198
198 838
198 1478
199 199
199 839
199 1479
200 200
200 840
200 1480
201 201
201 841
201 1481
202 202
202 842
202 1482
203 203
203 843
203 1483
204 204
204 844
204 1484
205 205
205 845
205 1485
206 206
206 846
206 1486
207 207
207 847
207 1487
208 208
208 848
208 1488
209 209
209 849
209 1489
210 210
210 850
210 1490
211 211
211 851
211 1491
212 212
212 852
212 1492
213 213
213 853
213 1493
214 214
214 854
214 1494
215 215
215 855
215 1495
216 216
216 856
216 1496
217 217
217 857
217 1497
218 218
218 858
218 1498
219 219
219 859
219 1499
220 220
220 860
220 1500
221 221
221 861
221 1501
222 222
222 862
222 1502
223 223
223 863
223 1503
224 224
224 864
224 1504
225 225
225 865
225 1505
226 226
226 866
226 1506
227 227
227 867
227 1507
228 228
228 868
228 1508
229 229
229 869
229 1509
230 230
230 870
230 1510
231 231
231 871
231 1511
232 232
232 872
232 1512
233 233
233 873
233 1513
234 234
234 874
234 1514
235 235
235 875
235 1515
236 236
236 876
236 1516
237 237
237 877
237 1517
238 238
238 878
238 1518
239 239
239 879
239 1519
240 240
240 880
240 1520
241 241
241 881
241 1521
242 242
242 882
242 1522
243 243
243 883
243 1523
244 244
244 884
244 1524
245 245
245 885
245 1525
246 246
246 886
246 1526
247 247
247 887
247 1527
248 248
248 888
248 1528
249 249
249 889
249 1529
250 250
250 890
250 1530
251 251
251 891
251 1531
252 252
252 892
252 1532
253 253
253 893
253 1533
254 254
254 894
254 1534
255 255
255 895
255 1535
256 256
256 896
256 1536
257 257
257 897
257 1537
258 258
258 898
258 1538
259 259
259 899
259 1539
260 260
260 900
260 1540
261 261
261 901
261 1541
262 262
262 902
262 1542
263 263
263 903
263 1543
264 264
264 904
264 1544
265 265
265 905
265 1545
266 266
266 906
266 1546
267 267
267 907
267 1547
268 268
268 908
268 1548
269 269
269 909
269 1549
270 270
270 910
270 1550
271 271
271 911
271 1551
272 272
272 912
272 1552
273 273
273 913
273 1553
274 274
274 914
274 1554
275 275
275 915
275 1555
276 276
276 916
276 1556
277 277
277 917
277 1557
278 278
278 918
278 1558
279 279
279 919
279 1559
280 280
280 920
280 1560
281 281
281 921
281 1561
282 282
282 922
282 1562
283 283
283 923
283 1563
284 284
284 924
284 1564
285 285
285 925
285 1565
286 286
286 926
286 1566
287 287
287 927
287 1567
288 288
288 928
288 1568
289 289
289 929
289 1569
290 290
290 930
290 1570
291 291
291 931
291 1571
292 292
292 932
292 1572
293 293
293 933
293 1573
294 294
294 934
294 1574
295 295
295 935
295 1575
296 296
296 936
296 1576
297 297
297 937
297 1577
298 298
298 938
298 1578
299 299
299 939
299 1579
300 300
300 940
300 1580
301 301
301 941
301 1581
302 302
302 942
302 1582
303 303
303 943
303 1583
304 304
304 944
304 1584
305 305
305 945
305 1585
306 306
306 946
306 1586
307 307
307 947
307 1587
308 308
308 948
308 1588
309 309
309 949
309 1589
310 310
310 950
310 1590
311 311
311 951
311 1591
312 312
312 952
312 1592
313 313
313 953
313 1593
314 314
314 954
314 1594
315 315
315 955
315 1595
316 316
316 956
316 1596
317 317
317 957
317 1597
318 318
318 958
318 1598
319 319
319 959
319 1599
320 320
320 960
320 1600
321 321
321 961
321 1601
322 322
322 962
322 1602
323 323
323 963
323 1603
324 324
324 964
324 1604
325 325
325 965
325 1605
326 326
326 966
326 1606
327 327
327 967
327 1607
328 328
328 968
328 1608
329 329
329 969
329 1609
330 330
330 970
330 1610
331 331
331 971
331 1611
332 332
332 972
332 1612
333 333
333 973
333 1613
334 334
334 974
334 1614
335 335
335 975
335 1615
336 336
336 976
336 1616
337 337
337 977
337 1617
338 338
338 978
338 1618
339 339
339 979
339 1619
340 340
340 980
340 1620
341 341
341 981
341 1621
342 342
342 982
342 1622
343 343
343 983
343 1623
344 344
344 984
344 1624
345 345
345 985
345 1625
346 346
346 986
346 1626
347 347
347 987
347 1627
348 348
348 988
348 1628
349 349
349 989
349 1629
350 350
350 990
350 1630
351 351
351 991
351 1631
352 352
352 992
352 1632
353 353
353 993
353 1633
354 354
354 994
354 1634
355 355
355 995
355 1635
356 356
356 996
356 1636
357 357
357 997
357 1637
358 358
358 998
358 1638
359 359
359 999
359 1639
360 360
360 1000
360 1640
361 361
361 1001
361 1641
362 362
362 1002
362 1642
363 363
363 1003
363 1643
364 364
364 1004
364 1644
365 365
365 1005
365 1645
366 366
366 1006
366 1646
367 367
367 1007
367 1647
368 368
368 1008
368 1648
369 369
369 1009
369 1649
370 370
370 1010
370 1650
371 371
371 1011
371 1651
372 372
372 1012
372 1652
373 373
373 1013
373 1653
374 374
374 1014
374 1654
375 375
375 1015
375 1655
376 376
376 1016
376 1656
377 377
377 1017
377 1657
378 378
378 1018
378 1658
379 379
379 1019
379 1659
380 380
380 1020
380 1660
381 381
381 1021
381 1661
382 382
382 1022
382 1662
383 383
383 1023
383 1663
384 384
384 1024
384 1664
385 385
385 1025
385 1665
386 386
386 1026
386 1666
387 387
387 1027
387 1667
388 388
388 1028
388 1668
389 389
389 1029
389 1669
390 390
390 1030
390 1670
391 391
391 1031
391 1671
392 392
392 1032
392 1672
393 393
393 1033
393 1673
394 394
394 1034
394 1674
395 395
395 1035
395 1675
396 396
396 1036
396 1676
397 397
397 1037
397 1677
398 398
398 1038
398 1678
399 399
399 1039
399 1679
400 400
400 1040
400 1680
401 401
401 1041
401 1681
402 402
402 1042
402 1682
403 403
403 1043
403 1683
404 404
404 1044
404 1684
405 405
405 1045
405 1685
406 406
406 1046
406 1686
407 407
407 1047
407 1687
408 408
408 1048
408 1688
409 409
409 1049
409 1689
410 410
410 1050
410 1690
411 411
411 1051
411 1691
412 412
412 1052
412 1692
413 413
413 1053
413 1693
414 414
414 1054
414 1694
415 415
415 1055
415 1695
416 416
416 1056
416 1696
417 417
417 1057
417 1697
418 418
418 1058
418 1698
419 419
419 1059
419 1699
420 420
420 1060
420 1700
421 421
421 1061
421 1701
422 422
422 1062
422 1702
423 423
423 1063
423 1703
424 424
424 1064
424 1704
425 425
425 1065
425 1705
426 426
426 1066
426 1706
427 427
427 1067
427 1707
428 428
428 1068
428 1708
429 429
429 1069
429 1709
430 430
430 1070
430 1710
431 431
431 1071
431 1711
432 432
432 1072
432 1712
433 433
433 1073
433 1713
434 434
434 1074
434 1714
435 435
435 1075
435 1715
436 436
436 1076
436 1716
437 437
437 1077
437 1717
438 438
438 1078
438 1718
439 439
439 1079
439 1719
440 440
440 1080
440 1720
441 441
441 1081
441 1721
442 442
442 1082
442 1722
443 443
443 1083
443 1723
444 444
444 1084
444 1724
445 445
445 1085
445 1725
446 446
446 1086
446 1726
447 447
447 1087
447 1727
448 448
448 1088
448 1728
449 449
449 1089
449 1729
450 450
450 1090
450 1730
451 451
451 1091
451 1731
452 452
452 1092
452 1732
453 453
453 1093
453 1733
454 454
454 1094
454 1734
455 455
455 1095
455 1735
456 456
456 1096
456 1736
457 457
457 1097
457 1737
458 458
458 1098
458 1738
459 459
459 1099
459 1739
460 460
460 1100
460 1740
461 461
461 1101
461 1741
462 462
462 1102
462 1742
463 463
463 1103
463 1743
464 464
464 1104
464 1744
465 465
465 1105
465 1745
466 466
466 1106
466 1746
467 467
467 1107
467 1747
468 468
468 1108
468 1748
469 469
469 1109
469 1749
470 470
470 1110
470 1750
471 471
471 1111
471 1751
472 472
472 1112
472 1752
473 473
473 1113
473 1753
474 474
474 1114
474 1754
475 475
475 1115
475 1755
476 476
476 1116
476 1756
477 477
477 1117
477 1757
478 478
478 1118
478 1758
479 479
479 1119
479 1759
480 480
480 1120
480 1760
481 481
481 1121
481 1761
482 482
482 1122
482 1762
483 483
483 1123
483 1763
484 484
484 1124
484 1764
485 485
485 1125
485 1765
486 486
486 1126
486 1766
487 487
487 1127
487 1767
488 488
488 1128
488 1768
489 489
489 1129
489 1769
490 490
490 1130
490 1770
491 491
491 1131
491 1771
492 492
492 1132
492 1772
493 493
493 1133
493 1773
494 494
494 1134
494 1774
495 495
495 1135
495 1775
496 496
496 1136
496 1776
497 497
497 1137
497 1777
498 498
498 1138
498 1778
499 499
499 1139
499 1779
500 500
500 1140
500 1780
501 501
501 1141
501 1781
502 502
502 1142
502 1782
503 503
503 1143
503 1783
504 504
504 1144
504 1784
505 505
505 1145
505 1785
506 506
506 1146
506 1786
507 507
507 1147
507 1787
508 508
508 1148
508 1788
509 509
509 1149
509 1789
510 510
510 1150
510 1790
511 511
511 1151
511 1791
512 512
512 1152
512 1792
513 513
513 1153
513 1793
514 514
514 1154
514 1794
515 515
515 1155
515 1795
516 516
516 1156
516 1796
517 517
517 1157
517 1797
518 518
518 1158
518 1798
519 519
519 1159
519 1799
520 520
520 1160
520 1800
521 521
521 1161
521 1801
522 522
522 1162
522 1802
523 523
523 1163
523 1803
524 524
524 1164
524 1804
525 525
525 1165
525 1805
526 526
526 1166
526 1806
527 527
527 1167
527 1807
528 528
528 1168
528 1808
529 529
529 1169
529 1809
530 530
530 1170
530 1810
531 531
531 1171
531 1811
532 532
532 1172
532 1812
533 533
533 1173
533 1813
534 534
534 1174
534 1814
535 535
535 1175
535 1815
536 536
536 1176
536 1816
537 537
537 1177
537 1817
538 538
538 1178
538 1818
539 539
539 1179
539 1819
540 540
540 1180
540 1820
541 541
541 1181
541 1821
542 542
542 1182
542 1822
543 543
543 1183
543 1823
544 544
544 1184
544 1824
545 545
545 1185
545 1825
546 546
546 1186
546 1826
547 547
547 1187
547 1827
548 548
548 1188
548 1828
549 549
549 1189
549 1829
550 550
550 1190
550 1830
551 551
551 1191
551 1831
552 552
552 1192
552 1832
553 553
553 1193
553 1833
554 554
554 1194
554 1834
555 555
555 1195
555 1835
556 556
556 1196
556 1836
557 557
557 1197
557 1837
558 558
558 1198
558 1838
559 559
559 1199
559 1839
560 560
560 1200
560 1840
561 561
561 1201
561 1841
562 562
562 1202
562 1842
563 563
563 1203
563 1843
564 564
564 1204
564 1844
565 565
565 1205
565 1845
566 566
566 1206
566 1846
567 567
567 1207
567 1847
568 568
568 1208
568 1848
569 569
569 1209
569 1849
570 570
570 1210
570 1850
571 571
571 1211
571 1851
572 572
572 1212
572 1852
573 573
573 1213
573 1853
574 574
574 1214
574 1854
575 575
575 1215
575 1855
576 576
576 1216
576 1856
577 577
577 1217
577 1857
578 578
578 1218
578 1858
579 579
579 1219
579 1859
580 580
580 1220
580 1860
581 581
581 1221
581 1861
582 582
582 1222
582 1862
583 583
583 1223
583 1863
584 584
584 1224
584 1864
585 585
585 1225
585 1865
586 586
586 1226
586 1866
587 587
587 1227
587 1867
588 588
588 1228
588 1868
589 589
589 1229
589 1869
590 590
590 1230
590 1870
591 591
591 1231
591 1871
592 592
592 1232
592 1872
593 593
593 1233
593 1873
594 594
594 1234
594 1874
595 595
595 1235
595 1875
596 596
596 1236
596 1876
597 597
597 1237
597 1877
598 598
598 1238
598 1878
599 599
599 1239
599 1879
600 600
600 1240
600 1880
601 601
601 1241
601 1881
602 602
602 1242
602 1882
603 603
603 1243
603 1883
604 604
604 1244
604 1884
605 605
605 1245
605 1885
606 606
606 1246
606 1886
607 607
607 1247
607 1887
608 608
608 1248
608 1888
609 609
609 1249
609 1889
610 610
610 1250
610 1890
611 611
611 1251
611 1891
612 612
612 1252
612 1892
613 613
613 1253
613 1893
614 614
614 1254
614 1894
615 615
615 1255
615 1895
616 616
616 1256
616 1896
617 617
617 1257
617 1897
618 618
618 1258
618 1898
619 619
619 1259
619 1899
620 620
620 1260
620 1900
621 621
621 1261
621 1901
622 622
622 1262
622 1902
623 623
623 1263
623 1903
624 624
624 1264
624 1904
625 625
625 1265
625 1905
626 626
626 1266
626 1906
627 627
627 1267
627 1907
628 628
628 1268
628 1908
629 629
629 1269
629 1909
630 630
630 1270
630 1910
631 631
631 1271
631 1911
632 632
632 1272
632 1912
633 633
633 1273
633 1913
634 634
634 1274
634 1914
635 635
635 1275
635 1915
636 636
636 1276
636 1916
637 637
637 1277
637 1917
638 638
638 1278
638 1918
639 639
639 1279
639 1919
640 0
640 1152
640 1664
641 1
641 1153
641 1665
642 2
642 1154
642 1666
643 3
643 1155
643 1667
644 4
644 1156
644 1668
645 5
645 1157
645 1669
646 6
646 1158
646 1670
647 7
647 1159
647 1671
648 8
648 1160
648 1672
649 9
649 1161
649 1673
650 10
650 1162
650 1674
651 11
651 1163
651 1675
652 12
652 1164
652 1676
653 13
653 1165
653 1677
654 14
654 1166
654 1678
655 15
655 1167
655 1679
656 16
656 1168
656 1680
657 17
657 1169
657 1681
658 18
658 1170
658 1682
659 19
659 1171
659 1683
660 20
660 1172
660 1684
661 21
661 1173
661 1685
662 22
662 1174
662 1686
663 23
663 1175
663 1687
664 24
664 1176
664 1688
665 25
665 1177
665 1689
666 26
666 1178
666 1690
667 27
667 1179
667 1691
668 28
668 1180
668 1692
669 29
669 1181
669 1693
670 30
670 1182
670 1694
671 31
671 1183
671 1695
672 32
672 1184
672 1696
673 33
673 1185
673 1697
674 34
674 1186
674 1698
675 35
675 1187
675 1699
676 36
676 1188
676 1700
677 37
677 1189
677 1701
678 38
678 1190
678 1702
679 39
679 1191
679 1703
680 40
680 1192
680 1704
681 41
681 1193
681 1705
682 42
682 1194
682 1706
683 43
683 1195
683 1707
684 44
684 1196
684 1708
685 45
685 1197
685 1709
686 46
686 1198
686 1710
687 47
687 1199
687 1711
688 48
688 1200
688 1712
689 49
689 1201
689 1713
690 50
690 1202
690 1714
691 51
691 1203
691 1715
692 52
692 1204
692 1716
693 53
693 1205
693 1717
694 54
694 1206
694 1718
695 55
695 1207
695 1719
696 56
696 1208
696 1720
697 57
697 1209
697 1721
698 58
698 1210
698 1722
699 59
699 1211
699 1723
700 60
700 1212
700 1724
701 61
701 1213
701 1725
702 62
702 1214
702 1726
703 63
703 1215
703 1727
704 64
704 1216
704 1728
705 65
705 1217
705 1729
706 66
706 1218
706 1730
707 67
707 1219
707 1731
708 68
708 1220
708 1732
709 69
709 1221
709 1733
710 70
710 1222
710 1734
711 71
711 1223
711 1735
712 72
712 1224
712 1736
713 73
713 1225
713 1737
714 74
714 1226
714 1738
715 75
715 1227
715 1739
716 76
716 1228
716 1740
717 77
717 1229
717 1741
718 78
718 1230
718 1742
719 79
719 1231
719 1743
720 80
720 1232
720 1744
721 81
721 1233
721 1745
722 82
722 1234
722 1746
723 83
723 1235
723 1747
724 84
724 1236
724 1748
725 85
725 1237
725 1749
726 86
726 1238
726 1750
727 87
727 1239
727 1751
728 88
728 1240
728 1752
729 89
729 1241
729 1753
730 90
730 1242
730 1754
731 91
731 1243
731 1755
732 92
732 1244
732 1756
733 93
733 1245
733 1757
734 94
734 1246
734 1758
735 95
735 1247
735 1759
736 96
736 1248
736 1760
737 97
737 1249
737 1761
738 98
738 1250
738 1762
739 99
739 1251
739 1763
740 100
740 1252
740 1764
741 101
741 1253
741 1765
742 102
742 1254
742 1766
743 103
743 1255
743 1767
744 104
744 1256
744 1768
745 105
745 1257
745 1769
746 106
746 1258
746 1770
747 107
747 1259
747 1771
748 108
748 1260
748 1772
749 109
749 1261
749 1773
750 110
750 1262
750 1774
751 111
751 1263
751 1775
752 112
752 1264
752 1776
753 113
753 1265
753 1777
754 114
754 1266
754 1778
755 115
755 1267
755 1779
756 116
756 1268
756 1780
757 117
757 1269
757 1781
758 118
758 1270
758 1782
759 119
759 1271
759 1783
760 120
760 1272
760 1784
761 121
761 1273
761 1785
762 122
762 1274
762 1786
763 123
763 1275
763 1787
764 124
764 1276
764 1788
765 125
765 1277
765 1789
766 126
766 1278
766 1790
767 127
767 1279
767 1791
768 128
768 640
768 1792
769 129
769 641
769 1793
770 130
770 642
770 1794
771 131
771 643
771 1795
772 132
772 644
772 1796
773 133
773 645
773 1797
774 134
774 646
774 1798
775 135
775 647
775 1799
776 136
776 648
776 1800
777 137
777 649
777 1801
778 138
778 650
778 1802
779 139
779 651
779 1803
780 140
780 652
780 1804
781 141
781 653
781 1805
782 142
782 654
782 1806
783 143
783 655
783 1807
784 144
784 656
784 1808
785 145
785 657
785 1809
786 146
786 658
786 1810
787 147
787 659
787 1811
788 148
788 660
788 1812
789 149
789 661
789 1813
790 150
790 662
790 1814
791 151
791 663
791 1815
792 152
792 664
792 1816
793 153
793 665
793 1817
794 154
794 666
794 1818
795 155
795 667
795 1819
796 156
796 668
796 1820
797 157
797 669
797 1821
798 158
798 670
798 1822
799 159
799 671
799 1823
800 160
800 672
800 1824
801 161
801 673
801 1825
802 162
802 674
802 1826
803 163
803 675
803 1827
804 164
804 676
804 1828
805 165
805 677
805 1829
806 166
806 678
806 1830
807 167
807 679
807 1831
808 168
808 680
808 1832
809 169
809 681
809 1833
810 170
810 682
810 1834
811 171
811 683
811 1835
812 172
812 684
812 1836
813 173
813 685
813 1837
814 174
814 686
814 1838
815 175
815 687
815 1839
816 176
816 688
816 1840
817 177
817 689
817 1841
818 178
818 690
818 1842
819 179
819 691
819 1843
820 180
820 692
820 1844
821 181
821 693
821 1845
822 182
822 694
822 1846
823 183
823 695
823 1847
824 184
824 696
824 1848
825 185
825 697
825 1849
826 186
826 698
826 1850
827 187
827 699
827 1851
828 188
828 700
828 1852
829 189
829 701
829 1853
830 190
830 702
830 1854
831 191
831 703
831 1855
832 192
832 704
832 1856
833 193
833 705
833 1857
834 194
834 706
834 1858
835 195
835 707
835 1859
836 196
836 708
836 1860
837 197
837 709
837 1861
838 198
838 710
838 1862
839 199
839 711
839 1863
840 200
840 712
840 1864
841 201
841 713
841 1865
842 202
842 714
842 1866
843 203
843 715
843 1867
844 204
844 716
844 1868
845 205
845 717
845 1869
846 206
846 718
846 1870
847 207
847 719
847 1871
848 208
848 720
848 1872
849 209
849 721
849 1873
850 210
850 722
850 1874
851 211
851 723
851 1875
852 212
852 724
852 1876
853 213
853 725
853 1877
854 214
854 726
854 1878
855 215
855 727
855 1879
856 216
856 728
856 1880
857 217
857 729
857 1881
858 218
858 730
858 1882
859 219
859 731
859 1883
860 220
860 732
860 1884
861 221
861 733
861 1885
862 222
862 734
862 1886
863 223
863 735
863 1887
864 224
864 736
864 1888
865 225
865 737
865 1889
866 226
866 738
866 1890
867 227
867 739
867 1891
868 228
868 740
868 1892
869 229
869 741
869 1893
870 230
870 742
870 1894
871 231
871 743
871 1895
872 232
872 744
872 1896
873 233
873 745
873 1897
874 234
874 746
874 1898
875 235
875 747
875 1899
876 236
876 748
876 1900
877 237
877 749
877 1901
878 238
878 750
878 1902
879 239
879 751
879 1903
880 240
880 752
880 1904
881 241
881 753
881 1905
882 242
882 754
882 1906
883 243
883 755
883 1907
884 244
884 756
884 1908
885 245
885 757
885 1909
886 246
886 758
886 1910
887 247
887 759
887 1911
888 248
888 760
888 1912
889 249
889 761
889 1913
890 250
890 762
890 1914
891 251
891 763
891 1915
892 252
892 764
892 1916
893 253
893 765
893 1917
894 254
894 766
894 1918
895 255
895 767
895 1919
896 256
896 768
896 1280
897 257
897 769
897 1281
898 258
898 770
898 1282
899 259
899 771
899 1283
900 260
900 772
900 1284
901 261
901 773
901 1285
902 262
902 774
902 1286
903 263
903 775
903 1287
904 264
904 776
904 1288
905 265
905 777
905 1289
906 266
906 778
906 1290
907 267
907 779
907 1291
908 268
908 780
908 1292
909 269
909 781
909 1293
910 270
910 782
910 1294
911 271
911 783
911 1295
912 272
912 784
912 1296
913 273
913 785
913 1297
914 274
914 786
914 1298
915 275
915 787
915 1299
916 276
916 788
916 1300
917 277
917 789
917 1301
918 278
918 790
918 1302
919 279
919 791
919 1303
920 280
920 792
920 1304
921 281
921 793
921 1305
922 282
922 794
922 1306
923 283
923 795
923 1307
924 284
924 796
924 1308
925 285
925 797
925 1309
926 286
926 798
926 1310
927 287
927 799
927 1311
928 288
928 800
928 1312
929 289
929 801
929 1313
930 290
930 802
930 1314
931 291
931 803
931 1315
932 292
932 804
932 1316
933 293
933 805
933 1317
934 294
934 806
934 1318
935 295
935 807
935 1319
936 296
936 808
936 1320
937 297
937 809
937 1321
938 298
938 810
938 1322
939 299
939 811
939 1323
940 300
940 812
940 1324
941 301
941 813
941 1325
942 302
942 814
942 1326
943 303
943 815
943 1327
944 304
944 816
944 1328
945 305
945 817
945 1329
946 306
946 818
946 1330
947 307
947 819
947 1331
948 308
948 820
948 1332
949 309
949 821
949 1333
950 310
950 822
950 1334
951 311
951 823
951 1335
952 312
952 824
952 1336
953 313
953 825
953 1337
954 314
954 826
954 1338
955 315
955 827
955 1339
956 316
956 828
956 1340
957 317
957 829
957 1341
958 318
958 830
958 1342
959 319
959 831
959 1343
960 320
960 832
960 1344
961 321
961 833
961 1345
962 322
962 834
962 1346
963 323
963 835
963 1347
964 324
964 836
964 1348
965 325
965 837
965 1349
966 326
966 838
966 1350
967 327
967 839
967 1351
968 328
968 840
968 1352
969 329
969 841
969 1353
970 330
970 842
970 1354
971 331
971 843
971 1355
972 332
972 844
972 1356
973 333
973 845
973 1357
974 334
974 846
974 1358
975 335
975 847
975 1359
976 336
976 848
976 1360
977 337
977 849
977 1361
978 338
978 850
978 1362
979 339
979 851
979 1363
980 340
980 852
980 1364
981 341
981 853
981 1365
982 342
982 854
982 1366
983 343
983 855
983 1367
984 344
984 856
984 1368
985 345
985 857
985 1369
986 346
986 858
986 1370
987 347
987 859
987 1371
988 348
988 860
988 1372
989 349
989 861
989 1373
990 350
990 862
990 1374
991 351
991 863
991 1375
992 352
992 864
992 1376
993 353
993 865
993 1377
994 354
994 866
994 1378
995 355
995 867
995 1379
996 356
996 868
996 1380
997 357
997 869
997 1381
998 358
998 870
998 1382
999 359
999 871
999 1383
1000 360
1000 872
1000 1384
1001 361
1001 873
1001 1385
1002 362
1002 874
1002 1386
1003 363
1003 875
1003 1387
1004 364
1004 876
1004 1388
1005 365
1005 877
1005 1389
1006 366
1006 878
1006 1390
1007 367
1007 879
1007 1391
1008 368
1008 880
1008 1392
1009 369
1009 881
1009 1393
1010 370
1010 882
1010 1394
1011 371
1011 883
1011 1395
1012 372
1012 884
1012 1396
1013 373
1013 885
1013 1397
1014 374
1014 886
1014 1398
1015 375
1015 887
1015 1399
1016 376
1016 888
1016 1400
1017 377
1017 889
1017 1401
1018 378
1018 890
1018 1402
1019 379
1019 891
1019 1403
1020 380
1020 892
1020 1404
1021 381
1021 893
1021 1405
1022 382
1022 894
1022 1406
1023 383
1023 895
1023 1407
1024 384
1024 896
1024 1408
1025 385
1025 897
1025 1409
1026 386
1026 898
1026 1410
1027 387
1027 899
1027 1411
1028 388
1028 900
1028 1412
1029 389
1029 901
1029 1413
1030 390
1030 902
1030 1414
1031 391
1031 903
1031 1415
1032 392
1032 904
1032 1416
1033 393
1033 905
1033 1417
1034 394
1034 906
1034 1418
1035 395
1035 907
1035 1419
1036 396
1036 908
1036 1420
1037 397
1037 909
1037 1421
1038 398
1038 910
1038 1422
1039 399
1039 911
1039 1423
1040 400
1040 912
1040 1424
1041 401
1041 913
1041 1425
1042 402
1042 914
1042 1426
1043 403
1043 915
1043 1427
1044 404
1044 916
1044 1428
1045 405
1045 917
1045 1429
1046 406
1046 918
1046 1430
1047 407
1047 919
1047 1431
1048 408
1048 920
1048 1432
1049 409
1049 921
1049 1433
1050 410
1050 922
1050 1434
1051 411
1051 923
1051 1435
1052 412
1052 924
1052 1436
1053 413
1053 925
1053 1437
1054 414
1054 926
1054 1438
1055 415
1055 927
1055 1439
1056 416
1056 928
1056 1440
1057 417
1057 929
1057 1441
1058 418
1058 930
1058 1442
1059 419
1059 931
1059 1443
1060 420
1060 932
1060 1444
1061 421
1061 933
1061 1445
1062 422
1062 934
1062 1446
1063 423
1063 935
1063 1447
1064 424
1064 936
1064 1448
1065 425
1065 937
1065 1449
1066 426
1066 938
1066 1450
1067 427
1067 939
1067 1451
1068 428
1068 940
1068 1452
1069 429
1069 941
1069 1453
1070 430
1070 942
1070 1454
1071 431
1071 943
1071 1455
1072 432
1072 944
1072 1456
1073 433
1073 945
1073 1457
1074 434
1074 946
1074 1458
1075 435
1075 947
1075 1459
1076 436
1076 948
1076 1460
1077 437
1077 949
1077 1461
1078 438
1078 950
1078 1462
1079 439
1079 951
1079 1463
1080 440
1080 952
1080 1464
1081 441
1081 953
1081 1465
1082 442
1082 954
1082 1466
1083 443
1083 955
1083 1467
1084 444
1084 956
1084 1468
1085 445
1085 957
1085 1469
1086 446
1086 958
1086 1470
1087 447
1087 959
1087 1471
1088 448
1088 960
1088 1472
1089 449
1089 961
1089 1473
1090 450
1090 962
1090 1474
1091 451
1091 963
1091 1475
1092 452
1092 964
1092 1476
1093 453
1093 965
1093 1477
1094 454
1094 966
1094 1478
1095 455
1095 967
1095 1479
1096 456
1096 968
1096 1480
1097 457
1097 969
1097 1481
1098 458
1098 970
1098 1482
1099 459
1099 971
1099 1483
1100 460
1100 972
1100 1484
1101 461
1101 973
1101 1485
1102 462
1102 974
1102 1486
1103 463
1103 975
1103 1487
1104 464
1104 976
1104 1488
1105 465
1105 977
1105 1489
1106 466
1106 978
1106 1490
1107 467
1107 979
1107 1491
1108 468
1108 980
1108 1492
1109 469
1109 981
1109 1493
1110 470
1110 982
1110 1494
1111 471
1111 983
1111 1495
1112 472
1112 984
1112 1496
1113 473
1113 985
1113 1497
1114 474
1114 986
1114 1498
1115 475
1115 987
1115 1499
1116 476
1116 988
1116 1500
1117 477
1117 989
1117 1501
1118 478
1118 990
1118 1502
1119 479
1119 991
1119 1503
1120 480
1120 992
1120 1504
1121 481
1121 993
1121 1505
1122 482
1122 994
1122 1506
1123 483
1123 995
1123 1507
1124 484
1124 996
1124 1508
1125 485
1125 997
1125 1509
1126 486
1126 998
1126 1510
1127 487
1127 999
1127 1511
1128 488
1128 1000
1128 1512
1129 489
1129 1001
1129 1513
1130 490
1130 1002
1130 1514
1131 491
1131 1003
1131 1515
1132 492
1132 1004
1132 1516
1133 493
1133 1005
1133 1517
1134 494
1134 1006
1134 1518
1135 495
1135 1007
1135 1519
1136 496
1136 1008
1136 1520
1137 497
1137 1009
1137 1521
1138 498
1138 1010
1138 1522
1139 499
1139 1011
1139 1523
1140 500
1140 1012
1140 1524
1141 501
1141 1013
1141 1525
1142 502
1142 1014
1142 1526
1143 503
1143 1015
1143 1527
1144 504
1144 1016
1144 1528
1145 505
1145 1017
1145 1529
1146 506
1146 1018
1146 1530
1147 507
1147 1019
1147 1531
1148 508
1148 1020
1148 1532
1149 509
1149 1021
1149 1533
1150 510
1150 1022
1150 1534
1151 511
1151 1023
1151 1535
1152 512
1152 1024
1152 1536
1153 513
1153 1025
1153 1537
1154 514
1154 1026
1154 1538
1155 515
1155 1027
1155 1539
1156 516
1156 1028
1156 1540
1157 517
1157 1029
1157 1541
1158 518
1158 1030
1158 1542
1159 519
1159 1031
1159 1543
1160 520
1160 1032
1160 1544
1161 521
1161 1033
1161 1545
1162 522
1162 1034
1162 1546
1163 523
1163 1035
1163 1547
1164 524
1164 1036
1164 1548
1165 525
1165 1037
1165 1549
1166 526
1166 1038
1166 1550
1167 527
1167 1039
1167 1551
1168 528
1168 1040
1168 1552
1169 529
1169 1041
1169 1553
1170 530
1170 1042
1170 1554
1171 531
1171 1043
1171 1555
1172 532
1172 1044
1172 1556
1173 533
1173 1045
1173 1557
1174 534
1174 1046
1174 1558
1175 535
1175 1047
1175 1559
1176 536
1176 1048
1176 1560
1177 537
1177 1049
1177 1561
1178 538
1178 1050
1178 1562
1179 539
1179 1051
1179 1563
1180 540
1180 1052
1180 1564
1181 541
1181 1053
1181 1565
1182 542
1182 1054
1182 1566
1183 543
1183 1055
1183 1567
1184 544
1184 1056
1184 1568
1185 545
1185 1057
1185 1569
1186 546
1186 1058
1186 1570
1187 547
1187 1059
1187 1571
1188 548
1188 1060
1188 1572
1189 549
1189 1061
1189 1573
1190 550
1190 1062
1190 1574
1191 551
1191 1063
1191 1575
1192 552
1192 1064
1192 1576
1193 553
1193 1065
1193 1577
1194 554
1194 1066
1194 1578
1195 555
1195 1067
1195 1579
1196 556
1196 1068
1196 1580
1197 557
1197 1069
1197 1581
1198 558
1198 1070
1198 1582
1199 559
1199 1071
1199 1583
1200 560
1200 1072
1200 1584
1201 561
1201 1073
1201 1585
1202 562
1202 1074
1202 1586
1203 563
1203 1075
1203 1587
1204 564
1204 1076
1204 1588
1205 565
1205 1077
1205 1589
1206 566
1206 1078
1206 1590
1207 567
1207 1079
1207 1591
1208 568
1208 1080
1208 1592
1209 569
1209 1081
1209 1593
1210 570
1210 1082
1210 1594
1211 571
1211 1083
1211 1595
1212 572
1212 1084
1212 1596
1213 573
1213 1085
1213 1597
1214 574
1214 1086
1214 1598
1215 575
1215 1087
1215 1599
1216 576
1216 1088
1216 1600
1217 577
1217 1089
1217 1601
1218 578
1218 1090
1218 1602
1219 579
1219 1091
1219 1603
1220 580
1220 1092
1220 1604
1221 581
1221 1093
1221 1605
1222 582
1222 1094
1222 1606
1223 583
1223 1095
1223 1607
1224 584
1224 1096
1224 1608
1225 585
1225 1097
1225 1609
1226 586
1226 1098
1226 1610
1227 587
1227 1099
1227 1611
1228 588
1228 1100
1228 1612
1229 589
1229 1101
1229 1613
1230 590
1230 1102
1230 1614
1231 591
1231 1103
1231 1615
1232 592
1232 1104
1232 1616
1233 593
1233 1105
1233 1617
1234 594
1234 1106
1234 1618
1235 595
1235 1107
1235 1619
1236 596
1236 1108
1236 1620
1237 597
1237 1109
1237 1621
1238 598
1238 1110
1238 1622
1239 599
1239 1111
1239 1623
1240 600
1240 1112
1240 1624
1241 601
1241 1113
1241 1625
1242 602
1242 1114
1242 1626
1243 603
1243 1115
1243 1627
1244 604
1244 1116
1244 1628
1245 605
1245 1117
1245 1629
1246 606
1246 1118
1246 1630
1247 607
1247 1119
1247 1631
1248 608
1248 1120
1248 1632
1249 609
1249 1121
1249 1633
1250 610
1250 1122
1250 1634
1251 611
1251 1123
1251 1635
1252 612
1252 1124
1252 1636
1253 613
1253 1125
1253 1637
1254 614
1254 1126
1254 1638
1255 615
1255 1127
1255 1639
1256 616
1256 1128
1256 1640
1257 617
1257 1129
1257 1641
1258 618
1258 1130
1258 1642
1259 619
1259 1131
1259 1643
1260 620
1260 1132
1260 1644
1261 621
1261 1133
1261 1645
1262 622
1262 1134
1262 1646
1263 623
1263 1135
1263 1647
1264 624
1264 1136
1264 1648
1265 625
1265 1137
1265 1649
1266 626
1266 1138
1266 1650
1267 627
1267 1139
1267 1651
1268 628
1268 1140
1268 1652
1269 629
1269 1141
1269 1653
1270 630
1270 1142
1270 1654
1271 631
1271 1143
1271 1655
1272 632
1272 1144
1272 1656
1273 633
1273 1145
1273 1657
1274 634
1274 1146
1274 1658
1275 635
1275 1147
1275 1659
1276 636
1276 1148
1276 1660
1277 637
1277 1149
1277 1661
1278 638
1278 1150
1278 1662
1279 639
1279 1151
1279 1663
1280 0
1280 1024
1280 1408
1281 1
1281 1025
1281 1409
1282 2
1282 1026
1282 1410
1283 3
1283 1027
1283 1411
1284 4
1284 1028
1284 1412
1285 5
1285 1029
1285 1413
1286 6
1286 1030
1286 1414
1287 7
1287 1031
1287 1415
1288 8
1288 1032
1288 1416
1289 9
1289 1033
1289 1417
1290 10
1290 1034
1290 1418
1291 11
1291 1035
1291 1419
1292 12
1292 1036
1292 1420
1293 13
1293 1037
1293 1421
1294 14
1294 1038
1294 1422
1295 15
1295 1039
1295 1423
1296 16
1296 1040
1296 1424
1297 17
1297 1041
1297 1425
1298 18
1298 1042
1298 1426
1299 19
1299 1043
1299 1427
1300 20
1300 1044
1300 1428
1301 21
1301 1045
1301 1429
1302 22
1302 1046
1302 1430
1303 23
1303 1047
1303 1431
1304 24
1304 1048
1304 1432
1305 25
1305 1049
1305 1433
1306 26
1306 1050
1306 1434
1307 27
1307 1051
1307 1435
1308 28
1308 1052
1308 1436
1309 29
1309 1053
1309 1437
1310 30
1310 1054
1310 1438
1311 31
1311 1055
1311 1439
1312 32
1312 1056
1312 1440
1313 33
1313 1057
1313 1441
1314 34
1314 1058
1314 1442
1315 35
1315 1059
1315 1443
1316 36
1316 1060
1316 1444
1317 37
1317 1061
1317 1445
1318 38
1318 1062
1318 1446
1319 39
1319 1063
1319 1447
1320 40
1320 1064
1320 1448
1321 41
1321 1065
1321 1449
1322 42
1322 1066
1322 1450
1323 43
1323 1067
1323 1451
1324 44
1324 1068
1324 1452
1325 45
1325 1069
1325 1453
1326 46
1326 1070
1326 1454
1327 47
1327 1071
1327 1455
1328 48
1328 1072
1328 1456
1329 49
1329 1073
1329 1457
1330 50
1330 1074
1330 1458
1331 51
1331 1075
1331 1459
1332 52
1332 1076
1332 1460
1333 53
1333 1077
1333 1461
1334 54
1334 1078
1334 1462
1335 55
1335 1079
1335 1463
1336 56
1336 1080
1336 1464
1337 57
1337 1081
1337 1465
1338 58
1338 1082
1338 1466
1339 59
1339 1083
1339 1467
1340 60
1340 1084
1340 1468
1341 61
1341 1085
1341 1469
1342 62
1342 1086
1342 1470
1343 63
1343 1087
1343 1471
1344 64
1344 1088
1344 1472
1345 65
1345 1089
1345 1473
1346 66
1346 1090
1346 1474
1347 67
1347 1091
1347 1475
1348 68
1348 1092
1348 1476
1349 69
1349 1093
1349 1477
1350 70
1350 1094
1350 1478
1351 71
1351 1095
1351 1479
1352 72
1352 1096
1352 1480
1353 73
1353 1097
1353 1481
1354 74
1354 1098
1354 1482
1355 75
1355 1099
1355 1483
1356 76
1356 1100
1356 1484
1357 77
1357 1101
1357 1485
1358 78
1358 1102
1358 1486
1359 79
1359 1103
1359 1487
1360 80
1360 1104
1360 1488
1361 81
1361 1105
1361 1489
1362 82
1362 1106
1362 1490
1363 83
1363 1107
1363 1491
1364 84
1364 1108
1364 1492
1365 85
1365 1109
1365 1493
1366 86
1366 1110
1366 1494
1367 87
1367 1111
1367 1495
1368 88
1368 1112
1368 1496
1369 89
1369 1113
1369 1497
1370 90
1370 1114
1370 1498
1371 91
1371 1115
1371 1499
1372 92
1372 1116
1372 1500
1373 93
1373 1117
1373 1501
1374 94
1374 1118
1374 1502
1375 95
1375 1119
1375 1503
1376 96
1376 1120
1376 1504
1377 97
1377 1121
1377 1505
1378 98
1378 1122
1378 1506
1379 99
1379 1123
1379 1507
1380 100
1380 1124
1380 1508
1381 101
1381 1125
1381 1509
1382 102
1382 1126
1382 1510
1383 103
1383 1127
1383 1511
1384 104
1384 1128
1384 1512
1385 105
1385 1129
1385 1513
1386 106
1386 1130
1386 1514
1387 107
1387 1131
1387 1515
1388 108
1388 1132
1388 1516
1389 109
1389 1133
1389 1517
1390 110
1390 1134
1390 1518
1391 111
1391 1135
1391 1519
1392 112
1392 1136
1392 1520
1393 113
1393 1137
1393 1521
1394 114
1394 1138
1394 1522
1395 115
1395 1139
1395 1523
1396 116
1396 1140
1396 1524
1397 117
1397 1141
1397 1525
1398 118
1398 1142
1398 1526
1399 119
1399 1143
1399 1527
1400 120
1400 1144
1400 1528
1401 121
1401 1145
1401 1529
1402 122
1402 1146
1402 1530
1403 123
1403 1147
1403 1531
1404 124
1404 1148
1404 1532
1405 125
1405 1149
1405 1533
1406 126
1406 1150
1406 1534
1407 127
1407 1151
1407 1535
1408 128
1408 1152
1408 1536
1409 129
1409 1153
1409 1537
1410 130
1410 1154
1410 1538
1411 131
1411 1155
1411 1539
1412 132
1412 1156
1412 1540
1413 133
1413 1157
1413 1541
1414 134
1414 1158
1414 1542
1415 135
1415 1159
1415 1543
1416 136
1416 1160
1416 1544
1417 137
1417 1161
1417 1545
1418 138
1418 1162
1418 1546
1419 139
1419 1163
1419 1547
1420 140
1420 1164
1420 1548
1421 141
1421 1165
1421 1549
1422 142
1422 1166
1422 1550
1423 143
1423 1167
1423 1551
1424 144
1424 1168
1424 1552
1425 145
1425 1169
1425 1553
1426 146
1426 1170
1426 1554
1427 147
1427 1171
1427 1555
1428 148
1428 1172
1428 1556
1429 149
1429 1173
1429 1557
1430 150
1430 1174
1430 1558
1431 151
1431 1175
1431 1559
1432 152
1432 1176
1432 1560
1433 153
1433 1177
1433 1561
1434 154
1434 1178
1434 1562
1435 155
1435 1179
1435 1563
1436 156
1436 1180
1436 1564
1437 157
1437 1181
1437 1565
1438 158
1438 1182
1438 1566
1439 159
1439 1183
1439 1567
1440 160
1440 1184
1440 1568
1441 161
1441 1185
1441 1569
1442 162
1442 1186
1442 1570
1443 163
1443 1187
1443 1571
1444 164
1444 1188
1444 1572
1445 165
1445 1189
1445 1573
1446 166
1446 1190
1446 1574
1447 167
1447 1191
1447 1575
1448 168
1448 1192
1448 1576
1449 169
1449 1193
1449 1577
1450 170
1450 1194
1450 1578
1451 171
1451 1195
1451 1579
1452 172
1452 1196
1452 1580
1453 173
1453 1197
1453 1581
1454 174
1454 1198
1454 1582
1455 175
1455 1199
1455 1583
1456 176
1456 1200
1456 1584
1457 177
1457 1201
1457 1585
1458 178
1458 1202
1458 1586
1459 179
1459 1203
1459 1587
1460 180
1460 1204
1460 1588
1461 181
1461 1205
1461 1589
1462 182
1462 1206
1462 1590
1463 183
1463 1207
1463 1591
1464 184
1464 1208
1464 1592
1465 185
1465 1209
1465 1593
1466 186
1466 1210
1466 1594
1467 187
1467 1211
1467 1595
1468 188
1468 1212
1468 1596
1469 189
1469 1213
1469 1597
1470 190
1470 1214
1470 1598
1471 191
1471 1215
1471 1599
1472 192
1472 1216
1472 1600
1473 193
1473 1217
1473 1601
1474 194
1474 1218
1474 1602
1475 195
1475 1219
1475 1603
1476 196
1476 1220
1476 1604
1477 197
1477 1221
1477 1605
1478 198
1478 1222
1478 1606
1479 199
1479 1223
1479 1607
1480 200
1480 1224
1480 1608
1481 201
1481 1225
1481 1609
1482 202
1482 1226
1482 1610
1483 203
1483 1227
1483 1611
1484 204
1484 1228
1484 1612
1485 205
1485 1229
1485 1613
1486 206
1486 1230
1486 1614
1487 207
1487 1231
1487 1615
1488 208
1488 1232
1488 1616
1489 209
1489 1233
1489 1617
1490 210
1490 1234
1490 1618
1491 211
1491 1235
1491 1619
1492 212
1492 1236
1492 1620
1493 213
1493 1237
1493 1621
1494 214
1494 1238
1494 1622
1495 215
1495 1239
1495 1623
1496 216
1496 1240
1496 1624
1497 217
1497 1241
1497 1625
1498 218
1498 1242
1498 1626
1499 219
1499 1243
1499 1627
1500 220
1500 1244
1500 1628
1501 221
1501 1245
1501 1629
1502 222
1502 1246
1502 1630
1503 223
1503 1247
1503 1631
1504 224
1504 1248
1504 1632
1505 225
1505 1249
1505 1633
1506 226
1506 1250
1506 1634
1507 227
1507 1251
1507 1635
1508 228
1508 1252
1508 1636
1509 229
1509 1253
1509 1637
1510 230
1510 1254
1510 1638
1511 231
1511 1255
1511 1639
1512 232
1512 1256
1512 1640
1513 233
1513 1257
1513 1641
1514 234
1514 1258
1514 1642
1515 235
1515 1259
1515 1643
1516 236
1516 1260
1516 1644
1517 237
1517 1261
1517 1645
1518 238
1518 1262
1518 1646
1519 239
1519 1263
1519 1647
1520 240
1520 1264
1520 1648
1521 241
1521 1265
1521 1649
1522 242
1522 1266
1522 1650
1523 243
1523 1267
1523 1651
1524 244
1524 1268
1524 1652
1525 245
1525 1269
1525 1653
1526 246
1526 1270
1526 1654
1527 247
1527 1271
1527 1655
1528 248
1528 1272
1528 1656
1529 249
1529 1273
1529 1657
1530 250
1530 1274
1530 1658
1531 251
1531 1275
1531 1659
1532 252
1532 1276
1532 1660
1533 253
1533 1277
1533 1661
1534 254
1534 1278
1534 1662
1535 255
1535 1279
1535 1663
1536 256
1536 640
1536 1664
1537 257
1537 641
1537 1665
1538 258
1538 642
1538 1666
1539 259
1539 643
1539 1667
1540 260
1540 644
1540 1668
1541 261
1541 645
1541 1669
1542 262
1542 646
1542 1670
1543 263
1543 647
1543 1671
1544 264
1544 648
1544 1672
1545 265
1545 649
1545 1673
1546 266
1546 650
1546 1674
1547 267
1547 651
1547 1675
1548 268
1548 652
1548 1676
1549 269
1549 653
1549 1677
1550 270
1550 654
1550 1678
1551 271
1551 655
1551 1679
1552 272
1552 656
1552 1680
1553 273
1553 657
1553 1681
1554 274
1554 658
1554 1682
1555 275
1555 659
1555 1683
1556 276
1556 660
1556 1684
1557 277
1557 661
1557 1685
1558 278
1558 662
1558 1686
1559 279
1559 663
1559 1687
1560 280
1560 664
1560 1688
1561 281
1561 665
1561 1689
1562 282
1562 666
1562 1690
1563 283
1563 667
1563 1691
1564 284
1564 668
1564 1692
1565 285
1565 669
1565 1693
1566 286
1566 670
1566 1694
1567 287
1567 671
1567 1695
1568 288
1568 672
1568 1696
1569 289
1569 673
1569 1697
1570 290
1570 674
1570 1698
1571 291
1571 675
1571 1699
1572 292
1572 676
1572 1700
1573 293
1573 677
1573 1701
1574 294
1574 678
1574 1702
1575 295
1575 679
1575 1703
1576 296
1576 680
1576 1704
1577 297
1577 681
1577 1705
1578 298
1578 682
1578 1706
1579 299
1579 683
1579 1707
1580 300
1580 684
1580 1708
1581 301
1581 685
1581 1709
1582 302
1582 686
1582 1710
1583 303
1583 687
1583 1711
1584 304
1584 688
1584 1712
1585 305
1585 689
1585 1713
1586 306
1586 690
1586 1714
1587 307
1587 691
1587 1715
1588 308
1588 692
1588 1716
1589 309
1589 693
1589 1717
1590 310
1590 694
1590 1718
1591 311
1591 695
1591 1719
1592 312
1592 696
1592 1720
1593 313
1593 697
1593 1721
1594 314
1594 698
1594 1722
1595 315
1595 699
1595 1723
1596 316
1596 700
1596 1724
1597 317
1597 701
1597 1725
1598 318
1598 702
1598 1726
1599 319
1599 703
1599 1727
1600 320
1600 704
1600 1728
1601 321
1601 705
1601 1729
1602 322
1602 706
1602 1730
1603 323
1603 707
1603 1731
1604 324
1604 708
1604 1732
1605 325
1605 709
1605 1733
1606 326
1606 710
1606 1734
1607 327
1607 711
1607 1735
1608 328
1608 712
1608 1736
1609 329
1609 713
1609 1737
1610 330
1610 714
1610 1738
1611 331
1611 715
1611 1739
1612 332
1612 716
1612 1740
1613 333
1613 717
1613 1741
1614 334
1614 718
1614 1742
1615 335
1615 719
1615 1743
1616 336
1616 720
1616 1744
1617 337
1617 721
1617 1745
1618 338
1618 722
1618 1746
1619 339
1619 723
1619 1747
1620 340
1620 724
1620 1748
1621 341
1621 725
1621 1749
1622 342
1622 726
1622 1750
1623 343
1623 727
1623 1751
1624 344
1624 728
1624 1752
1625 345
1625 729
1625 1753
1626 346
1626 730
1626 1754
1627 347
1627 731
1627 1755
1628 348
1628 732
1628 1756
1629 349
1629 733
1629 1757
1630 350
1630 734
1630 1758
1631 351
1631 735
1631 1759
1632 352
1632 736
1632 1760
1633 353
1633 737
1633 1761
1634 354
1634 738
1634 1762
1635 355
1635 739
1635 1763
1636 356
1636 740
1636 1764
1637 357
1637 741
1637 1765
1638 358
1638 742
1638 1766
1639 359
1639 743
1639 1767
1640 360
1640 744
1640 1768
1641 361
1641 745
1641 1769
1642 362
1642 746
1642 1770
1643 363
1643 747
1643 1771
1644 364
1644 748
1644 1772
1645 365
1645 749
1645 1773
1646 366
1646 750
1646 1774
1647 367
1647 751
1647 1775
1648 368
1648 752
1648 1776
1649 369
1649 753
1649 1777
1650 370
1650 754
1650 1778
1651 371
1651 755
1651 1779
1652 372
1652 756
1652 1780
1653 373
1653 757
1653 1781
1654 374
1654 758
1654 1782
1655 375
1655 759
1655 1783
1656 376
1656 760
1656 1784
1657 377
1657 761
1657 1785
1658 378
1658 762
1658 1786
1659 379
1659 763
1659 1787
1660 380
1660 764
1660 1788
1661 381
1661 765
1661 1789
1662 382
1662 766
1662 1790
1663 383
1663 767
1663 1791
1664 384
1664 768
1664 1792
1665 385
1665 769
1665 1793
1666 386
1666 770
1666 1794
1667 387
1667 771
1667 1795
1668 388
1668 772
1668 1796
1669 389
1669 773
1669 1797
1670 390
1670 774
1670 1798
1671 391
1671 775
1671 1799
1672 392
1672 776
1672 1800
1673 393
1673 777
1673 1801
1674 394
1674 778
1674 1802
1675 395
1675 779
1675 1803
1676 396
1676 780
1676 1804
1677 397
1677 781
1677 1805
1678 398
1678 782
1678 1806
1679 399
1679 783
1679 1807
1680 400
1680 784
1680 1808
1681 401
1681 785
1681 1809
1682 402
1682 786
1682 1810
1683 403
1683 787
1683 1811
1684 404
1684 788
1684 1812
1685 405
1685 789
1685 1813
1686 406
1686 790
1686 1814
1687 407
1687 791
1687 1815
1688 408
1688 792
1688 1816
1689 409
1689 793
1689 1817
1690 410
1690 794
1690 1818
1691 411
1691 795
1691 1819
1692 412
1692 796
1692 1820
1693 413
1693 797
1693 1821
1694 414
1694 798
1694 1822
1695 415
1695 799
1695 1823
1696 416
1696 800
1696 1824
1697 417
1697 801
1697 1825
1698 418
1698 802
1698 1826
1699 419
1699 803
1699 1827
1700 420
1700 804
1700 1828
1701 421
1701 805
1701 1829
1702 422
1702 806
1702 1830
1703 423
1703 807
1703 1831
1704 424
1704 808
1704 1832
1705 425
1705 809
1705 1833
1706 426
1706 810
1706 1834
1707 427
1707 811
1707 1835
1708 428
1708 812
1708 1836
1709 429
1709 813
1709 1837
1710 430
1710 814
1710 1838
1711 431
1711 815
1711 1839
1712 432
1712 816
1712 1840
1713 433
1713 817
1713 1841
1714 434
1714 818
1714 1842
1715 435
1715 819
1715 1843
1716 436
1716 820
1716 1844
1717 437
1717 821
1717 1845
1718 438
1718 822
1718 1846
1719 439
1719 823
1719 1847
1720 440
1720 824
1720 1848
1721 441
1721 825
1721 1849
1722 442
1722 826
1722 1850
1723 443
1723 827
1723 1851
1724 444
1724 828
1724 1852
1725 445
1725 829
1725 1853
1726 446
1726 830
1726 1854
1727 447
1727 831
1727 1855
1728 448
1728 832
1728 1856
1729 449
1729 833
1729 1857
1730 450
1730 834
1730 1858
1731 451
1731 835
1731 1859
1732 452
1732 836
1732 1860
1733 453
1733 837
1733 1861
1734 454
1734 838
1734 1862
1735 455
1735 839
1735 1863
1736 456
1736 840
1736 1864
1737 457
1737 841
1737 1865
1738 458
1738 842
1738 1866
1739 459
1739 843
1739 1867
1740 460
1740 844
1740 1868
1741 461
1741 845
1741 1869
1742 462
1742 846
1742 1870
1743 463
1743 847
1743 1871
1744 464
1744 848
1744 1872
1745 465
1745 849
1745 1873
1746 466
1746 850
1746 1874
1747 467
1747 851
1747 1875
1748 468
1748 852
1748 1876
1749 469
1749 853
1749 1877
1750 470
1750 854
1750 1878
1751 471
1751 855
1751 1879
1752 472
1752 856
1752 1880
1753 473
1753 857
1753 1881
1754 474
1754 858
1754 1882
1755 475
1755 859
1755 1883
1756 476
1756 860
1756 1884
1757 477
1757 861
1757 1885
1758 478
1758 862
1758 1886
1759 479
1759 863
1759 1887
1760 480
1760 864
1760 1888
1761 481
1761 865
1761 1889
1762 482
1762 866
1762 1890
1763 483
1763 867
1763 1891
1764 484
1764 868
1764 1892
1765 485
1765 869
1765 1893
1766 486
1766 870
1766 1894
1767 487
1767 871
1767 1895
1768 488
1768 872
1768 1896
1769 489
1769 873
1769 1897
1770 490
1770 874
1770 1898
1771 491
1771 875
1771 1899
1772 492
1772 876
1772 1900
1773 493
1773 877
1773 1901
1774 494
1774 878
1774 1902
1775 495
1775 879
1775 1903
1776 496
1776 880
1776 1904
1777 497
1777 881
1777 1905
1778 498
1778 882
1778 1906
1779 499
1779 883
1779 1907
1780 500
1780 884
1780 1908
1781 501
1781 885
1781 1909
1782 502
1782 886
1782 1910
1783 503
1783 887
1783 1911
1784 504
1784 888
1784 1912
1785 505
1785 889
1785 1913
1786 506
1786 890
1786 1914
1787 507
1787 891
1787 1915
1788 508
1788 892
1788 1916
1789 509
1789 893
1789 1917
1790 510
1790 894
1790 1918
1791 511
1791 895
1791 1919
1792 512
1792 896
1792 1280
1793 513
1793 897
1793 1281
1794 514
1794 898
1794 1282
1795 515
1795 899
1795 1283
1796 516
1796 900
1796 1284
1797 517
1797 901
1797 1285
1798 518
1798 902
1798 1286
1799 519
1799 903
1799 1287
1800 520
1800 904
1800 1288
1801 521
1801 905
1801 1289
1802 522
1802 906
1802 1290
1803 523
1803 907
1803 1291
1804 524
1804 908
1804 1292
1805 525
1805 909
1805 1293
1806 526
1806 910
1806 1294
1807 527
1807 911
1807 1295
1808 528
1808 912
1808 1296
1809 529
1809 913
1809 1297
1810 530
1810 914
1810 1298
1811 531
1811 915
1811 1299
1812 532
1812 916
1812 1300
1813 533
1813 917
1813 1301
1814 534
1814 918
1814 1302
1815 535
1815 919
1815 1303
1816 536
1816 920
1816 1304
1817 537
1817 921
1817 1305
1818 538
1818 922
1818 1306
1819 539
1819 923
1819 1307
1820 540
1820 924
1820 1308
1821 541
1821 925
1821 1309
1822 542
1822 926
1822 1310
1823 543
1823 927
1823 1311
1824 544
1824 928
1824 1312
1825 545
1825 929
1825 1313
1826 546
1826 930
1826 1314
1827 547
1827 931
1827 1315
1828 548
1828 932
1828 1316
1829 549
1829 933
1829 1317
1830 550
1830 934
1830 1318
1831 551
1831 935
1831 1319
1832 552
1832 936
1832 1320
1833 553
1833 937
1833 1321
1834 554
1834 938
1834 1322
1835 555
1835 939
1835 1323
1836 556
1836 940
1836 1324
1837 557
1837 941
1837 1325
1838 558
1838 942
1838 1326
1839 559
1839 943
1839 1327
1840 560
1840 944
1840 1328
1841 561
1841 945
1841 1329
1842 562
1842 946
1842 1330
1843 563
1843 947
1843 1331
1844 564
1844 948
1844 1332
1845 565
1845 949
1845 1333
1846 566
1846 950
1846 1334
1847 567
1847 951
1847 1335
1848 568
1848 952
1848 1336
1849 569
1849 953
1849 1337
1850 570
1850 954
1850 1338
1851 571
1851 955
1851 1339
1852 572
1852 956
1852 1340
1853 573
1853 957
1853 1341
1854 574
1854 958
1854 1342
1855 575
1855 959
1855 1343
1856 576
1856 960
1856 1344
1857 577
1857 961
1857 1345
1858 578
1858 962
1858 1346
1859 579
1859 963
1859 1347
1860 580
1860 964
1860 1348
1861 581
1861 965
1861 1349
1862 582
1862 966
1862 1350
1863 583
1863 967
1863 1351
1864 584
1864 968
1864 1352
1865 585
1865 969
1865 1353
1866 586
1866 970
1866 1354
1867 587
1867 971
1867 1355
1868 588
1868 972
1868 1356
1869 589
1869 973
1869 1357
1870 590
1870 974
1870 1358
1871 591
1871 975
1871 1359
1872 592
1872 976
1872 1360
1873 593
1873 977
1873 1361
1874 594
1874 978
1874 1362
1875 595
1875 979
1875 1363
1876 596
1876 980
1876 1364
1877 597
1877 981
1877 1365
1878 598
1878 982
1878 1366
1879 599
1879 983
1879 1367
1880 600
1880 984
1880 1368
1881 601
1881 985
1881 1369
1882 602
1882 986
1882 1370
1883 603
1883 987
1883 1371
1884 604
1884 988
1884 1372
1885 605
1885 989
1885 1373
1886 606
1886 990
1886 1374
1887 607
1887 991
1887 1375
1888 608
1888 992
1888 1376
1889 609
1889 993
1889 1377
1890 610
1890 994
1890 1378
1891 611
1891 995
1891 1379
1892 612
1892 996
1892 1380
1893 613
1893 997
1893 1381
1894 614
1894 998
1894 1382
1895 615
1895 999
1895 1383
1896 616
1896 1000
1896 1384
1897 617
1897 1001
1897 1385
1898 618
1898 1002
1898 1386
1899 619
1899 1003
1899 1387
1900 620
1900 1004
1900 1388
1901 621
1901 1005
1901 1389
1902 622
1902 1006
1902 1390
1903 623
1903 1007
1903 1391
1904 624
1904 1008
1904 1392
1905 625
1905 1009
1905 1393
1906 626
1906 1010
1906 1394
1907 627
1907 1011
1907 1395
1908 628
1908 1012
1908 1396
1909 629
1909 1013
1909 1397
1910 630
1910 1014
1910 1398
1911 631
1911 1015
1911 1399
1912 632
1912 1016
1912 1400
1913 633
1913 1017
1913 1401
1914 634
1914 1018
1914 1402
1915 635
1915 1019
1915 1403
1916 636
1916 1020
1916 1404
1917 637
1917 1021
1917 1405
1918 638
1918 1022
1918 1406
1919 639
1919 1023
1919 1407
1920 0
1920 896
1920 1792
1921 1
1921 897
1921 1793
1922 2
1922 898
1922 1794
1923 3
1923 899
1923 1795
1924 4
1924 900
1924 1796
1925 5
1925 901
1925 1797
1926 6
1926 902
1926 1798
1927 7
1927 903
1927 1799
1928 8
1928 904
1928 1800
1929 9
1929 905
1929 1801
1930 10
1930 906
1930 1802
1931 11
1931 907
1931 1803
1932 12
1932 908
1932 1804
1933 13
1933 909
1933 1805
1934 14
1934 910
1934 1806
1935 15
1935 911
1935 1807
1936 16
1936 912
1936 1808
1937 17
1937 913
1937 1809
1938 18
1938 914
1938 1810
1939 19
1939 915
1939 1811
1940 20
1940 916
1940 1812
1941 21
1941 917
1941 1813
1942 22
1942 918
1942 1814
1943 23
1943 919
1943 1815
1944 24
1944 920
1944 1816
1945 25
1945 921
1945 1817
1946 26
1946 922
1946 1818
1947 27
1947 923
1947 1819
1948 28
1948 924
1948 1820
1949 29
1949 925
1949 1821
1950 30
1950 926
1950 1822
1951 31
1951 927
1951 1823
1952 32
1952 928
1952 1824
1953 33
1953 929
1953 1825
1954 34
1954 930
1954 1826
1955 35
1955 931
1955 1827
1956 36
1956 932
1956 1828
1957 37
1957 933
1957 1829
1958 38
1958 934
1958 1830
1959 39
1959 935
1959 1831
1960 40
1960 936
1960 1832
1961 41
1961 937
1961 1833
1962 42
1962 938
1962 1834
1963 43
1963 939
1963 1835
1964 44
1964 940
1964 1836
1965 45
1965 941
1965 1837
1966 46
1966 942
1966 1838
1967 47
1967 943
1967 1839
1968 48
1968 944
1968 1840
1969 49
1969 945
1969 1841
1970 50
1970 946
1970 1842
1971 51
1971 947
1971 1843
1972 52
1972 948
1972 1844
1973 53
1973 949
1973 1845
1974 54
1974 950
1974 1846
1975 55
1975 951
1975 1847
1976 56
1976 952
1976 1848
1977 57
1977 953
1977 1849
1978 58
1978 954
1978 1850
1979 59
1979 955
1979 1851
1980 60
1980 956
1980 1852
1981 61
1981 957
1981 1853
1982 62
1982 958
1982 1854
1983 63
1983 959
1983 1855
1984 64
1984 960
1984 1856
1985 65
1985 961
1985 1857
1986 66
1986 962
1986 1858
1987 67
1987 963
1987 1859
1988 68
1988 964
1988 1860
1989 69
1989 965
1989 1861
1990 70
1990 966
1990 1862
1991 71
1991 967
1991 1863
1992 72
1992 968
1992 1864
1993 73
1993 969
1993 1865
1994 74
1994 970
1994 1866
1995 75
1995 971
1995 1867
1996 76
1996 972
1996 1868
1997 77
1997 973
1997 1869
1998 78
1998 974
1998 1870
1999 79
1999 975
1999 1871
2000 80
2000 976
2000 1872
2001 81
2001 977
2001 1873
2002 82
2002 978
2002 1874
2003 83
2003 979
2003 1875
2004 84
2004 980
2004 1876
2005 85
2005 981
2005 1877
2006 86
2006 982
2006 1878
2007 87
2007 983
2007 1879
2008 88
2008 984
2008 1880
2009 89
2009 985
2009 1881
2010 90
2010 986
2010 1882
2011 91
2011 987
2011 1883
2012 92
2012 988
2012 1884
2013 93
2013 989
2013 1885
2014 94
2014 990
2014 1886
2015 95
2015 991
2015 1887
2016 96
2016 992
2016 1888
2017 97
2017 993
2017 1889
2018 98
2018 994
2018 1890
2019 99
2019 995
2019 1891
2020 100
2020 996
2020 1892
2021 101
2021 997
2021 1893
2022 102
2022 998
2022 1894
2023 103
2023 999
2023 1895
2024 104
2024 1000
2024 1896
2025 105
2025 1001
2025 1897
2026 106
2026 1002
2026 1898
2027 107
2027 1003
2027 1899
2028 108
2028 1004
2028 1900
2029 109
2029 1005
2029 1901
2030 110
2030 1006
2030 1902
2031 111
2031 1007
2031 1903
2032 112
2032 1008
2032 1904
2033 113
2033 1009
2033 1905
2034 114
2034 1010
2034 1906
2035 115
2035 1011
2035 1907
2036 116
2036 1012
2036 1908
2037 117
2037 1013
2037 1909
2038 118
2038 1014
2038 1910
2039 119
2039 1015
2039 1911
2040 120
2040 1016
2040 1912
2041 121
2041 1017
2041 1913
2042 122
2042 1018
2042 1914
2043 123
2043 1019
2043 1915
2044 124
2044 1020
2044 1916
2045 125
2045 1021
2045 1917
2046 126
2046 1022
2046 1918
2047 127
2047 1023
2047 1919
2048 128
2048 1024
2048 1280
2049 129
2049 1025
2049 1281
2050 130
2050 1026
2050 1282
2051 131
2051 1027
2051 1283
2052 132
2052 1028
2052 1284
2053 133
2053 1029
2053 1285
2054 134
2054 1030
2054 1286
2055 135
2055 1031
2055 1287
2056 136
2056 1032
2056 1288
2057 137
2057 1033
2057 1289
2058 138
2058 1034
2058 1290
2059 139
2059 1035
2059 1291
2060 140
2060 1036
2060 1292
2061 141
2061 1037
2061 1293
2062 142
2062 1038
2062 1294
2063 143
2063 1039
2063 1295
2064 144
2064 1040
2064 1296
2065 145
2065 1041
2065 1297
2066 146
2066 1042
2066 1298
2067 147
2067 1043
2067 1299
2068 148
2068 1044
2068 1300
2069 149
2069 1045
2069 1301
2070 150
2070 1046
2070 1302
2071 151
2071 1047
2071 1303
2072 152
2072 1048
2072 1304
2073 153
2073 1049
2073 1305
2074 154
2074 1050
2074 1306
2075 155
2075 1051
2075 1307
2076 156
2076 1052
2076 1308
2077 157
2077 1053
2077 1309
2078 158
2078 1054
2078 1310
2079 159
2079 1055
2079 1311
2080 160
2080 1056
2080 1312
2081 161
2081 1057
2081 1313
2082 162
2082 1058
2082 1314
2083 163
2083 1059
2083 1315
2084 164
2084 1060
2084 1316
2085 165
2085 1061
2085 1317
2086 166
2086 1062
2086 1318
2087 167
2087 1063
2087 1319
2088 168
2088 1064
2088 1320
2089 169
2089 1065
2089 1321
2090 170
2090 1066
2090 1322
2091 171
2091 1067
2091 1323
2092 172
2092 1068
2092 1324
2093 173
2093 1069
2093 1325
2094 174
2094 1070
2094 1326
2095 175
2095 1071
2095 1327
2096 176
2096 1072
2096 1328
2097 177
2097 1073
2097 1329
2098 178
2098 1074
2098 1330
2099 179
2099 1075
2099 1331
2100 180
2100 1076
2100 1332
2101 181
2101 1077
2101 1333
2102 182
2102 1078
2102 1334
2103 183
2103 1079
2103 1335
2104 184
2104 1080
2104 1336
2105 185
2105 1081
2105 1337
2106 186
2106 1082
2106 1338
2107 187
2107 1083
2107 1339
2108 188
2108 1084
2108 1340
2109 189
2109 1085
2109 1341
2110 190
2110 1086
2110 1342
2111 191
2111 1087
2111 1343
2112 192
2112 1088
2112 1344
2113 193
2113 1089
2113 1345
2114 194
2114 1090
2114 1346
2115 195
2115 1091
2115 1347
2116 196
2116 1092
2116 1348
2117 197
2117 1093
2117 1349
2118 198
2118 1094
2118 1350
2119 199
2119 1095
2119 1351
2120 200
2120 1096
2120 1352
2121 201
2121 1097
2121 1353
2122 202
2122 1098
2122 1354
2123 203
2123 1099
2123 1355
2124 204
2124 1100
2124 1356
2125 205
2125 1101
2125 1357
2126 206
2126 1102
2126 1358
2127 207
2127 1103
2127 1359
2128 208
2128 1104
2128 1360
2129 209
2129 1105
2129 1361
2130 210
2130 1106
2130 1362
2131 211
2131 1107
2131 1363
2132 212
2132 1108
2132 1364
2133 213
2133 1109
2133 1365
2134 214
2134 1110
2134 1366
2135 215
2135 1111
2135 1367
2136 216
2136 1112
2136 1368
2137 217
2137 1113
2137 1369
2138 218
2138 1114
2138 1370
2139 219
2139 1115
2139 1371
2140 220
2140 1116
2140 1372
2141 221
2141 1117
2141 1373
2142 222
2142 1118
2142 1374
2143 223
2143 1119
2143 1375
2144 224
2144 1120
2144 1376
2145 225
2145 1121
2145 1377
2146 226
2146 1122
2146 1378
2147 227
2147 1123
2147 1379
2148 228
2148 1124
2148 1380
2149 229
2149 1125
2149 1381
2150 230
2150 1126
2150 1382
2151 231
2151 1127
2151 1383
2152 232
2152 1128
2152 1384
2153 233
2153 1129
2153 1385
2154 234
2154 1130
2154 1386
2155 235
2155 1131
2155 1387
2156 236
2156 1132
2156 1388
2157 237
2157 1133
2157 1389
2158 238
2158 1134
2158 1390
2159 239
2159 1135
2159 1391
2160 240
2160 1136
2160 1392
2161 241
2161 1137
2161 1393
2162 242
2162 1138
2162 1394
2163 243
2163 1139
2163 1395
2164 244
2164 1140
2164 1396
2165 245
2165 1141
2165 1397
2166 246
2166 1142
2166 1398
2167 247
2167 1143
2167 1399
2168 248
2168 1144
2168 1400
2169 249
2169 1145
2169 1401
2170 250
2170 1146
2170 1402
2171 251
2171 1147
2171 1403
2172 252
2172 1148
2172 1404
2173 253
2173 1149
2173 1405
2174 254
2174 1150
2174 1406
2175 255
2175 1151
2175 1407
2176 256
2176 1152
2176 1408
2177 257
2177 1153
2177 1409
2178 258
2178 1154
2178 1410
2179 259
2179 1155
2179 1411
2180 260
2180 1156
2180 1412
2181 261
2181 1157
2181 1413
2182 262
2182 1158
2182 1414
2183 263
2183 1159
2183 1415
2184 264
2184 1160
2184 1416
2185 265
2185 1161
2185 1417
2186 266
2186 1162
2186 1418
2187 267
2187 1163
2187 1419
2188 268
2188 1164
2188 1420
2189 269
2189 1165
2189 1421
2190 270
2190 1166
2190 1422
2191 271
2191 1167
2191 1423
2192 272
2192 1168
2192 1424
2193 273
2193 1169
2193 1425
2194 274
2194 1170
2194 1426
2195 275
2195 1171
2195 1427
2196 276
2196 1172
2196 1428
2197 277
2197 1173
2197 1429
2198 278
2198 1174
2198 1430
2199 279
2199 1175
2199 1431
2200 280
2200 1176
2200 1432
2201 281
2201 1177
2201 1433
2202 282
2202 1178
2202 1434
2203 283
2203 1179
2203 1435
2204 284
2204 1180
2204 1436
2205 285
2205 1181
2205 1437
2206 286
2206 1182
2206 1438
2207 287
2207 1183
2207 1439
2208 288
2208 1184
2208 1440
2209 289
2209 1185
2209 1441
2210 290
2210 1186
2210 1442
2211 291
2211 1187
2211 1443
2212 292
2212 1188
2212 1444
2213 293
2213 1189
2213 1445
2214 294
2214 1190
2214 1446
2215 295
2215 1191
2215 1447
2216 296
2216 1192
2216 1448
2217 297
2217 1193
2217 1449
2218 298
2218 1194
2218 1450
2219 299
2219 1195
2219 1451
2220 300
2220 1196
2220 1452
2221 301
2221 1197
2221 1453
2222 302
2222 1198
2222 1454
2223 303
2223 1199
2223 1455
2224 304
2224 1200
2224 1456
2225 305
2225 1201
2225 1457
2226 306
2226 1202
2226 1458
2227 307
2227 1203
2227 1459
2228 308
2228 1204
2228 1460
2229 309
2229 1205
2229 1461
2230 310
2230 1206
2230 1462
2231 311
2231 1207
2231 1463
2232 312
2232 1208
2232 1464
2233 313
2233 1209
2233 1465
2234 314
2234 1210
2234 1466
2235 315
2235 1211
2235 1467
2236 316
2236 1212
2236 1468
2237 317
2237 1213
2237 1469
2238 318
2238 1214
2238 1470
2239 319
2239 1215
2239 1471
2240 320
2240 1216
2240 1472
2241 321
2241 1217
2241 1473
2242 322
2242 1218
2242 1474
2243 323
2243 1219
2243 1475
2244 324
2244 1220
2244 1476
2245 325
2245 1221
2245 1477
2246 326
2246 1222
2246 1478
2247 327
2247 1223
2247 1479
2248 328
2248 1224
2248 1480
2249 329
2249 1225
2249 1481
2250 330
2250 1226
2250 1482
2251 331
2251 1227
2251 1483
2252 332
2252 1228
2252 1484
2253 333
2253 1229
2253 1485
2254 334
2254 1230
2254 1486
2255 335
2255 1231
2255 1487
2256 336
2256 1232
2256 1488
2257 337
2257 1233
2257 1489
2258 338
2258 1234
2258 1490
2259 339
2259 1235
2259 1491
2260 340
2260 1236
2260 1492
2261 341
2261 1237
2261 1493
2262 342
2262 1238
2262 1494
2263 343
2263 1239
2263 1495
2264 344
2264 1240
2264 1496
2265 345
2265 1241
2265 1497
2266 346
2266 1242
2266 1498
2267 347
2267 1243
2267 1499
2268 348
2268 1244
2268 1500
2269 349
2269 1245
2269 1501
2270 350
2270 1246
2270 1502
2271 351
2271 1247
2271 1503
2272 352
2272 1248
2272 1504
2273 353
2273 1249
2273 1505
2274 354
2274 1250
2274 1506
2275 355
2275 1251
2275 1507
2276 356
2276 1252
2276 1508
2277 357
2277 1253
2277 1509
2278 358
2278 1254
2278 1510
2279 359
2279 1255
2279 1511
2280 360
2280 1256
2280 1512
2281 361
2281 1257
2281 1513
2282 362
2282 1258
2282 1514
2283 363
2283 1259
2283 1515
2284 364
2284 1260
2284 1516
2285 365
2285 1261
2285 1517
2286 366
2286 1262
2286 1518
2287 367
2287 1263
2287 1519
2288 368
2288 1264
2288 1520
2289 369
2289 1265
2289 1521
2290 370
2290 1266
2290 1522
2291 371
2291 1267
2291 1523
2292 372
2292 1268
2292 1524
2293 373
2293 1269
2293 1525
2294 374
2294 1270
2294 1526
2295 375
2295 1271
2295 1527
2296 376
2296 1272
2296 1528
2297 377
2297 1273
2297 1529
2298 378
2298 1274
2298 1530
2299 379
2299 1275
2299 1531
2300 380
2300 1276
2300 1532
2301 381
2301 1277
2301 1533
2302 382
2302 1278
2302 1534
2303 383
2303 1279
2303 1535
2304 384
2304 640
2304 1536
2305 385
2305 641
2305 1537
2306 386
2306 642
2306 1538
2307 387
2307 643
2307 1539
2308 388
2308 644
2308 1540
2309 389
2309 645
2309 1541
2310 390
2310 646
2310 1542
2311 391
2311 647
2311 1543
2312 392
2312 648
2312 1544
2313 393
2313 649
2313 1545
2314 394
2314 650
2314 1546
2315 395
2315 651
2315 1547
2316 396
2316 652
2316 1548
2317 397
2317 653
2317 1549
2318 398
2318 654
2318 1550
2319 399
2319 655
2319 1551
2320 400
2320 656
2320 1552
2321 401
2321 657
2321 1553
2322 402
2322 658
2322 1554
2323 403
2323 659
2323 1555
2324 404
2324 660
2324 1556
2325 405
2325 661
2325 1557
2326 406
2326 662
2326 1558
2327 407
2327 663
2327 1559
2328 408
2328 664
2328 1560
2329 409
2329 665
2329 1561
2330 410
2330 666
2330 1562
2331 411
2331 667
2331 1563
2332 412
2332 668
2332 1564
2333 413
2333 669
2333 1565
2334 414
2334 670
2334 1566
2335 415
2335 671
2335 1567
2336 416
2336 672
2336 1568
2337 417
2337 673
2337 1569
2338 418
2338 674
2338 1570
2339 419
2339 675
2339 1571
2340 420
2340 676
2340 1572
2341 421
2341 677
2341 1573
2342 422
2342 678
2342 1574
2343 423
2343 679
2343 1575
2344 424
2344 680
2344 1576
2345 425
2345 681
2345 1577
2346 426
2346 682
2346 1578
2347 427
2347 683
2347 1579
2348 428
2348 684
2348 1580
2349 429
2349 685
2349 1581
2350 430
2350 686
2350 1582
2351 431
2351 687
2351 1583
2352 432
2352 688
2352 1584
2353 433
2353 689
2353 1585
2354 434
2354 690
2354 1586
2355 435
2355 691
2355 1587
2356 436
2356 692
2356 1588
2357 437
2357 693
2357 1589
2358 438
2358 694
2358 1590
2359 439
2359 695
2359 1591
2360 440
2360 696
2360 1592
2361 441
2361 697
2361 1593
2362 442
2362 698
2362 1594
2363 443
2363 699
2363 1595
2364 444
2364 700
2364 1596
2365 445
2365 701
2365 1597
2366 446
2366 702
2366 1598
2367 447
2367 703
2367 1599
2368 448
2368 704
2368 1600
2369 449
2369 705
2369 1601
2370 450
2370 706
2370 1602
2371 451
2371 707
2371 1603
2372 452
2372 708
2372 1604
2373 453
2373 709
2373 1605
2374 454
2374 710
2374 1606
2375 455
2375 711
2375 1607
2376 456
2376 712
2376 1608
2377 457
2377 713
2377 1609
2378 458
2378 714
2378 1610
2379 459
2379 715
2379 1611
2380 460
2380 716
2380 1612
2381 461
2381 717
2381 1613
2382 462
2382 718
2382 1614
2383 463
2383 719
2383 1615
2384 464
2384 720
2384 1616
2385 465
2385 721
2385 1617
2386 466
2386 722
2386 1618
2387 467
2387 723
2387 1619
2388 468
2388 724
2388 1620
2389 469
2389 725
2389 1621
2390 470
2390 726
2390 1622
2391 471
2391 727
2391 1623
2392 472
2392 728
2392 1624
2393 473
2393 729
2393 1625
2394 474
2394 730
2394 1626
2395 475
2395 731
2395 1627
2396 476
2396 732
2396 1628
2397 477
2397 733
2397 1629
2398 478
2398 734
2398 1630
2399 479
2399 735
2399 1631
2400 480
2400 736
2400 1632
2401 481
2401 737
2401 1633
2402 482
2402 738
2402 1634
2403 483
2403 739
2403 1635
2404 484
2404 740
2404 1636
2405 485
2405 741
2405 1637
2406 486
2406 742
2406 1638
2407 487
2407 743
2407 1639
2408 488
2408 744
2408 1640
2409 489
2409 745
2409 1641
2410 490
2410 746
2410 1642
2411 491
2411 747
2411 1643
2412 492
2412 748
2412 1644
2413 493
2413 749
2413 1645
2414 494
2414 750
2414 1646
2415 495
2415 751
2415 1647
2416 496
2416 752
2416 1648
2417 497
2417 753
2417 1649
2418 498
2418 754
2418 1650
2419 499
2419 755
2419 1651
2420 500
2420 756
2420 1652
2421 501
2421 757
2421 1653
2422 502
2422 758
2422 1654
2423 503
2423 759
2423 1655
2424 504
2424 760
2424 1656
2425 505
2425 761
2425 1657
2426 506
2426 762
2426 1658
2427 507
2427 763
2427 1659
2428 508
2428 764
2428 1660
2429 509
2429 765
2429 1661
2430 510
2430 766
2430 1662
2431 511
2431 767
2431 1663
2432 512
2432 768
2432 1664
2433 513
2433 769
2433 1665
2434 514
2434 770
2434 1666
2435 515
2435 771
2435 1667
2436 516
2436 772
2436 1668
2437 517
2437 773
2437 1669
2438 518
2438 774
2438 1670
2439 519
2439 775
2439 1671
2440 520
2440 776
2440 1672
2441 521
2441 777
2441 1673
2442 522
2442 778
2442 1674
2443 523
2443 779
2443 1675
2444 524
2444 780
2444 1676
2445 525
2445 781
2445 1677
2446 526
2446 782
2446 1678
2447 527
2447 783
2447 1679
2448 528
2448 784
2448 1680
2449 529
2449 785
2449 1681
2450 530
2450 786
2450 1682
2451 531
2451 787
2451 1683
2452 532
2452 788
2452 1684
2453 533
2453 789
2453 1685
2454 534
2454 790
2454 1686
2455 535
2455 791
2455 1687
2456 536
2456 792
2456 1688
2457 537
2457 793
2457 1689
2458 538
2458 794
2458 1690
2459 539
2459 795
2459 1691
2460 540
2460 796
2460 1692
2461 541
2461 797
2461 1693
2462 542
2462 798
2462 1694
2463 543
2463 799
2463 1695
2464 544
2464 800
2464 1696
2465 545
2465 801
2465 1697
2466 546
2466 802
2466 1698
2467 547
2467 803
2467 1699
2468 548
2468 804
2468 1700
2469 549
2469 805
2469 1701
2470 550
2470 806
2470 1702
2471 551
2471 807
2471 1703
2472 552
2472 808
2472 1704
2473 553
2473 809
2473 1705
2474 554
2474 810
2474 1706
2475 555
2475 811
2475 1707
2476 556
2476 812
2476 1708
2477 557
2477 813
2477 1709
2478 558
2478 814
2478 1710
2479 559
2479 815
2479 1711
2480 560
2480 816
2480 1712
2481 561
2481 817
2481 1713
2482 562
2482 818
2482 1714
2483 563
2483 819
2483 1715
2484 564
2484 820
2484 1716
2485 565
2485 821
2485 1717
2486 566
2486 822
2486 1718
2487 567
2487 823
2487 1719
2488 568
2488 824
2488 1720
2489 569
2489 825
2489 1721
2490 570
2490 826
2490 1722
2491 571
2491 827
2491 1723
2492 572
2492 828
2492 1724
2493 573
2493 829
2493 1725
2494 574
2494 830
2494 1726
2495 575
2495 831
2495 1727
2496 576
2496 832
2496 1728
2497 577
2497 833
2497 1729
2498 578
2498 834
2498 1730
2499 579
2499 835
2499 1731
2500 580
2500 836
2500 1732
2501 581
2501 837
2501 1733
2502 582
2502 838
2502 1734
2503 583
2503 839
2503 1735
2504 584
2504 840
2504 1736
2505 585
2505 841
2505 1737
2506 586
2506 842
2506 1738
2507 587
2507 843
2507 1739
2508 588
2508 844
2508 1740
2509 589
2509 845
2509 1741
2510 590
2510 846
2510 1742
2511 591
2511 847
2511 1743
2512 592
2512 848
2512 1744
2513 593
2513 849
2513 1745
2514 594
2514 850
2514 1746
2515 595
2515 851
2515 1747
2516 596
2516 852
2516 1748
2517 597
2517 853
2517 1749
2518 598
2518 854
2518 1750
2519 599
2519 855
2519 1751
2520 600
2520 856
2520 1752
2521 601
2521 857
2521 1753
2522 602
2522 858
2522 1754
2523 603
2523 859
2523 1755
2524 604
2524 860
2524 1756
2525 605
2525 861
2525 1757
2526 606
2526 862
2526 1758
2527 607
2527 863
2527 1759
2528 608
2528 864
2528 1760
2529 609
2529 865
2529 1761
2530 610
2530 866
2530 1762
2531 611
2531 867
2531 1763
2532 612
2532 868
2532 1764
2533 613
2533 869
2533 1765
2534 614
2534 870
2534 1766
2535 615
2535 871
2535 1767
2536 616
2536 872
2536 1768
2537 617
2537 873
2537 1769
2538 618
2538 874
2538 1770
2539 619
2539 875
2539 1771
2540 620
2540 876
2540 1772
2541 621
2541 877
2541 1773
2542 622
2542 878
2542 1774
2543 623
2543 879
2543 1775
2544 624
2544 880
2544 1776
2545 625
2545 881
2545 1777
2546 626
2546 882
2546 1778
2547 627
2547 883
2547 1779
2548 628
2548 884
2548 1780
2549 629
2549 885
2549 1781
2550 630
2550 886
2550 1782
2551 631
2551 887
2551 1783
2552 632
2552 888
2552 1784
2553 633
2553 889
2553 1785
2554 634
2554 890
2554 1786
2555 635
2555 891
2555 1787
2556 636
2556 892
2556 1788
2557 637
2557 893
2557 1789
2558 638
2558 894
2558 1790
2559 639
2559 895
2559 1791
