11264 5632 45056
0 1
0 1408
0 2816
0 4224
1 2
1 1409
1 2817
1 4225
2 3
2 1410
2 2818
2 4226
3 4
3 1411
3 2819
3 4227
4 5
4 1412
4 2820
4 4228
5 6
5 1413
5 2821
5 4229
6 7
6 1414
6 2822
6 4230
7 8
7 1415
7 2823
7 4231
8 9
8 1416
8 2824
8 4232
9 10
9 1417
9 2825
9 4233
10 11
10 1418
10 2826
10 4234
11 12
11 1419
11 2827
11 4235
12 13
12 1420
12 2828
12 4236
13 14
13 1421
13 2829
13 4237
14 15
14 1422
14 2830
14 4238
15 16
15 1423
15 2831
15 4239
16 17
16 1424
16 2832
16 4240
17 18
17 1425
17 2833
17 4241
18 19
18 1426
18 2834
18 4242
19 20
19 1427
19 2835
19 4243
20 21
20 1428
20 2836
20 4244
21 22
21 1429
21 2837
21 4245
22 23
22 1430
22 2838
22 4246
23 24
23 1431
23 2839
23 4247
24 25
24 1432
24 2840
24 4248
25 26
25 1433
25 2841
25 4249
26 27
26 1434
26 2842
26 4250
27 28
27 1435
27 2843
27 4251
28 29
28 1436
28 2844
28 4252
29 30
29 1437
29 2845
29 4253
30 31
30 1438
30 2846
30 4254
31 32
31 1439
31 2847
31 4255
32 33
32 1440
32 2848
32 4256
33 34
33 1441
33 2849
33 4257
34 35
34 1442
34 2850
34 4258
35 36
35 1443
35 2851
35 4259
36 37
36 1444
36 2852
36 4260
37 38
37 1445
37 2853
37 4261
38 39
38 1446
38 2854
38 4262
39 40
39 1447
39 2855
39 4263
40 41
40 1448
40 2856
40 4264
41 42
41 1449
41 2857
41 4265
42 43
42 1450
42 2858
42 4266
43 44
43 1451
43 2859
43 4267
44 45
44 1452
44 2860
44 4268
45 46
45 1453
45 2861
45 4269
46 47
46 1454
46 2862
46 4270
47 48
47 1455
47 2863
47 4271
48 49
48 1456
48 2864
48 4272
49 50
49 1457
49 2865
49 4273
50 51
50 1458
50 2866
50 4274
51 52
51 1459
51 2867
51 4275
52 53
52 1460
52 2868
52 4276
53 54
53 1461
53 2869
53 4277
54 55
54 1462
54 2870
54 4278
55 56
55 1463
55 2871
55 4279
56 57
56 1464
56 2872
56 4280
57 58
57 1465
57 2873
57 4281
58 59
58 1466
58 2874
58 4282
59 60
59 1467
59 2875
59 4283
60 61
60 1468
60 2876
60 4284
61 62
61 1469
61 2877
61 4285
62 63
62 1470
62 2878
62 4286
63 64
63 1471
63 2879
63 4287
64 65
64 1472
64 2880
64 4288
65 66
65 1473
65 2881
65 4289
66 67
66 1474
66 2882
66 4290
67 68
67 1475
67 2883
67 4291
68 69
68 1476
68 2884
68 4292
69 70
69 1477
69 2885
69 4293
70 71
70 1478
70 2886
70 4294
71 72
71 1479
71 2887
71 4295
72 73
72 1480
72 2888
72 4296
73 74
73 1481
73 2889
73 4297
74 75
74 1482
74 2890
74 4298
75 76
75 1483
75 2891
75 4299
76 77
76 1484
76 2892
76 4300
77 78
77 1485
77 2893
77 4301
78 79
78 1486
78 2894
78 4302
79 80
79 1487
79 2895
79 4303
80 81
80 1488
80 2896
80 4304
81 82
81 1489
81 2897
81 4305
82 83
82 1490
82 2898
82 4306
83 84
83 1491
83 2899
83 4307
84 85
84 1492
84 2900
84 4308
85 86
85 1493
85 2901
85 4309
86 87
86 1494
86 2902
86 4310
87 88
87 1495
87 2903
87 4311
88 89
88 1496
88 2904
88 4312
89 90
89 1497
89 2905
89 4313
90 91
90 1498
90 2906
90 4314
91 92
91 1499
91 2907
91 4315
92 93
92 1500
92 2908
92 4316
93 94
93 1501
93 2909
93 4317
94 95
94 1502
94 2910
94 4318
95 96
95 1503
95 2911
95 4319
96 97
96 1504
96 2912
96 4320
97 98
97 1505
97 2913
97 4321
98 99
98 1506
98 2914
98 4322
99 100
99 1507
99 2915
99 4323
100 101
100 1508
100 2916
100 4324
101 102
101 1509
101 2917
101 4325
102 103
102 1510
102 2918
102 4326
103 104
103 1511
103 2919
103 4327
104 105
104 1512
104 2920
104 4328
105 106
105 1513
105 2921
105 4329
106 107
106 1514
106 2922
106 4330
107 108
107 1515
107 2923
107 4331
108 109
108 1516
108 2924
108 4332
109 110
109 1517
109 2925
109 4333
110 111
110 1518
110 2926
110 4334
111 112
111 1519
111 2927
111 4335
112 113
112 1520
112 2928
112 4336
113 114
113 1521
113 2929
113 4337
114 115
114 1522
114 2930
114 4338
115 116
115 1523
115 2931
115 4339
116 117
116 1524
116 2932
116 4340
117 118
117 1525
117 2933
117 4341
118 119
118 1526
118 2934
118 4342
119 120
119 1527
119 2935
119 4343
120 121
120 1528
120 2936
120 4344
121 122
121 1529
121 2937
121 4345
122 123
122 1530
122 2938
122 4346
123 124
123 1531
123 2939
123 4347
124 125
124 1532
124 2940
124 4348
125 126
125 1533
125 2941
125 4349
126 127
126 1534
126 2942
126 4350
127 0
127 1535
127 2943
127 4351
128 128
128 1536
128 2944
128 4352
129 129
129 1537
129 2945
129 4353
130 130
130 1538
130 2946
130 4354
131 131
131 1539
131 2947
131 4355
132 132
132 1540
132 2948
132 4356
133 133
133 1541
133 2949
133 4357
134 134
134 1542
134 2950
134 4358
135 135
135 1543
135 2951
135 4359
136 136
136 1544
136 2952
136 4360
137 137
137 1545
137 2953
137 4361
138 138
138 1546
138 2954
138 4362
139 139
139 1547
139 2955
139 4363
140 140
140 1548
140 2956
140 4364
141 141
141 1549
141 2957
141 4365
142 142
142 1550
142 2958
142 4366
143 143
143 1551
143 2959
143 4367
144 144
144 1552
144 2960
144 4368
145 145
145 1553
145 2961
145 4369
146 146
146 1554
146 2962
146 4370
147 147
147 1555
147 2963
147 4371
148 148
148 1556
148 2964
148 4372
149 149
149 1557
149 2965
149 4373
150 150
150 1558
150 2966
150 4374
151 151
151 1559
151 2967
151 4375
152 152
152 1560
152 2968
152 4376
153 153
153 1561
153 2969
153 4377
154 154
154 1562
154 2970
154 4378
155 155
155 1563
155 2971
155 4379
156 156
156 1564
156 2972
156 4380
157 157
157 1565
157 2973
157 4381
158 158
158 1566
158 2974
158 4382
159 159
159 1567
159 2975
159 4383
160 160
160 1568
160 2976
160 4384
161 161
161 1569
161 2977
161 4385
162 162
162 1570
162 2978
162 4386
163 163
163 1571
163 2979
163 4387
164 164
164 1572
164 2980
164 4388
165 165
165 1573
165 2981
165 4389
166 166
166 1574
166 2982
166 4390
167 167
167 1575
167 2983
167 4391
168 168
168 1576
168 2984
168 4392
169 169
169 1577
169 2985
169 4393
170 170
170 1578
170 2986
170 4394
171 171
171 1579
171 2987
171 4395
172 172
172 1580
172 2988
172 4396
173 173
173 1581
173 2989
173 4397
174 174
174 1582
174 2990
174 4398
175 175
175 1583
175 2991
175 4399
176 176
176 1584
176 2992
176 4400
177 177
177 1585
177 2993
177 4401
178 178
178 1586
178 2994
178 4402
179 179
179 1587
179 2995
179 4403
180 180
180 1588
180 2996
180 4404
181 181
181 1589
181 2997
181 4405
182 182
182 1590
182 2998
182 4406
183 183
183 1591
183 2999
183 4407
184 184
184 1592
184 3000
184 4408
185 185
185 1593
185 3001
185 4409
186 186
186 1594
186 3002
186 4410
187 187
187 1595
187 3003
187 4411
188 188
188 1596
188 3004
188 4412
189 189
189 1597
189 3005
189 4413
190 190
190 1598
190 3006
190 4414
191 191
191 1599
191 3007
191 4415
192 192
192 1600
192 3008
192 4416
193 193
193 1601
193 3009
193 4417
194 194
194 1602
194 3010
194 4418
195 195
195 1603
195 3011
195 4419
196 196
196 1604
196 3012
196 4420
197 197
197 1605
197 3013
197 4421
198 198
198 1606
198 3014
198 4422
199 199
199 1607
199 3015
199 4423
200 200
200 1608
200 3016
200 4424
201 201
201 1609
201 3017
201 4425
202 202
202 1610
202 3018
202 4426
203 203
203 1611
203 3019
203 4427
204 204
204 1612
204 3020
204 4428
205 205
205 1613
205 3021
205 4429
206 206
206 1614
206 3022
206 4430
207 207
207 1615
207 3023
207 4431
208 208
208 1616
208 3024
208 4432
209 209
209 1617
209 3025
209 4433
210 210
210 1618
210 3026
210 4434
211 211
211 1619
211 3027
211 4435
212 212
212 1620
212 3028
212 4436
213 213
213 1621
213 3029
213 4437
214 214
214 1622
214 3030
214 4438
215 215
215 1623
215 3031
215 4439
216 216
216 1624
216 3032
216 4440
217 217
217 1625
217 3033
217 4441
218 218
218 1626
218 3034
218 4442
219 219
219 1627
219 3035
219 4443
220 220
220 1628
220 3036
220 4444
221 221
221 1629
221 3037
221 4445
222 222
222 1630
222 3038
222 4446
223 223
223 1631
223 3039
223 4447
224 224
224 1632
224 3040
224 4448
225 225
225 1633
225 3041
225 4449
226 226
226 1634
226 3042
226 4450
227 227
227 1635
227 3043
227 4451
228 228
228 1636
228 3044
228 4452
229 229
229 1637
229 3045
229 4453
230 230
230 1638
230 3046
230 4454
231 231
231 1639
231 3047
231 4455
232 232
232 1640
232 3048
232 4456
233 233
233 1641
233 3049
233 4457
234 234
234 1642
234 3050
234 4458
235 235
235 1643
235 3051
235 4459
236 236
236 1644
236 3052
236 4460
237 237
237 1645
237 3053
237 4461
238 238
238 1646
238 3054
238 4462
239 239
239 1647
239 3055
239 4463
240 240
240 1648
240 3056
240 4464
241 241
241 1649
241 3057
241 4465
242 242
242 1650
242 3058
242 4466
243 243
243 1651
243 3059
243 4467
244 244
244 1652
244 3060
244 4468
245 245
245 1653
245 3061
245 4469
246 246
246 1654
246 3062
246 4470
247 247
247 1655
247 3063
247 4471
248 248
248 1656
248 3064
248 4472
249 249
249 1657
249 3065
249 4473
250 250
250 1658
250 3066
250 4474
251 251
251 1659
251 3067
251 4475
252 252
252 1660
252 3068
252 4476
253 253
253 1661
253 3069
253 4477
254 254
254 1662
254 3070
254 4478
255 255
255 1663
255 3071
255 4479
256 256
256 1664
256 3072
256 4480
257 257
257 1665
257 3073
257 4481
258 258
258 1666
258 3074
258 4482
259 259
259 1667
259 3075
259 4483
260 260
260 1668
260 3076
260 4484
261 261
261 1669
261 3077
261 4485
262 262
262 1670
262 3078
262 4486
263 263
263 1671
263 3079
263 4487
264 264
264 1672
264 3080
264 4488
265 265
265 1673
265 3081
265 4489
266 266
266 1674
266 3082
266 4490
267 267
267 1675
267 3083
267 4491
268 268
268 1676
268 3084
268 4492
269 269
269 1677
269 3085
269 4493
270 270
270 1678
270 3086
270 4494
271 271
271 1679
271 3087
271 4495
272 272
272 1680
272 3088
272 4496
273 273
273 1681
273 3089
273 4497
274 274
274 1682
274 3090
274 4498
275 275
275 1683
275 3091
275 4499
276 276
276 1684
276 3092
276 4500
277 277
277 1685
277 3093
277 4501
278 278
278 1686
278 3094
278 4502
279 279
279 1687
279 3095
279 4503
280 280
280 1688
280 3096
280 4504
281 281
281 1689
281 3097
281 4505
282 282
282 1690
282 3098
282 4506
283 283
283 1691
283 3099
283 4507
284 284
284 1692
284 3100
284 4508
285 285
285 1693
285 3101
285 4509
286 286
286 1694
286 3102
286 4510
287 287
287 1695
287 3103
287 4511
288 288
288 1696
288 3104
288 4512
289 289
289 1697
289 3105
289 4513
290 290
290 1698
290 3106
290 4514
291 291
291 1699
291 3107
291 4515
292 292
292 1700
292 3108
292 4516
293 293
293 1701
293 3109
293 4517
294 294
294 1702
294 3110
294 4518
295 295
295 1703
295 3111
295 4519
296 296
296 1704
296 3112
296 4520
297 297
297 1705
297 3113
297 4521
298 298
298 1706
298 3114
298 4522
299 299
299 1707
299 3115
299 4523
300 300
300 1708
300 3116
300 4524
301 301
301 1709
301 3117
301 4525
302 302
302 1710
302 3118
302 4526
303 303
303 1711
303 3119
303 4527
304 304
304 1712
304 3120
304 4528
305 305
305 1713
305 3121
305 4529
306 306
306 1714
306 3122
306 4530
307 307
307 1715
307 3123
307 4531
308 308
308 1716
308 3124
308 4532
309 309
309 1717
309 3125
309 4533
310 310
310 1718
310 3126
310 4534
311 311
311 1719
311 3127
311 4535
312 312
312 1720
312 3128
312 4536
313 313
313 1721
313 3129
313 4537
314 314
314 1722
314 3130
314 4538
315 315
315 1723
315 3131
315 4539
316 316
316 1724
316 3132
316 4540
317 317
317 1725
317 3133
317 4541
318 318
318 1726
318 3134
318 4542
319 319
319 1727
319 3135
319 4543
320 320
320 1728
320 3136
320 4544
321 321
321 1729
321 3137
321 4545
322 322
322 1730
322 3138
322 4546
323 323
323 1731
323 3139
323 4547
324 324
324 1732
324 3140
324 4548
325 325
325 1733
325 3141
325 4549
326 326
326 1734
326 3142
326 4550
327 327
327 1735
327 3143
327 4551
328 328
328 1736
328 3144
328 4552
329 329
329 1737
329 3145
329 4553
330 330
330 1738
330 3146
330 4554
331 331
331 1739
331 3147
331 4555
332 332
332 1740
332 3148
332 4556
333 333
333 1741
333 3149
333 4557
334 334
334 1742
334 3150
334 4558
335 335
335 1743
335 3151
335 4559
336 336
336 1744
336 3152
336 4560
337 337
337 1745
337 3153
337 4561
338 338
338 1746
338 3154
338 4562
339 339
339 1747
339 3155
339 4563
340 340
340 1748
340 3156
340 4564
341 341
341 1749
341 3157
341 4565
342 342
342 1750
342 3158
342 4566
343 343
343 1751
343 3159
343 4567
344 344
344 1752
344 3160
344 4568
345 345
345 1753
345 3161
345 4569
346 346
346 1754
346 3162
346 4570
347 347
347 1755
347 3163
347 4571
348 348
348 1756
348 3164
348 4572
349 349
349 1757
349 3165
349 4573
350 350
350 1758
350 3166
350 4574
351 351
351 1759
351 3167
351 4575
352 352
352 1760
352 3168
352 4576
353 353
353 1761
353 3169
353 4577
354 354
354 1762
354 3170
354 4578
355 355
355 1763
355 3171
355 4579
356 356
356 1764
356 3172
356 4580
357 357
357 1765
357 3173
357 4581
358 358
358 1766
358 3174
358 4582
359 359
359 1767
359 3175
359 4583
360 360
360 1768
360 3176
360 4584
361 361
361 1769
361 3177
361 4585
362 362
362 1770
362 3178
362 4586
363 363
363 1771
363 3179
363 4587
364 364
364 1772
364 3180
364 4588
365 365
365 1773
365 3181
365 4589
366 366
366 1774
366 3182
366 4590
367 367
367 1775
367 3183
367 4591
368 368
368 1776
368 3184
368 4592
369 369
369 1777
369 3185
369 4593
370 370
370 1778
370 3186
370 4594
371 371
371 1779
371 3187
371 4595
372 372
372 1780
372 3188
372 4596
373 373
373 1781
373 3189
373 4597
374 374
374 1782
374 3190
374 4598
375 375
375 1783
375 3191
375 4599
376 376
376 1784
376 3192
376 4600
377 377
377 1785
377 3193
377 4601
378 378
378 1786
378 3194
378 4602
379 379
379 1787
379 3195
379 4603
380 380
380 1788
380 3196
380 4604
381 381
381 1789
381 3197
381 4605
382 382
382 1790
382 3198
382 4606
383 383
383 1791
383 3199
383 4607
384 384
384 1792
384 3200
384 4608
385 385
385 1793
385 3201
385 4609
386 386
386 1794
386 3202
386 4610
387 387
387 1795
387 3203
387 4611
388 388
388 1796
388 3204
388 4612
389 389
389 1797
389 3205
389 4613
390 390
390 1798
390 3206
390 4614
391 391
391 1799
391 3207
391 4615
392 392
392 1800
392 3208
392 4616
393 393
393 1801
393 3209
393 4617
394 394
394 1802
394 3210
394 4618
395 395
395 1803
395 3211
395 4619
396 396
396 1804
396 3212
396 4620
397 397
397 1805
397 3213
397 4621
398 398
398 1806
398 3214
398 4622
399 399
399 1807
399 3215
399 4623
400 400
400 1808
400 3216
400 4624
401 401
401 1809
401 3217
401 4625
402 402
402 1810
402 3218
402 4626
403 403
403 1811
403 3219
403 4627
404 404
404 1812
404 3220
404 4628
405 405
405 1813
405 3221
405 4629
406 406
406 1814
406 3222
406 4630
407 407
407 1815
407 3223
407 4631
408 408
408 1816
408 3224
408 4632
409 409
409 1817
409 3225
409 4633
410 410
410 1818
410 3226
410 4634
411 411
411 1819
411 3227
411 4635
412 412
412 1820
412 3228
412 4636
413 413
413 1821
413 3229
413 4637
414 414
414 1822
414 3230
414 4638
415 415
415 1823
415 3231
415 4639
416 416
416 1824
416 3232
416 4640
417 417
417 1825
417 3233
417 4641
418 418
418 1826
418 3234
418 4642
419 419
419 1827
419 3235
419 4643
420 420
420 1828
420 3236
420 4644
421 421
421 1829
421 3237
421 4645
422 422
422 1830
422 3238
422 4646
423 423
423 1831
423 3239
423 4647
424 424
424 1832
424 3240
424 4648
425 425
425 1833
425 3241
425 4649
426 426
426 1834
426 3242
426 4650
427 427
427 1835
427 3243
427 4651
428 428
428 1836
428 3244
428 4652
429 429
429 1837
429 3245
429 4653
430 430
430 1838
430 3246
430 4654
431 431
431 1839
431 3247
431 4655
432 432
432 1840
432 3248
432 4656
433 433
433 1841
433 3249
433 4657
434 434
434 1842
434 3250
434 4658
435 435
435 1843
435 3251
435 4659
436 436
436 1844
436 3252
436 4660
437 437
437 1845
437 3253
437 4661
438 438
438 1846
438 3254
438 4662
439 439
439 1847
439 3255
439 4663
440 440
440 1848
440 3256
440 4664
441 441
441 1849
441 3257
441 4665
442 442
442 1850
442 3258
442 4666
443 443
443 1851
443 3259
443 4667
444 444
444 1852
444 3260
444 4668
445 445
445 1853
445 3261
445 4669
446 446
446 1854
446 3262
446 4670
447 447
447 1855
447 3263
447 4671
448 448
448 1856
448 3264
448 4672
449 449
449 1857
449 3265
449 4673
450 450
450 1858
450 3266
450 4674
451 451
451 1859
451 3267
451 4675
452 452
452 1860
452 3268
452 4676
453 453
453 1861
453 3269
453 4677
454 454
454 1862
454 3270
454 4678
455 455
455 1863
455 3271
455 4679
456 456
456 1864
456 3272
456 4680
457 457
457 1865
457 3273
457 4681
458 458
458 1866
458 3274
458 4682
459 459
459 1867
459 3275
459 4683
460 460
460 1868
460 3276
460 4684
461 461
461 1869
461 3277
461 4685
462 462
462 1870
462 3278
462 4686
463 463
463 1871
463 3279
463 4687
464 464
464 1872
464 3280
464 4688
465 465
465 1873
465 3281
465 4689
466 466
466 1874
466 3282
466 4690
467 467
467 1875
467 3283
467 4691
468 468
468 1876
468 3284
468 4692
469 469
469 1877
469 3285
469 4693
470 470
470 1878
470 3286
470 4694
471 471
471 1879
471 3287
471 4695
472 472
472 1880
472 3288
472 4696
473 473
473 1881
473 3289
473 4697
474 474
474 1882
474 3290
474 4698
475 475
475 1883
475 3291
475 4699
476 476
476 1884
476 3292
476 4700
477 477
477 1885
477 3293
477 4701
478 478
478 1886
478 3294
478 4702
479 479
479 1887
479 3295
479 4703
480 480
480 1888
480 3296
480 4704
481 481
481 1889
481 3297
481 4705
482 482
482 1890
482 3298
482 4706
483 483
483 1891
483 3299
483 4707
484 484
484 1892
484 3300
484 4708
485 485
485 1893
485 3301
485 4709
486 486
486 1894
486 3302
486 4710
487 487
487 1895
487 3303
487 4711
488 488
488 1896
488 3304
488 4712
489 489
489 1897
489 3305
489 4713
490 490
490 1898
490 3306
490 4714
491 491
491 1899
491 3307
491 4715
492 492
492 1900
492 3308
492 4716
493 493
493 1901
493 3309
493 4717
494 494
494 1902
494 3310
494 4718
495 495
495 1903
495 3311
495 4719
496 496
496 1904
496 3312
496 4720
497 497
497 1905
497 3313
497 4721
498 498
498 1906
498 3314
498 4722
499 499
499 1907
499 3315
499 4723
500 500
500 1908
500 3316
500 4724
501 501
501 1909
501 3317
501 4725
502 502
502 1910
502 3318
502 4726
503 503
503 1911
503 3319
503 4727
504 504
504 1912
504 3320
504 4728
505 505
505 1913
505 3321
505 4729
506 506
506 1914
506 3322
506 4730
507 507
507 1915
507 3323
507 4731
508 508
508 1916
508 3324
508 4732
509 509
509 1917
509 3325
509 4733
510 510
510 1918
510 3326
510 4734
511 511
511 1919
511 3327
511 4735
512 512
512 1920
512 3328
512 4736
513 513
513 1921
513 3329
513 4737
514 514
514 1922
514 3330
514 4738
515 515
515 1923
515 3331
515 4739
516 516
516 1924
516 3332
516 4740
517 517
517 1925
517 3333
517 4741
518 518
518 1926
518 3334
518 4742
519 519
519 1927
519 3335
519 4743
520 520
520 1928
520 3336
520 4744
521 521
521 1929
521 3337
521 4745
522 522
522 1930
522 3338
522 4746
523 523
523 1931
523 3339
523 4747
524 524
524 1932
524 3340
524 4748
525 525
525 1933
525 3341
525 4749
526 526
526 1934
526 3342
526 4750
527 527
527 1935
527 3343
527 4751
528 528
528 1936
528 3344
528 4752
529 529
529 1937
529 3345
529 4753
530 530
530 1938
530 3346
530 4754
531 531
531 1939
531 3347
531 4755
532 532
532 1940
532 3348
532 4756
533 533
533 1941
533 3349
533 4757
534 534
534 1942
534 3350
534 4758
535 535
535 1943
535 3351
535 4759
536 536
536 1944
536 3352
536 4760
537 537
537 1945
537 3353
537 4761
538 538
538 1946
538 3354
538 4762
539 539
539 1947
539 3355
539 4763
540 540
540 1948
540 3356
540 4764
541 541
541 1949
541 3357
541 4765
542 542
542 1950
542 3358
542 4766
543 543
543 1951
543 3359
543 4767
544 544
544 1952
544 3360
544 4768
545 545
545 1953
545 3361
545 4769
546 546
546 1954
546 3362
546 4770
547 547
547 1955
547 3363
547 4771
548 548
548 1956
548 3364
548 4772
549 549
549 1957
549 3365
549 4773
550 550
550 1958
550 3366
550 4774
551 551
551 1959
551 3367
551 4775
552 552
552 1960
552 3368
552 4776
553 553
553 1961
553 3369
553 4777
554 554
554 1962
554 3370
554 4778
555 555
555 1963
555 3371
555 4779
556 556
556 1964
556 3372
556 4780
557 557
557 1965
557 3373
557 4781
558 558
558 1966
558 3374
558 4782
559 559
559 1967
559 3375
559 4783
560 560
560 1968
560 3376
560 4784
561 561
561 1969
561 3377
561 4785
562 562
562 1970
562 3378
562 4786
563 563
563 1971
563 3379
563 4787
564 564
564 1972
564 3380
564 4788
565 565
565 1973
565 3381
565 4789
566 566
566 1974
566 3382
566 4790
567 567
567 1975
567 3383
567 4791
568 568
568 1976
568 3384
568 4792
569 569
569 1977
569 3385
569 4793
570 570
570 1978
570 3386
570 4794
571 571
571 1979
571 3387
571 4795
572 572
572 1980
572 3388
572 4796
573 573
573 1981
573 3389
573 4797
574 574
574 1982
574 3390
574 4798
575 575
575 1983
575 3391
575 4799
576 576
576 1984
576 3392
576 4800
577 577
577 1985
577 3393
577 4801
578 578
578 1986
578 3394
578 4802
579 579
579 1987
579 3395
579 4803
580 580
580 1988
580 3396
580 4804
581 581
581 1989
581 3397
581 4805
582 582
582 1990
582 3398
582 4806
583 583
583 1991
583 3399
583 4807
584 584
584 1992
584 3400
584 4808
585 585
585 1993
585 3401
585 4809
586 586
586 1994
586 3402
586 4810
587 587
587 1995
587 3403
587 4811
588 588
588 1996
588 3404
588 4812
589 589
589 1997
589 3405
589 4813
590 590
590 1998
590 3406
590 4814
591 591
591 1999
591 3407
591 4815
592 592
592 2000
592 3408
592 4816
593 593
593 2001
593 3409
593 4817
594 594
594 2002
594 3410
594 4818
595 595
595 2003
595 3411
595 4819
596 596
596 2004
596 3412
596 4820
597 597
597 2005
597 3413
597 4821
598 598
598 2006
598 3414
598 4822
599 599
599 2007
599 3415
599 4823
600 600
600 2008
600 3416
600 4824
601 601
601 2009
601 3417
601 4825
602 602
602 2010
602 3418
602 4826
603 603
603 2011
603 3419
603 4827
604 604
604 2012
604 3420
604 4828
605 605
605 2013
605 3421
605 4829
606 606
606 2014
606 3422
606 4830
607 607
607 2015
607 3423
607 4831
608 608
608 2016
608 3424
608 4832
609 609
609 2017
609 3425
609 4833
610 610
610 2018
610 3426
610 4834
611 611
611 2019
611 3427
611 4835
612 612
612 2020
612 3428
612 4836
613 613
613 2021
613 3429
613 4837
614 614
614 2022
614 3430
614 4838
615 615
615 2023
615 3431
615 4839
616 616
616 2024
616 3432
616 4840
617 617
617 2025
617 3433
617 4841
618 618
618 2026
618 3434
618 4842
619 619
619 2027
619 3435
619 4843
620 620
620 2028
620 3436
620 4844
621 621
621 2029
621 3437
621 4845
622 622
622 2030
622 3438
622 4846
623 623
623 2031
623 3439
623 4847
624 624
624 2032
624 3440
624 4848
625 625
625 2033
625 3441
625 4849
626 626
626 2034
626 3442
626 4850
627 627
627 2035
627 3443
627 4851
628 628
628 2036
628 3444
628 4852
629 629
629 2037
629 3445
629 4853
630 630
630 2038
630 3446
630 4854
631 631
631 2039
631 3447
631 4855
632 632
632 2040
632 3448
632 4856
633 633
633 2041
633 3449
633 4857
634 634
634 2042
634 3450
634 4858
635 635
635 2043
635 3451
635 4859
636 636
636 2044
636 3452
636 4860
637 637
637 2045
637 3453
637 4861
638 638
638 2046
638 3454
638 4862
639 639
639 2047
639 3455
639 4863
640 640
640 2048
640 3456
640 4864
641 641
641 2049
641 3457
641 4865
642 642
642 2050
642 3458
642 4866
643 643
643 2051
643 3459
643 4867
644 644
644 2052
644 3460
644 4868
645 645
645 2053
645 3461
645 4869
646 646
646 2054
646 3462
646 4870
647 647
647 2055
647 3463
647 4871
648 648
648 2056
648 3464
648 4872
649 649
649 2057
649 3465
649 4873
650 650
650 2058
650 3466
650 4874
651 651
651 2059
651 3467
651 4875
652 652
652 2060
652 3468
652 4876
653 653
653 2061
653 3469
653 4877
654 654
654 2062
654 3470
654 4878
655 655
655 2063
655 3471
655 4879
656 656
656 2064
656 3472
656 4880
657 657
657 2065
657 3473
657 4881
658 658
658 2066
658 3474
658 4882
659 659
659 2067
659 3475
659 4883
660 660
660 2068
660 3476
660 4884
661 661
661 2069
661 3477
661 4885
662 662
662 2070
662 3478
662 4886
663 663
663 2071
663 3479
663 4887
664 664
664 2072
664 3480
664 4888
665 665
665 2073
665 3481
665 4889
666 666
666 2074
666 3482
666 4890
667 667
667 2075
667 3483
667 4891
668 668
668 2076
668 3484
668 4892
669 669
669 2077
669 3485
669 4893
670 670
670 2078
670 3486
670 4894
671 671
671 2079
671 3487
671 4895
672 672
672 2080
672 3488
672 4896
673 673
673 2081
673 3489
673 4897
674 674
674 2082
674 3490
674 4898
675 675
675 2083
675 3491
675 4899
676 676
676 2084
676 3492
676 4900
677 677
677 2085
677 3493
677 4901
678 678
678 2086
678 3494
678 4902
679 679
679 2087
679 3495
679 4903
680 680
680 2088
680 3496
680 4904
681 681
681 2089
681 3497
681 4905
682 682
682 2090
682 3498
682 4906
683 683
683 2091
683 3499
683 4907
684 684
684 2092
684 3500
684 4908
685 685
685 2093
685 3501
685 4909
686 686
686 2094
686 3502
686 4910
687 687
687 2095
687 3503
687 4911
688 688
688 2096
688 3504
688 4912
689 689
689 2097
689 3505
689 4913
690 690
690 2098
690 3506
690 4914
691 691
691 2099
691 3507
691 4915
692 692
692 2100
692 3508
692 4916
693 693
693 2101
693 3509
693 4917
694 694
694 2102
694 3510
694 4918
695 695
695 2103
695 3511
695 4919
696 696
696 2104
696 3512
696 4920
697 697
697 2105
697 3513
697 4921
698 698
698 2106
698 3514
698 4922
699 699
699 2107
699 3515
699 4923
700 700
700 2108
700 3516
700 4924
701 701
701 2109
701 3517
701 4925
702 702
702 2110
702 3518
702 4926
703 703
703 2111
703 3519
703 4927
704 704
704 2112
704 3520
704 4928
705 705
705 2113
705 3521
705 4929
706 706
706 2114
706 3522
706 4930
707 707
707 2115
707 3523
707 4931
708 708
708 2116
708 3524
708 4932
709 709
709 2117
709 3525
709 4933
710 710
710 2118
710 3526
710 4934
711 711
711 2119
711 3527
711 4935
712 712
712 2120
712 3528
712 4936
713 713
713 2121
713 3529
713 4937
714 714
714 2122
714 3530
714 4938
715 715
715 2123
715 3531
715 4939
716 716
716 2124
716 3532
716 4940
717 717
717 2125
717 3533
717 4941
718 718
718 2126
718 3534
718 4942
719 719
719 2127
719 3535
719 4943
720 720
720 2128
720 3536
720 4944
721 721
721 2129
721 3537
721 4945
722 722
722 2130
722 3538
722 4946
723 723
723 2131
723 3539
723 4947
724 724
724 2132
724 3540
724 4948
725 725
725 2133
725 3541
725 4949
726 726
726 2134
726 3542
726 4950
727 727
727 2135
727 3543
727 4951
728 728
728 2136
728 3544
728 4952
729 729
729 2137
729 3545
729 4953
730 730
730 2138
730 3546
730 4954
731 731
731 2139
731 3547
731 4955
732 732
732 2140
732 3548
732 4956
733 733
733 2141
733 3549
733 4957
734 734
734 2142
734 3550
734 4958
735 735
735 2143
735 3551
735 4959
736 736
736 2144
736 3552
736 4960
737 737
737 2145
737 3553
737 4961
738 738
738 2146
738 3554
738 4962
739 739
739 2147
739 3555
739 4963
740 740
740 2148
740 3556
740 4964
741 741
741 2149
741 3557
741 4965
742 742
742 2150
742 3558
742 4966
743 743
743 2151
743 3559
743 4967
744 744
744 2152
744 3560
744 4968
745 745
745 2153
745 3561
745 4969
746 746
746 2154
746 3562
746 4970
747 747
747 2155
747 3563
747 4971
748 748
748 2156
748 3564
748 4972
749 749
749 2157
749 3565
749 4973
750 750
750 2158
750 3566
750 4974
751 751
751 2159
751 3567
751 4975
752 752
752 2160
752 3568
752 4976
753 753
753 2161
753 3569
753 4977
754 754
754 2162
754 3570
754 4978
755 755
755 2163
755 3571
755 4979
756 756
756 2164
756 3572
756 4980
757 757
757 2165
757 3573
757 4981
758 758
758 2166
758 3574
758 4982
759 759
759 2167
759 3575
759 4983
760 760
760 2168
760 3576
760 4984
761 761
761 2169
761 3577
761 4985
762 762
762 2170
762 3578
762 4986
763 763
763 2171
763 3579
763 4987
764 764
764 2172
764 3580
764 4988
765 765
765 2173
765 3581
765 4989
766 766
766 2174
766 3582
766 4990
767 767
767 2175
767 3583
767 4991
768 768
768 2176
768 3584
768 4992
769 769
769 2177
769 3585
769 4993
770 770
770 2178
770 3586
770 4994
771 771
771 2179
771 3587
771 4995
772 772
772 2180
772 3588
772 4996
773 773
773 2181
773 3589
773 4997
774 774
774 2182
774 3590
774 4998
775 775
775 2183
775 3591
775 4999
776 776
776 2184
776 3592
776 5000
777 777
777 2185
777 3593
777 5001
778 778
778 2186
778 3594
778 5002
779 779
779 2187
779 3595
779 5003
780 780
780 2188
780 3596
780 5004
781 781
781 2189
781 3597
781 5005
782 782
782 2190
782 3598
782 5006
783 783
783 2191
783 3599
783 5007
784 784
784 2192
784 3600
784 5008
785 785
785 2193
785 3601
785 5009
786 786
786 2194
786 3602
786 5010
787 787
787 2195
787 3603
787 5011
788 788
788 2196
788 3604
788 5012
789 789
789 2197
789 3605
789 5013
790 790
790 2198
790 3606
790 5014
791 791
791 2199
791 3607
791 5015
792 792
792 2200
792 3608
792 5016
793 793
793 2201
793 3609
793 5017
794 794
794 2202
794 3610
794 5018
795 795
795 2203
795 3611
795 5019
796 796
796 2204
796 3612
796 5020
797 797
797 2205
797 3613
797 5021
798 798
798 2206
798 3614
798 5022
799 799
799 2207
799 3615
799 5023
800 800
800 2208
800 3616
800 5024
801 801
801 2209
801 3617
801 5025
802 802
802 2210
802 3618
802 5026
803 803
803 2211
803 3619
803 5027
804 804
804 2212
804 3620
804 5028
805 805
805 2213
805 3621
805 5029
806 806
806 2214
806 3622
806 5030
807 807
807 2215
807 3623
807 5031
808 808
808 2216
808 3624
808 5032
809 809
809 2217
809 3625
809 5033
810 810
810 2218
810 3626
810 5034
811 811
811 2219
811 3627
811 5035
812 812
812 2220
812 3628
812 5036
813 813
813 2221
813 3629
813 5037
814 814
814 2222
814 3630
814 5038
815 815
815 2223
815 3631
815 5039
816 816
816 2224
816 3632
816 5040
817 817
817 2225
817 3633
817 5041
818 818
818 2226
818 3634
818 5042
819 819
819 2227
819 3635
819 5043
820 820
820 2228
820 3636
820 5044
821 821
821 2229
821 3637
821 5045
822 822
822 2230
822 3638
822 5046
823 823
823 2231
823 3639
823 5047
824 824
824 2232
824 3640
824 5048
825 825
825 2233
825 3641
825 5049
826 826
826 2234
826 3642
826 5050
827 827
827 2235
827 3643
827 5051
828 828
828 2236
828 3644
828 5052
829 829
829 2237
829 3645
829 5053
830 830
830 2238
830 3646
830 5054
831 831
831 2239
831 3647
831 5055
832 832
832 2240
832 3648
832 5056
833 833
833 2241
833 3649
833 5057
834 834
834 2242
834 3650
834 5058
835 835
835 2243
835 3651
835 5059
836 836
836 2244
836 3652
836 5060
837 837
837 2245
837 3653
837 5061
838 838
838 2246
838 3654
838 5062
839 839
839 2247
839 3655
839 5063
840 840
840 2248
840 3656
840 5064
841 841
841 2249
841 3657
841 5065
842 842
842 2250
842 3658
842 5066
843 843
843 2251
843 3659
843 5067
844 844
844 2252
844 3660
844 5068
845 845
845 2253
845 3661
845 5069
846 846
846 2254
846 3662
846 5070
847 847
847 2255
847 3663
847 5071
848 848
848 2256
848 3664
848 5072
849 849
849 2257
849 3665
849 5073
850 850
850 2258
850 3666
850 5074
851 851
851 2259
851 3667
851 5075
852 852
852 2260
852 3668
852 5076
853 853
853 2261
853 3669
853 5077
854 854
854 2262
854 3670
854 5078
855 855
855 2263
855 3671
855 5079
856 856
856 2264
856 3672
856 5080
857 857
857 2265
857 3673
857 5081
858 858
858 2266
858 3674
858 5082
859 859
859 2267
859 3675
859 5083
860 860
860 2268
860 3676
860 5084
861 861
861 2269
861 3677
861 5085
862 862
862 2270
862 3678
862 5086
863 863
863 2271
863 3679
863 5087
864 864
864 2272
864 3680
864 5088
865 865
865 2273
865 3681
865 5089
866 866
866 2274
866 3682
866 5090
867 867
867 2275
867 3683
867 5091
868 868
868 2276
868 3684
868 5092
869 869
869 2277
869 3685
869 5093
870 870
870 2278
870 3686
870 5094
871 871
871 2279
871 3687
871 5095
872 872
872 2280
872 3688
872 5096
873 873
873 2281
873 3689
873 5097
874 874
874 2282
874 3690
874 5098
875 875
875 2283
875 3691
875 5099
876 876
876 2284
876 3692
876 5100
877 877
877 2285
877 3693
877 5101
878 878
878 2286
878 3694
878 5102
879 879
879 2287
879 3695
879 5103
880 880
880 2288
880 3696
880 5104
881 881
881 2289
881 3697
881 5105
882 882
882 2290
882 3698
882 5106
883 883
883 2291
883 3699
883 5107
884 884
884 2292
884 3700
884 5108
885 885
885 2293
885 3701
885 5109
886 886
886 2294
886 3702
886 5110
887 887
887 2295
887 3703
887 5111
888 888
888 2296
888 3704
888 5112
889 889
889 2297
889 3705
889 5113
890 890
890 2298
890 3706
890 5114
891 891
891 2299
891 3707
891 5115
892 892
892 2300
892 3708
892 5116
893 893
893 2301
893 3709
893 5117
894 894
894 2302
894 3710
894 5118
895 895
895 2303
895 3711
895 5119
896 896
896 2304
896 3712
896 5120
897 897
897 2305
897 3713
897 5121
898 898
898 2306
898 3714
898 5122
899 899
899 2307
899 3715
899 5123
900 900
900 2308
900 3716
900 5124
901 901
901 2309
901 3717
901 5125
902 902
902 2310
902 3718
902 5126
903 903
903 2311
903 3719
903 5127
904 904
904 2312
904 3720
904 5128
905 905
905 2313
905 3721
905 5129
906 906
906 2314
906 3722
906 5130
907 907
907 2315
907 3723
907 5131
908 908
908 2316
908 3724
908 5132
909 909
909 2317
909 3725
909 5133
910 910
910 2318
910 3726
910 5134
911 911
911 2319
911 3727
911 5135
912 912
912 2320
912 3728
912 5136
913 913
913 2321
913 3729
913 5137
914 914
914 2322
914 3730
914 5138
915 915
915 2323
915 3731
915 5139
916 916
916 2324
916 3732
916 5140
917 917
917 2325
917 3733
917 5141
918 918
918 2326
918 3734
918 5142
919 919
919 2327
919 3735
919 5143
920 920
920 2328
920 3736
920 5144
921 921
921 2329
921 3737
921 5145
922 922
922 2330
922 3738
922 5146
923 923
923 2331
923 3739
923 5147
924 924
924 2332
924 3740
924 5148
925 925
925 2333
925 3741
925 5149
926 926
926 2334
926 3742
926 5150
927 927
927 2335
927 3743
927 5151
928 928
928 2336
928 3744
928 5152
929 929
929 2337
929 3745
929 5153
930 930
930 2338
930 3746
930 5154
931 931
931 2339
931 3747
931 5155
932 932
932 2340
932 3748
932 5156
933 933
933 2341
933 3749
933 5157
934 934
934 2342
934 3750
934 5158
935 935
935 2343
935 3751
935 5159
936 936
936 2344
936 3752
936 5160
937 937
937 2345
937 3753
937 5161
938 938
938 2346
938 3754
938 5162
939 939
939 2347
939 3755
939 5163
940 940
940 2348
940 3756
940 5164
941 941
941 2349
941 3757
941 5165
942 942
942 2350
942 3758
942 5166
943 943
943 2351
943 3759
943 5167
944 944
944 2352
944 3760
944 5168
945 945
945 2353
945 3761
945 5169
946 946
946 2354
946 3762
946 5170
947 947
947 2355
947 3763
947 5171
948 948
948 2356
948 3764
948 5172
949 949
949 2357
949 3765
949 5173
950 950
950 2358
950 3766
950 5174
951 951
951 2359
951 3767
951 5175
952 952
952 2360
952 3768
952 5176
953 953
953 2361
953 3769
953 5177
954 954
954 2362
954 3770
954 5178
955 955
955 2363
955 3771
955 5179
956 956
956 2364
956 3772
956 5180
957 957
957 2365
957 3773
957 5181
958 958
958 2366
958 3774
958 5182
959 959
959 2367
959 3775
959 5183
960 960
960 2368
960 3776
960 5184
961 961
961 2369
961 3777
961 5185
962 962
962 2370
962 3778
962 5186
963 963
963 2371
963 3779
963 5187
964 964
964 2372
964 3780
964 5188
965 965
965 2373
965 3781
965 5189
966 966
966 2374
966 3782
966 5190
967 967
967 2375
967 3783
967 5191
968 968
968 2376
968 3784
968 5192
969 969
969 2377
969 3785
969 5193
970 970
970 2378
970 3786
970 5194
971 971
971 2379
971 3787
971 5195
972 972
972 2380
972 3788
972 5196
973 973
973 2381
973 3789
973 5197
974 974
974 2382
974 3790
974 5198
975 975
975 2383
975 3791
975 5199
976 976
976 2384
976 3792
976 5200
977 977
977 2385
977 3793
977 5201
978 978
978 2386
978 3794
978 5202
979 979
979 2387
979 3795
979 5203
980 980
980 2388
980 3796
980 5204
981 981
981 2389
981 3797
981 5205
982 982
982 2390
982 3798
982 5206
983 983
983 2391
983 3799
983 5207
984 984
984 2392
984 3800
984 5208
985 985
985 2393
985 3801
985 5209
986 986
986 2394
986 3802
986 5210
987 987
987 2395
987 3803
987 5211
988 988
988 2396
988 3804
988 5212
989 989
989 2397
989 3805
989 5213
990 990
990 2398
990 3806
990 5214
991 991
991 2399
991 3807
991 5215
992 992
992 2400
992 3808
992 5216
993 993
993 2401
993 3809
993 5217
994 994
994 2402
994 3810
994 5218
995 995
995 2403
995 3811
995 5219
996 996
996 2404
996 3812
996 5220
997 997
997 2405
997 3813
997 5221
998 998
998 2406
998 3814
998 5222
999 999
999 2407
999 3815
999 5223
1000 1000
1000 2408
1000 3816
1000 5224
1001 1001
1001 2409
1001 3817
1001 5225
1002 1002
1002 2410
1002 3818
1002 5226
1003 1003
1003 2411
1003 3819
1003 5227
1004 1004
1004 2412
1004 3820
1004 5228
1005 1005
1005 2413
1005 3821
1005 5229
1006 1006
1006 2414
1006 3822
1006 5230
1007 1007
1007 2415
1007 3823
1007 5231
1008 1008
1008 2416
1008 3824
1008 5232
1009 1009
1009 2417
1009 3825
1009 5233
1010 1010
1010 2418
1010 3826
1010 5234
1011 1011
1011 2419
1011 3827
1011 5235
1012 1012
1012 2420
1012 3828
1012 5236
1013 1013
1013 2421
1013 3829
1013 5237
1014 1014
1014 2422
1014 3830
1014 5238
1015 1015
1015 2423
1015 3831
1015 5239
1016 1016
1016 2424
1016 3832
1016 5240
1017 1017
1017 2425
1017 3833
1017 5241
1018 1018
1018 2426
1018 3834
1018 5242
1019 1019
1019 2427
1019 3835
1019 5243
1020 1020
1020 2428
1020 3836
1020 5244
1021 1021
1021 2429
1021 3837
1021 5245
1022 1022
1022 2430
1022 3838
1022 5246
1023 1023
1023 2431
1023 3839
1023 5247
1024 1024
1024 2432
1024 3840
1024 5248
1025 1025
1025 2433
1025 3841
1025 5249
1026 1026
1026 2434
1026 3842
1026 5250
1027 1027
1027 2435
1027 3843
1027 5251
1028 1028
1028 2436
1028 3844
1028 5252
1029 1029
1029 2437
1029 3845
1029 5253
1030 1030
1030 2438
1030 3846
1030 5254
1031 1031
1031 2439
1031 3847
1031 5255
1032 1032
1032 2440
1032 3848
1032 5256
1033 1033
1033 2441
1033 3849
1033 5257
1034 1034
1034 2442
1034 3850
1034 5258
1035 1035
1035 2443
1035 3851
1035 5259
1036 1036
1036 2444
1036 3852
1036 5260
1037 1037
1037 2445
1037 3853
1037 5261
1038 1038
1038 2446
1038 3854
1038 5262
1039 1039
1039 2447
1039 3855
1039 5263
1040 1040
1040 2448
1040 3856
1040 5264
1041 1041
1041 2449
1041 3857
1041 5265
1042 1042
1042 2450
1042 3858
1042 5266
1043 1043
1043 2451
1043 3859
1043 5267
1044 1044
1044 2452
1044 3860
1044 5268
1045 1045
1045 2453
1045 3861
1045 5269
1046 1046
1046 2454
1046 3862
1046 5270
1047 1047
1047 2455
1047 3863
1047 5271
1048 1048
1048 2456
1048 3864
1048 5272
1049 1049
1049 2457
1049 3865
1049 5273
1050 1050
1050 2458
1050 3866
1050 5274
1051 1051
1051 2459
1051 3867
1051 5275
1052 1052
1052 2460
1052 3868
1052 5276
1053 1053
1053 2461
1053 3869
1053 5277
1054 1054
1054 2462
1054 3870
1054 5278
1055 1055
1055 2463
1055 3871
1055 5279
1056 1056
1056 2464
1056 3872
1056 5280
1057 1057
1057 2465
1057 3873
1057 5281
1058 1058
1058 2466
1058 3874
1058 5282
1059 1059
1059 2467
1059 3875
1059 5283
1060 1060
1060 2468
1060 3876
1060 5284
1061 1061
1061 2469
1061 3877
1061 5285
1062 1062
1062 2470
1062 3878
1062 5286
1063 1063
1063 2471
1063 3879
1063 5287
1064 1064
1064 2472
1064 3880
1064 5288
1065 1065
1065 2473
1065 3881
1065 5289
1066 1066
1066 2474
1066 3882
1066 5290
1067 1067
1067 2475
1067 3883
1067 5291
1068 1068
1068 2476
1068 3884
1068 5292
1069 1069
1069 2477
1069 3885
1069 5293
1070 1070
1070 2478
1070 3886
1070 5294
1071 1071
1071 2479
1071 3887
1071 5295
1072 1072
1072 2480
1072 3888
1072 5296
1073 1073
1073 2481
1073 3889
1073 5297
1074 1074
1074 2482
1074 3890
1074 5298
1075 1075
1075 2483
1075 3891
1075 5299
1076 1076
1076 2484
1076 3892
1076 5300
1077 1077
1077 2485
1077 3893
1077 5301
1078 1078
1078 2486
1078 3894
1078 5302
1079 1079
1079 2487
1079 3895
1079 5303
1080 1080
1080 2488
1080 3896
1080 5304
1081 1081
1081 2489
1081 3897
1081 5305
1082 1082
1082 2490
1082 3898
1082 5306
1083 1083
1083 2491
1083 3899
1083 5307
1084 1084
1084 2492
1084 3900
1084 5308
1085 1085
1085 2493
1085 3901
1085 5309
1086 1086
1086 2494
1086 3902
1086 5310
1087 1087
1087 2495
1087 3903
1087 5311
1088 1088
1088 2496
1088 3904
1088 5312
1089 1089
1089 2497
1089 3905
1089 5313
1090 1090
1090 2498
1090 3906
1090 5314
1091 1091
1091 2499
1091 3907
1091 5315
1092 1092
1092 2500
1092 3908
1092 5316
1093 1093
1093 2501
1093 3909
1093 5317
1094 1094
1094 2502
1094 3910
1094 5318
1095 1095
1095 2503
1095 3911
1095 5319
1096 1096
1096 2504
1096 3912
1096 5320
1097 1097
1097 2505
1097 3913
1097 5321
1098 1098
1098 2506
1098 3914
1098 5322
1099 1099
1099 2507
1099 3915
1099 5323
1100 1100
1100 2508
1100 3916
1100 5324
1101 1101
1101 2509
1101 3917
1101 5325
1102 1102
1102 2510
1102 3918
1102 5326
1103 1103
1103 2511
1103 3919
1103 5327
1104 1104
1104 2512
1104 3920
1104 5328
1105 1105
1105 2513
1105 3921
1105 5329
1106 1106
1106 2514
1106 3922
1106 5330
1107 1107
1107 2515
1107 3923
1107 5331
1108 1108
1108 2516
1108 3924
1108 5332
1109 1109
1109 2517
1109 3925
1109 5333
1110 1110
1110 2518
1110 3926
1110 5334
1111 1111
1111 2519
1111 3927
1111 5335
1112 1112
1112 2520
1112 3928
1112 5336
1113 1113
1113 2521
1113 3929
1113 5337
1114 1114
1114 2522
1114 3930
1114 5338
1115 1115
1115 2523
1115 3931
1115 5339
1116 1116
1116 2524
1116 3932
1116 5340
1117 1117
1117 2525
1117 3933
1117 5341
1118 1118
1118 2526
1118 3934
1118 5342
1119 1119
1119 2527
1119 3935
1119 5343
1120 1120
1120 2528
1120 3936
1120 5344
1121 1121
1121 2529
1121 3937
1121 5345
1122 1122
1122 2530
1122 3938
1122 5346
1123 1123
1123 2531
1123 3939
1123 5347
1124 1124
1124 2532
1124 3940
1124 5348
1125 1125
1125 2533
1125 3941
1125 5349
1126 1126
1126 2534
1126 3942
1126 5350
1127 1127
1127 2535
1127 3943
1127 5351
1128 1128
1128 2536
1128 3944
1128 5352
1129 1129
1129 2537
1129 3945
1129 5353
1130 1130
1130 2538
1130 3946
1130 5354
1131 1131
1131 2539
1131 3947
1131 5355
1132 1132
1132 2540
1132 3948
1132 5356
1133 1133
1133 2541
1133 3949
1133 5357
1134 1134
1134 2542
1134 3950
1134 5358
1135 1135
1135 2543
1135 3951
1135 5359
1136 1136
1136 2544
1136 3952
1136 5360
1137 1137
1137 2545
1137 3953
1137 5361
1138 1138
1138 2546
1138 3954
1138 5362
1139 1139
1139 2547
1139 3955
1139 5363
1140 1140
1140 2548
1140 3956
1140 5364
1141 1141
1141 2549
1141 3957
1141 5365
1142 1142
1142 2550
1142 3958
1142 5366
1143 1143
1143 2551
1143 3959
1143 5367
1144 1144
1144 2552
1144 3960
1144 5368
1145 1145
1145 2553
1145 3961
1145 5369
1146 1146
1146 2554
1146 3962
1146 5370
1147 1147
1147 2555
1147 3963
1147 5371
1148 1148
1148 2556
1148 3964
1148 5372
1149 1149
1149 2557
1149 3965
1149 5373
1150 1150
1150 2558
1150 3966
1150 5374
1151 1151
1151 2559
1151 3967
1151 5375
1152 1152
1152 2560
1152 3968
1152 5376
1153 1153
1153 2561
1153 3969
1153 5377
1154 1154
1154 2562
1154 3970
1154 5378
1155 1155
1155 2563
1155 3971
1155 5379
1156 1156
1156 2564
1156 3972
1156 5380
1157 1157
1157 2565
1157 3973
1157 5381
1158 1158
1158 2566
1158 3974
1158 5382
1159 1159
1159 2567
1159 3975
1159 5383
1160 1160
1160 2568
1160 3976
1160 5384
1161 1161
1161 2569
1161 3977
1161 5385
1162 1162
1162 2570
1162 3978
1162 5386
1163 1163
1163 2571
1163 3979
1163 5387
1164 1164
1164 2572
1164 3980
1164 5388
1165 1165
1165 2573
1165 3981
1165 5389
1166 1166
1166 2574
1166 3982
1166 5390
1167 1167
1167 2575
1167 3983
1167 5391
1168 1168
1168 2576
1168 3984
1168 5392
1169 1169
1169 2577
1169 3985
1169 5393
1170 1170
1170 2578
1170 3986
1170 5394
1171 1171
1171 2579
1171 3987
1171 5395
1172 1172
1172 2580
1172 3988
1172 5396
1173 1173
1173 2581
1173 3989
1173 5397
1174 1174
1174 2582
1174 3990
1174 5398
1175 1175
1175 2583
1175 3991
1175 5399
1176 1176
1176 2584
1176 3992
1176 5400
1177 1177
1177 2585
1177 3993
1177 5401
1178 1178
1178 2586
1178 3994
1178 5402
1179 1179
1179 2587
1179 3995
1179 5403
1180 1180
1180 2588
1180 3996
1180 5404
1181 1181
1181 2589
1181 3997
1181 5405
1182 1182
1182 2590
1182 3998
1182 5406
1183 1183
1183 2591
1183 3999
1183 5407
1184 1184
1184 2592
1184 4000
1184 5408
1185 1185
1185 2593
1185 4001
1185 5409
1186 1186
1186 2594
1186 4002
1186 5410
1187 1187
1187 2595
1187 4003
1187 5411
1188 1188
1188 2596
1188 4004
1188 5412
1189 1189
1189 2597
1189 4005
1189 5413
1190 1190
1190 2598
1190 4006
1190 5414
1191 1191
1191 2599
1191 4007
1191 5415
1192 1192
1192 2600
1192 4008
1192 5416
1193 1193
1193 2601
1193 4009
1193 5417
1194 1194
1194 2602
1194 4010
1194 5418
1195 1195
1195 2603
1195 4011
1195 5419
1196 1196
1196 2604
1196 4012
1196 5420
1197 1197
1197 2605
1197 4013
1197 5421
1198 1198
1198 2606
1198 4014
1198 5422
1199 1199
1199 2607
1199 4015
1199 5423
1200 1200
1200 2608
1200 4016
1200 5424
1201 1201
1201 2609
1201 4017
1201 5425
1202 1202
1202 2610
1202 4018
1202 5426
1203 1203
1203 2611
1203 4019
1203 5427
1204 1204
1204 2612
1204 4020
1204 5428
1205 1205
1205 2613
1205 4021
1205 5429
1206 1206
1206 2614
1206 4022
1206 5430
1207 1207
1207 2615
1207 4023
1207 5431
1208 1208
1208 2616
1208 4024
1208 5432
1209 1209
1209 2617
1209 4025
1209 5433
1210 1210
1210 2618
1210 4026
1210 5434
1211 1211
1211 2619
1211 4027
1211 5435
1212 1212
1212 2620
1212 4028
1212 5436
1213 1213
1213 2621
1213 4029
1213 5437
1214 1214
1214 2622
1214 4030
1214 5438
1215 1215
1215 2623
1215 4031
1215 5439
1216 1216
1216 2624
1216 4032
1216 5440
1217 1217
1217 2625
1217 4033
1217 5441
1218 1218
1218 2626
1218 4034
1218 5442
1219 1219
1219 2627
1219 4035
1219 5443
1220 1220
1220 2628
1220 4036
1220 5444
1221 1221
1221 2629
1221 4037
1221 5445
1222 1222
1222 2630
1222 4038
1222 5446
1223 1223
1223 2631
1223 4039
1223 5447
1224 1224
1224 2632
1224 4040
1224 5448
1225 1225
1225 2633
1225 4041
1225 5449
1226 1226
1226 2634
1226 4042
1226 5450
1227 1227
1227 2635
1227 4043
1227 5451
1228 1228
1228 2636
1228 4044
1228 5452
1229 1229
1229 2637
1229 4045
1229 5453
1230 1230
1230 2638
1230 4046
1230 5454
1231 1231
1231 2639
1231 4047
1231 5455
1232 1232
1232 2640
1232 4048
1232 5456
1233 1233
1233 2641
1233 4049
1233 5457
1234 1234
1234 2642
1234 4050
1234 5458
1235 1235
1235 2643
1235 4051
1235 5459
1236 1236
1236 2644
1236 4052
1236 5460
1237 1237
1237 2645
1237 4053
1237 5461
1238 1238
1238 2646
1238 4054
1238 5462
1239 1239
1239 2647
1239 4055
1239 5463
1240 1240
1240 2648
1240 4056
1240 5464
1241 1241
1241 2649
1241 4057
1241 5465
1242 1242
1242 2650
1242 4058
1242 5466
1243 1243
1243 2651
1243 4059
1243 5467
1244 1244
1244 2652
1244 4060
1244 5468
1245 1245
1245 2653
1245 4061
1245 5469
1246 1246
1246 2654
1246 4062
1246 5470
1247 1247
1247 2655
1247 4063
1247 5471
1248 1248
1248 2656
1248 4064
1248 5472
1249 1249
1249 2657
1249 4065
1249 5473
1250 1250
1250 2658
1250 4066
1250 5474
1251 1251
1251 2659
1251 4067
1251 5475
1252 1252
1252 2660
1252 4068
1252 5476
1253 1253
1253 2661
1253 4069
1253 5477
1254 1254
1254 2662
1254 4070
1254 5478
1255 1255
1255 2663
1255 4071
1255 5479
1256 1256
1256 2664
1256 4072
1256 5480
1257 1257
1257 2665
1257 4073
1257 5481
1258 1258
1258 2666
1258 4074
1258 5482
1259 1259
1259 2667
1259 4075
1259 5483
1260 1260
1260 2668
1260 4076
1260 5484
1261 1261
1261 2669
1261 4077
1261 5485
1262 1262
1262 2670
1262 4078
1262 5486
1263 1263
1263 2671
1263 4079
1263 5487
1264 1264
1264 2672
1264 4080
1264 5488
1265 1265
1265 2673
1265 4081
1265 5489
1266 1266
1266 2674
1266 4082
1266 5490
1267 1267
1267 2675
1267 4083
1267 5491
1268 1268
1268 2676
1268 4084
1268 5492
1269 1269
1269 2677
1269 4085
1269 5493
1270 1270
1270 2678
1270 4086
1270 5494
1271 1271
1271 2679
1271 4087
1271 5495
1272 1272
1272 2680
1272 4088
1272 5496
1273 1273
1273 2681
1273 4089
1273 5497
1274 1274
1274 2682
1274 4090
1274 5498
1275 1275
1275 2683
1275 4091
1275 5499
1276 1276
1276 2684
1276 4092
1276 5500
1277 1277
1277 2685
1277 4093
1277 5501
1278 1278
1278 2686
1278 4094
1278 5502
1279 1279
1279 2687
1279 4095
1279 5503
1280 1280
1280 2688
1280 4096
1280 5504
1281 1281
1281 2689
1281 4097
1281 5505
1282 1282
1282 2690
1282 4098
1282 5506
1283 1283
1283 2691
1283 4099
1283 5507
1284 1284
1284 2692
1284 4100
1284 5508
1285 1285
1285 2693
1285 4101
1285 5509
1286 1286
1286 2694
1286 4102
1286 5510
1287 1287
1287 2695
1287 4103
1287 5511
1288 1288
1288 2696
1288 4104
1288 5512
1289 1289
1289 2697
1289 4105
1289 5513
1290 1290
1290 2698
1290 4106
1290 5514
1291 1291
1291 2699
1291 4107
1291 5515
1292 1292
1292 2700
1292 4108
1292 5516
1293 1293
1293 2701
1293 4109
1293 5517
1294 1294
1294 2702
1294 4110
1294 5518
1295 1295
1295 2703
1295 4111
1295 5519
1296 1296
1296 2704
1296 4112
1296 5520
1297 1297
1297 2705
1297 4113
1297 5521
1298 1298
1298 2706
1298 4114
1298 5522
1299 1299
1299 2707
1299 4115
1299 5523
1300 1300
1300 2708
1300 4116
1300 5524
1301 1301
1301 2709
1301 4117
1301 5525
1302 1302
1302 2710
1302 4118
1302 5526
1303 1303
1303 2711
1303 4119
1303 5527
1304 1304
1304 2712
1304 4120
1304 5528
1305 1305
1305 2713
1305 4121
1305 5529
1306 1306
1306 2714
1306 4122
1306 5530
1307 1307
1307 2715
1307 4123
1307 5531
1308 1308
1308 2716
1308 4124
1308 5532
1309 1309
1309 2717
1309 4125
1309 5533
1310 1310
1310 2718
1310 4126
1310 5534
1311 1311
1311 2719
1311 4127
1311 5535
1312 1312
1312 2720
1312 4128
1312 5536
1313 1313
1313 2721
1313 4129
1313 5537
1314 1314
1314 2722
1314 4130
1314 5538
1315 1315
1315 2723
1315 4131
1315 5539
1316 1316
1316 2724
1316 4132
1316 5540
1317 1317
1317 2725
1317 4133
1317 5541
1318 1318
1318 2726
1318 4134
1318 5542
1319 1319
1319 2727
1319 4135
1319 5543
1320 1320
1320 2728
1320 4136
1320 5544
1321 1321
1321 2729
1321 4137
1321 5545
1322 1322
1322 2730
1322 4138
1322 5546
1323 1323
1323 2731
1323 4139
1323 5547
1324 1324
1324 2732
1324 4140
1324 5548
1325 1325
1325 2733
1325 4141
1325 5549
1326 1326
1326 2734
1326 4142
1326 5550
1327 1327
1327 2735
1327 4143
1327 5551
1328 1328
1328 2736
1328 4144
1328 5552
1329 1329
1329 2737
1329 4145
1329 5553
1330 1330
1330 2738
1330 4146
1330 5554
1331 1331
1331 2739
1331 4147
1331 5555
1332 1332
1332 2740
1332 4148
1332 5556
1333 1333
1333 2741
1333 4149
1333 5557
1334 1334
1334 2742
1334 4150
1334 5558
1335 1335
1335 2743
1335 4151
1335 5559
1336 1336
1336 2744
1336 4152
1336 5560
1337 1337
1337 2745
1337 4153
1337 5561
1338 1338
1338 2746
1338 4154
1338 5562
1339 1339
1339 2747
1339 4155
1339 5563
1340 1340
1340 2748
1340 4156
1340 5564
1341 1341
1341 2749
1341 4157
1341 5565
1342 1342
1342 2750
1342 4158
1342 5566
1343 1343
1343 2751
1343 4159
1343 5567
1344 1344
1344 2752
1344 4160
1344 5568
1345 1345
1345 2753
1345 4161
1345 5569
1346 1346
1346 2754
1346 4162
1346 5570
1347 1347
1347 2755
1347 4163
1347 5571
1348 1348
1348 2756
1348 4164
1348 5572
1349 1349
1349 2757
1349 4165
1349 5573
1350 1350
1350 2758
1350 4166
1350 5574
1351 1351
1351 2759
1351 4167
1351 5575
1352 1352
1352 2760
1352 4168
1352 5576
1353 1353
1353 2761
1353 4169
1353 5577
1354 1354
1354 2762
1354 4170
1354 5578
1355 1355
1355 2763
1355 4171
1355 5579
1356 1356
1356 2764
1356 4172
1356 5580
1357 1357
1357 2765
1357 4173
1357 5581
1358 1358
1358 2766
1358 4174
1358 5582
1359 1359
1359 2767
1359 4175
1359 5583
1360 1360
1360 2768
1360 4176
1360 5584
1361 1361
1361 2769
1361 4177
1361 5585
1362 1362
1362 2770
1362 4178
1362 5586
1363 1363
1363 2771
1363 4179
1363 5587
1364 1364
1364 2772
1364 4180
1364 5588
1365 1365
1365 2773
1365 4181
1365 5589
1366 1366
1366 2774
1366 4182
1366 5590
1367 1367
1367 2775
1367 4183
1367 5591
1368 1368
1368 2776
1368 4184
1368 5592
1369 1369
1369 2777
1369 4185
1369 5593
1370 1370
1370 2778
1370 4186
1370 5594
1371 1371
1371 2779
1371 4187
1371 5595
1372 1372
1372 2780
1372 4188
1372 5596
1373 1373
1373 2781
1373 4189
1373 5597
1374 1374
1374 2782
1374 4190
1374 5598
1375 1375
1375 2783
1375 4191
1375 5599
1376 1376
1376 2784
1376 4192
1376 5600
1377 1377
1377 2785
1377 4193
1377 5601
1378 1378
1378 2786
1378 4194
1378 5602
1379 1379
1379 2787
1379 4195
1379 5603
1380 1380
1380 2788
1380 4196
1380 5604
1381 1381
1381 2789
1381 4197
1381 5605
1382 1382
1382 2790
1382 4198
1382 5606
1383 1383
1383 2791
1383 4199
1383 5607
1384 1384
1384 2792
1384 4200
1384 5608
1385 1385
1385 2793
1385 4201
1385 5609
1386 1386
1386 2794
1386 4202
1386 5610
1387 1387
1387 2795
1387 4203
1387 5611
1388 1388
1388 2796
1388 4204
1388 5612
1389 1389
1389 2797
1389 4205
1389 5613
1390 1390
1390 2798
1390 4206
1390 5614
1391 1391
1391 2799
1391 4207
1391 5615
1392 1392
1392 2800
1392 4208
1392 5616
1393 1393
1393 2801
1393 4209
1393 5617
1394 1394
1394 2802
1394 4210
1394 5618
1395 1395
1395 2803
1395 4211
1395 5619
1396 1396
1396 2804
1396 4212
1396 5620
1397 1397
1397 2805
1397 4213
1397 5621
1398 1398
1398 2806
1398 4214
1398 5622
1399 1399
1399 2807
1399 4215
1399 5623
1400 1400
1400 2808
1400 4216
1400 5624
1401 1401
1401 2809
1401 4217
1401 5625
1402 1402
1402 2810
1402 4218
1402 5626
1403 1403
1403 2811
1403 4219
1403 5627
1404 1404
1404 2812
1404 4220
1404 5628
1405 1405
1405 2813
1405 4221
1405 5629
1406 1406
1406 2814
1406 4222
1406 5630
1407 1407
1407 2815
1407 4223
1407 5631
1408 0
1408 2688
1408 3968
1408 5248
1409 1
1409 2689
1409 3969
1409 5249
1410 2
1410 2690
1410 3970
1410 5250
1411 3
1411 2691
1411 3971
1411 5251
1412 4
1412 2692
1412 3972
1412 5252
1413 5
1413 2693
1413 3973
1413 5253
1414 6
1414 2694
1414 3974
1414 5254
1415 7
1415 2695
1415 3975
1415 5255
1416 8
1416 2696
1416 3976
1416 5256
1417 9
1417 2697
1417 3977
1417 5257
1418 10
1418 2698
1418 3978
1418 5258
1419 11
1419 2699
1419 3979
1419 5259
1420 12
1420 2700
1420 3980
1420 5260
1421 13
1421 2701
1421 3981
1421 5261
1422 14
1422 2702
1422 3982
1422 5262
1423 15
1423 2703
1423 3983
1423 5263
1424 16
1424 2704
1424 3984
1424 5264
1425 17
1425 2705
1425 3985
1425 5265
1426 18
1426 2706
1426 3986
1426 5266
1427 19
1427 2707
1427 3987
1427 5267
1428 20
1428 2708
1428 3988
1428 5268
1429 21
1429 2709
1429 3989
1429 5269
1430 22
1430 2710
1430 3990
1430 5270
1431 23
1431 2711
1431 3991
1431 5271
1432 24
1432 2712
1432 3992
1432 5272
1433 25
1433 2713
1433 3993
1433 5273
1434 26
1434 2714
1434 3994
1434 5274
1435 27
1435 2715
1435 3995
1435 5275
1436 28
1436 2716
1436 3996
1436 5276
1437 29
1437 2717
1437 3997
1437 5277
1438 30
1438 2718
1438 3998
1438 5278
1439 31
1439 2719
1439 3999
1439 5279
1440 32
1440 2720
1440 4000
1440 5280
1441 33
1441 2721
1441 4001
1441 5281
1442 34
1442 2722
1442 4002
1442 5282
1443 35
1443 2723
1443 4003
1443 5283
1444 36
1444 2724
1444 4004
1444 5284
1445 37
1445 2725
1445 4005
1445 5285
1446 38
1446 2726
1446 4006
1446 5286
1447 39
1447 2727
1447 4007
1447 5287
1448 40
1448 2728
1448 4008
1448 5288
1449 41
1449 2729
1449 4009
1449 5289
1450 42
1450 2730
1450 4010
1450 5290
1451 43
1451 2731
1451 4011
1451 5291
1452 44
1452 2732
1452 4012
1452 5292
1453 45
1453 2733
1453 4013
1453 5293
1454 46
1454 2734
1454 4014
1454 5294
1455 47
1455 2735
1455 4015
1455 5295
1456 48
1456 2736
1456 4016
1456 5296
1457 49
1457 2737
1457 4017
1457 5297
1458 50
1458 2738
1458 4018
1458 5298
1459 51
1459 2739
1459 4019
1459 5299
1460 52
1460 2740
1460 4020
1460 5300
1461 53
1461 2741
1461 4021
1461 5301
1462 54
1462 2742
1462 4022
1462 5302
1463 55
1463 2743
1463 4023
1463 5303
1464 56
1464 2744
1464 4024
1464 5304
1465 57
1465 2745
1465 4025
1465 5305
1466 58
1466 2746
1466 4026
1466 5306
1467 59
1467 2747
1467 4027
1467 5307
1468 60
1468 2748
1468 4028
1468 5308
1469 61
1469 2749
1469 4029
1469 5309
1470 62
1470 2750
1470 4030
1470 5310
1471 63
1471 2751
1471 4031
1471 5311
1472 64
1472 2752
1472 4032
1472 5312
1473 65
1473 2753
1473 4033
1473 5313
1474 66
1474 2754
1474 4034
1474 5314
1475 67
1475 2755
1475 4035
1475 5315
1476 68
1476 2756
1476 4036
1476 5316
1477 69
1477 2757
1477 4037
1477 5317
1478 70
1478 2758
1478 4038
1478 5318
1479 71
1479 2759
1479 4039
1479 5319
1480 72
1480 2760
1480 4040
1480 5320
1481 73
1481 2761
1481 4041
1481 5321
1482 74
1482 2762
1482 4042
1482 5322
1483 75
1483 2763
1483 4043
1483 5323
1484 76
1484 2764
1484 4044
1484 5324
1485 77
1485 2765
1485 4045
1485 5325
1486 78
1486 2766
1486 4046
1486 5326
1487 79
1487 2767
1487 4047
1487 5327
1488 80
1488 2768
1488 4048
1488 5328
1489 81
1489 2769
1489 4049
1489 5329
1490 82
1490 2770
1490 4050
1490 5330
1491 83
1491 2771
1491 4051
1491 5331
1492 84
1492 2772
1492 4052
1492 5332
1493 85
1493 2773
1493 4053
1493 5333
1494 86
1494 2774
1494 4054
1494 5334
1495 87
1495 2775
1495 4055
1495 5335
1496 88
1496 2776
1496 4056
1496 5336
1497 89
1497 2777
1497 4057
1497 5337
1498 90
1498 2778
1498 4058
1498 5338
1499 91
1499 2779
1499 4059
1499 5339
1500 92
1500 2780
1500 4060
1500 5340
1501 93
1501 2781
1501 4061
1501 5341
1502 94
1502 2782
1502 4062
1502 5342
1503 95
1503 2783
1503 4063
1503 5343
1504 96
1504 2784
1504 4064
1504 5344
1505 97
1505 2785
1505 4065
1505 5345
1506 98
1506 2786
1506 4066
1506 5346
1507 99
1507 2787
1507 4067
1507 5347
1508 100
1508 2788
1508 4068
1508 5348
1509 101
1509 2789
1509 4069
1509 5349
1510 102
1510 2790
1510 4070
1510 5350
1511 103
1511 2791
1511 4071
1511 5351
1512 104
1512 2792
1512 4072
1512 5352
1513 105
1513 2793
1513 4073
1513 5353
1514 106
1514 2794
1514 4074
1514 5354
1515 107
1515 2795
1515 4075
1515 5355
1516 108
1516 2796
1516 4076
1516 5356
1517 109
1517 2797
1517 4077
1517 5357
1518 110
1518 2798
1518 4078
1518 5358
1519 111
1519 2799
1519 4079
1519 5359
1520 112
1520 2800
1520 4080
1520 5360
1521 113
1521 2801
1521 4081
1521 5361
1522 114
1522 2802
1522 4082
1522 5362
1523 115
1523 2803
1523 4083
1523 5363
1524 116
1524 2804
1524 4084
1524 5364
1525 117
1525 2805
1525 4085
1525 5365
1526 118
1526 2806
1526 4086
1526 5366
1527 119
1527 2807
1527 4087
1527 5367
1528 120
1528 2808
1528 4088
1528 5368
1529 121
1529 2809
1529 4089
1529 5369
1530 122
1530 2810
1530 4090
1530 5370
1531 123
1531 2811
1531 4091
1531 5371
1532 124
1532 2812
1532 4092
1532 5372
1533 125
1533 2813
1533 4093
1533 5373
1534 126
1534 2814
1534 4094
1534 5374
1535 127
1535 2815
1535 4095
1535 5375
1536 128
1536 1408
1536 4096
1536 5376
1537 129
1537 1409
1537 4097
1537 5377
1538 130
1538 1410
1538 4098
1538 5378
1539 131
1539 1411
1539 4099
1539 5379
1540 132
1540 1412
1540 4100
1540 5380
1541 133
1541 1413
1541 4101
1541 5381
1542 134
1542 1414
1542 4102
1542 5382
1543 135
1543 1415
1543 4103
1543 5383
1544 136
1544 1416
1544 4104
1544 5384
1545 137
1545 1417
1545 4105
1545 5385
1546 138
1546 1418
1546 4106
1546 5386
1547 139
1547 1419
1547 4107
1547 5387
1548 140
1548 1420
1548 4108
1548 5388
1549 141
1549 1421
1549 4109
1549 5389
1550 142
1550 1422
1550 4110
1550 5390
1551 143
1551 1423
1551 4111
1551 5391
1552 144
1552 1424
1552 4112
1552 5392
1553 145
1553 1425
1553 4113
1553 5393
1554 146
1554 1426
1554 4114
1554 5394
1555 147
1555 1427
1555 4115
1555 5395
1556 148
1556 1428
1556 4116
1556 5396
1557 149
1557 1429
1557 4117
1557 5397
1558 150
1558 1430
1558 4118
1558 5398
1559 151
1559 1431
1559 4119
1559 5399
1560 152
1560 1432
1560 4120
1560 5400
1561 153
1561 1433
1561 4121
1561 5401
1562 154
1562 1434
1562 4122
1562 5402
1563 155
1563 1435
1563 4123
1563 5403
1564 156
1564 1436
1564 4124
1564 5404
1565 157
1565 1437
1565 4125
1565 5405
1566 158
1566 1438
1566 4126
1566 5406
1567 159
1567 1439
1567 4127
1567 5407
1568 160
1568 1440
1568 4128
1568 5408
1569 161
1569 1441
1569 4129
1569 5409
1570 162
1570 1442
1570 4130
1570 5410
1571 163
1571 1443
1571 4131
1571 5411
1572 164
1572 1444
1572 4132
1572 5412
1573 165
1573 1445
1573 4133
1573 5413
1574 166
1574 1446
1574 4134
1574 5414
1575 167
1575 1447
1575 4135
1575 5415
1576 168
1576 1448
1576 4136
1576 5416
1577 169
1577 1449
1577 4137
1577 5417
1578 170
1578 1450
1578 4138
1578 5418
1579 171
1579 1451
1579 4139
1579 5419
1580 172
1580 1452
1580 4140
1580 5420
1581 173
1581 1453
1581 4141
1581 5421
1582 174
1582 1454
1582 4142
1582 5422
1583 175
1583 1455
1583 4143
1583 5423
1584 176
1584 1456
1584 4144
1584 5424
1585 177
1585 1457
1585 4145
1585 5425
1586 178
1586 1458
1586 4146
1586 5426
1587 179
1587 1459
1587 4147
1587 5427
1588 180
1588 1460
1588 4148
1588 5428
1589 181
1589 1461
1589 4149
1589 5429
1590 182
1590 1462
1590 4150
1590 5430
1591 183
1591 1463
1591 4151
1591 5431
1592 184
1592 1464
1592 4152
1592 5432
1593 185
1593 1465
1593 4153
1593 5433
1594 186
1594 1466
1594 4154
1594 5434
1595 187
1595 1467
1595 4155
1595 5435
1596 188
1596 1468
1596 4156
1596 5436
1597 189
1597 1469
1597 4157
1597 5437
1598 190
1598 1470
1598 4158
1598 5438
1599 191
1599 1471
1599 4159
1599 5439
1600 192
1600 1472
1600 4160
1600 5440
1601 193
1601 1473
1601 4161
1601 5441
1602 194
1602 1474
1602 4162
1602 5442
1603 195
1603 1475
1603 4163
1603 5443
1604 196
1604 1476
1604 4164
1604 5444
1605 197
1605 1477
1605 4165
1605 5445
1606 198
1606 1478
1606 4166
1606 5446
1607 199
1607 1479
1607 4167
1607 5447
1608 200
1608 1480
1608 4168
1608 5448
1609 201
1609 1481
1609 4169
1609 5449
1610 202
1610 1482
1610 4170
1610 5450
1611 203
1611 1483
1611 4171
1611 5451
1612 204
1612 1484
1612 4172
1612 5452
1613 205
1613 1485
1613 4173
1613 5453
1614 206
1614 1486
1614 4174
1614 5454
1615 207
1615 1487
1615 4175
1615 5455
1616 208
1616 1488
1616 4176
1616 5456
1617 209
1617 1489
1617 4177
1617 5457
1618 210
1618 1490
1618 4178
1618 5458
1619 211
1619 1491
1619 4179
1619 5459
1620 212
1620 1492
1620 4180
1620 5460
1621 213
1621 1493
1621 4181
1621 5461
1622 214
1622 1494
1622 4182
1622 5462
1623 215
1623 1495
1623 4183
1623 5463
1624 216
1624 1496
1624 4184
1624 5464
1625 217
1625 1497
1625 4185
1625 5465
1626 218
1626 1498
1626 4186
1626 5466
1627 219
1627 1499
1627 4187
1627 5467
1628 220
1628 1500
1628 4188
1628 5468
1629 221
1629 1501
1629 4189
1629 5469
1630 222
1630 1502
1630 4190
1630 5470
1631 223
1631 1503
1631 4191
1631 5471
1632 224
1632 1504
1632 4192
1632 5472
1633 225
1633 1505
1633 4193
1633 5473
1634 226
1634 1506
1634 4194
1634 5474
1635 227
1635 1507
1635 4195
1635 5475
1636 228
1636 1508
1636 4196
1636 5476
1637 229
1637 1509
1637 4197
1637 5477
1638 230
1638 1510
1638 4198
1638 5478
1639 231
1639 1511
1639 4199
1639 5479
1640 232
1640 1512
1640 4200
1640 5480
1641 233
1641 1513
1641 4201
1641 5481
1642 234
1642 1514
1642 4202
1642 5482
1643 235
1643 1515
1643 4203
1643 5483
1644 236
1644 1516
1644 4204
1644 5484
1645 237
1645 1517
1645 4205
1645 5485
1646 238
1646 1518
1646 4206
1646 5486
1647 239
1647 1519
1647 4207
1647 5487
1648 240
1648 1520
1648 4208
1648 5488
1649 241
1649 1521
1649 4209
1649 5489
1650 242
1650 1522
1650 4210
1650 5490
1651 243
1651 1523
1651 4211
1651 5491
1652 244
1652 1524
1652 4212
1652 5492
1653 245
1653 1525
1653 4213
1653 5493
1654 246
1654 1526
1654 4214
1654 5494
1655 247
1655 1527
1655 4215
1655 5495
1656 248
1656 1528
1656 4216
1656 5496
1657 249
1657 1529
1657 4217
1657 5497
1658 250
1658 1530
1658 4218
1658 5498
1659 251
1659 1531
1659 4219
1659 5499
1660 252
1660 1532
1660 4220
1660 5500
1661 253
1661 1533
1661 4221
1661 5501
1662 254
1662 1534
1662 4222
1662 5502
1663 255
1663 1535
1663 4223
1663 5503
1664 256
1664 1536
1664 2816
1664 5504
1665 257
1665 1537
1665 2817
1665 5505
1666 258
1666 1538
1666 2818
1666 5506
1667 259
1667 1539
1667 2819
1667 5507
1668 260
1668 1540
1668 2820
1668 5508
1669 261
1669 1541
1669 2821
1669 5509
1670 262
1670 1542
1670 2822
1670 5510
1671 263
1671 1543
1671 2823
1671 5511
1672 264
1672 1544
1672 2824
1672 5512
1673 265
1673 1545
1673 2825
1673 5513
1674 266
1674 1546
1674 2826
1674 5514
1675 267
1675 1547
1675 2827
1675 5515
1676 268
1676 1548
1676 2828
1676 5516
1677 269
1677 1549
1677 2829
1677 5517
1678 270
1678 1550
1678 2830
1678 5518
1679 271
1679 1551
1679 2831
1679 5519
1680 272
1680 1552
1680 2832
1680 5520
1681 273
1681 1553
1681 2833
1681 5521
1682 274
1682 1554
1682 2834
1682 5522
1683 275
1683 1555
1683 2835
1683 5523
1684 276
1684 1556
1684 2836
1684 5524
1685 277
1685 1557
1685 2837
1685 5525
1686 278
1686 1558
1686 2838
1686 5526
1687 279
1687 1559
1687 2839
1687 5527
1688 280
1688 1560
1688 2840
1688 5528
1689 281
1689 1561
1689 2841
1689 5529
1690 282
1690 1562
1690 2842
1690 5530
1691 283
1691 1563
1691 2843
1691 5531
1692 284
1692 1564
1692 2844
1692 5532
1693 285
1693 1565
1693 2845
1693 5533
1694 286
1694 1566
1694 2846
1694 5534
1695 287
1695 1567
1695 2847
1695 5535
1696 288
1696 1568
1696 2848
1696 5536
1697 289
1697 1569
1697 2849
1697 5537
1698 290
1698 1570
1698 2850
1698 5538
1699 291
1699 1571
1699 2851
1699 5539
1700 292
1700 1572
1700 2852
1700 5540
1701 293
1701 1573
1701 2853
1701 5541
1702 294
1702 1574
1702 2854
1702 5542
1703 295
1703 1575
1703 2855
1703 5543
1704 296
1704 1576
1704 2856
1704 5544
1705 297
1705 1577
1705 2857
1705 5545
1706 298
1706 1578
1706 2858
1706 5546
1707 299
1707 1579
1707 2859
1707 5547
1708 300
1708 1580
1708 2860
1708 5548
1709 301
1709 1581
1709 2861
1709 5549
1710 302
1710 1582
1710 2862
1710 5550
1711 303
1711 1583
1711 2863
1711 5551
1712 304
1712 1584
1712 2864
1712 5552
1713 305
1713 1585
1713 2865
1713 5553
1714 306
1714 1586
1714 2866
1714 5554
1715 307
1715 1587
1715 2867
1715 5555
1716 308
1716 1588
1716 2868
1716 5556
1717 309
1717 1589
1717 2869
1717 5557
1718 310
1718 1590
1718 2870
1718 5558
1719 311
1719 1591
1719 2871
1719 5559
1720 312
1720 1592
1720 2872
1720 5560
1721 313
1721 1593
1721 2873
1721 5561
1722 314
1722 1594
1722 2874
1722 5562
1723 315
1723 1595
1723 2875
1723 5563
1724 316
1724 1596
1724 2876
1724 5564
1725 317
1725 1597
1725 2877
1725 5565
1726 318
1726 1598
1726 2878
1726 5566
1727 319
1727 1599
1727 2879
1727 5567
1728 320
1728 1600
1728 2880
1728 5568
1729 321
1729 1601
1729 2881
1729 5569
1730 322
1730 1602
1730 2882
1730 5570
1731 323
1731 1603
1731 2883
1731 5571
1732 324
1732 1604
1732 2884
1732 5572
1733 325
1733 1605
1733 2885
1733 5573
1734 326
1734 1606
1734 2886
1734 5574
1735 327
1735 1607
1735 2887
1735 5575
1736 328
1736 1608
1736 2888
1736 5576
1737 329
1737 1609
1737 2889
1737 5577
1738 330
1738 1610
1738 2890
1738 5578
1739 331
1739 1611
1739 2891
1739 5579
1740 332
1740 1612
1740 2892
1740 5580
1741 333
1741 1613
1741 2893
1741 5581
1742 334
1742 1614
1742 2894
1742 5582
1743 335
1743 1615
1743 2895
1743 5583
1744 336
1744 1616
1744 2896
1744 5584
1745 337
1745 1617
1745 2897
1745 5585
1746 338
1746 1618
1746 2898
1746 5586
1747 339
1747 1619
1747 2899
1747 5587
1748 340
1748 1620
1748 2900
1748 5588
1749 341
1749 1621
1749 2901
1749 5589
1750 342
1750 1622
1750 2902
1750 5590
1751 343
1751 1623
1751 2903
1751 5591
1752 344
1752 1624
1752 2904
1752 5592
1753 345
1753 1625
1753 2905
1753 5593
1754 346
1754 1626
1754 2906
1754 5594
1755 347
1755 1627
1755 2907
1755 5595
1756 348
1756 1628
1756 2908
1756 5596
1757 349
1757 1629
1757 2909
1757 5597
1758 350
1758 1630
1758 2910
1758 5598
1759 351
1759 1631
1759 2911
1759 5599
1760 352
1760 1632
1760 2912
1760 5600
1761 353
1761 1633
1761 2913
1761 5601
1762 354
1762 1634
1762 2914
1762 5602
1763 355
1763 1635
1763 2915
1763 5603
1764 356
1764 1636
1764 2916
1764 5604
1765 357
1765 1637
1765 2917
1765 5605
1766 358
1766 1638
1766 2918
1766 5606
1767 359
1767 1639
1767 2919
1767 5607
1768 360
1768 1640
1768 2920
1768 5608
1769 361
1769 1641
1769 2921
1769 5609
1770 362
1770 1642
1770 2922
1770 5610
1771 363
1771 1643
1771 2923
1771 5611
1772 364
1772 1644
1772 2924
1772 5612
1773 365
1773 1645
1773 2925
1773 5613
1774 366
1774 1646
1774 2926
1774 5614
1775 367
1775 1647
1775 2927
1775 5615
1776 368
1776 1648
1776 2928
1776 5616
1777 369
1777 1649
1777 2929
1777 5617
1778 370
1778 1650
1778 2930
1778 5618
1779 371
1779 1651
1779 2931
1779 5619
1780 372
1780 1652
1780 2932
1780 5620
1781 373
1781 1653
1781 2933
1781 5621
1782 374
1782 1654
1782 2934
1782 5622
1783 375
1783 1655
1783 2935
1783 5623
1784 376
1784 1656
1784 2936
1784 5624
1785 377
1785 1657
1785 2937
1785 5625
1786 378
1786 1658
1786 2938
1786 5626
1787 379
1787 1659
1787 2939
1787 5627
1788 380
1788 1660
1788 2940
1788 5628
1789 381
1789 1661
1789 2941
1789 5629
1790 382
1790 1662
1790 2942
1790 5630
1791 383
1791 1663
1791 2943
1791 5631
1792 384
1792 1664
1792 2944
1792 4224
1793 385
1793 1665
1793 2945
1793 4225
1794 386
1794 1666
1794 2946
1794 4226
1795 387
1795 1667
1795 2947
1795 4227
1796 388
1796 1668
1796 2948
1796 4228
1797 389
1797 1669
1797 2949
1797 4229
1798 390
1798 1670
1798 2950
1798 4230
1799 391
1799 1671
1799 2951
1799 4231
1800 392
1800 1672
1800 2952
1800 4232
1801 393
1801 1673
1801 2953
1801 4233
1802 394
1802 1674
1802 2954
1802 4234
1803 395
1803 1675
1803 2955
1803 4235
1804 396
1804 1676
1804 2956
1804 4236
1805 397
1805 1677
1805 2957
1805 4237
1806 398
1806 1678
1806 2958
1806 4238
1807 399
1807 1679
1807 2959
1807 4239
1808 400
1808 1680
1808 2960
1808 4240
1809 401
1809 1681
1809 2961
1809 4241
1810 402
1810 1682
1810 2962
1810 4242
1811 403
1811 1683
1811 2963
1811 4243
1812 404
1812 1684
1812 2964
1812 4244
1813 405
1813 1685
1813 2965
1813 4245
1814 406
1814 1686
1814 2966
1814 4246
1815 407
1815 1687
1815 2967
1815 4247
1816 408
1816 1688
1816 2968
1816 4248
1817 409
1817 1689
1817 2969
1817 4249
1818 410
1818 1690
1818 2970
1818 4250
1819 411
1819 1691
1819 2971
1819 4251
1820 412
1820 1692
1820 2972
1820 4252
1821 413
1821 1693
1821 2973
1821 4253
1822 414
1822 1694
1822 2974
1822 4254
1823 415
1823 1695
1823 2975
1823 4255
1824 416
1824 1696
1824 2976
1824 4256
1825 417
1825 1697
1825 2977
1825 4257
1826 418
1826 1698
1826 2978
1826 4258
1827 419
1827 1699
1827 2979
1827 4259
1828 420
1828 1700
1828 2980
1828 4260
1829 421
1829 1701
1829 2981
1829 4261
1830 422
1830 1702
1830 2982
1830 4262
1831 423
1831 1703
1831 2983
1831 4263
1832 424
1832 1704
1832 2984
1832 4264
1833 425
1833 1705
1833 2985
1833 4265
1834 426
1834 1706
1834 2986
1834 4266
1835 427
1835 1707
1835 2987
1835 4267
1836 428
1836 1708
1836 2988
1836 4268
1837 429
1837 1709
1837 2989
1837 4269
1838 430
1838 1710
1838 2990
1838 4270
1839 431
1839 1711
1839 2991
1839 4271
1840 432
1840 1712
1840 2992
1840 4272
1841 433
1841 1713
1841 2993
1841 4273
1842 434
1842 1714
1842 2994
1842 4274
1843 435
1843 1715
1843 2995
1843 4275
1844 436
1844 1716
1844 2996
1844 4276
1845 437
1845 1717
1845 2997
1845 4277
1846 438
1846 1718
1846 2998
1846 4278
1847 439
1847 1719
1847 2999
1847 4279
1848 440
1848 1720
1848 3000
1848 4280
1849 441
1849 1721
1849 3001
1849 4281
1850 442
1850 1722
1850 3002
1850 4282
1851 443
1851 1723
1851 3003
1851 4283
1852 444
1852 1724
1852 3004
1852 4284
1853 445
1853 1725
1853 3005
1853 4285
1854 446
1854 1726
1854 3006
1854 4286
1855 447
1855 1727
1855 3007
1855 4287
1856 448
1856 1728
1856 3008
1856 4288
1857 449
1857 1729
1857 3009
1857 4289
1858 450
1858 1730
1858 3010
1858 4290
1859 451
1859 1731
1859 3011
1859 4291
1860 452
1860 1732
1860 3012
1860 4292
1861 453
1861 1733
1861 3013
1861 4293
1862 454
1862 1734
1862 3014
1862 4294
1863 455
1863 1735
1863 3015
1863 4295
1864 456
1864 1736
1864 3016
1864 4296
1865 457
1865 1737
1865 3017
1865 4297
1866 458
1866 1738
1866 3018
1866 4298
1867 459
1867 1739
1867 3019
1867 4299
1868 460
1868 1740
1868 3020
1868 4300
1869 461
1869 1741
1869 3021
1869 4301
1870 462
1870 1742
1870 3022
1870 4302
1871 463
1871 1743
1871 3023
1871 4303
1872 464
1872 1744
1872 3024
1872 4304
1873 465
1873 1745
1873 3025
1873 4305
1874 466
1874 1746
1874 3026
1874 4306
1875 467
1875 1747
1875 3027
1875 4307
1876 468
1876 1748
1876 3028
1876 4308
1877 469
1877 1749
1877 3029
1877 4309
1878 470
1878 1750
1878 3030
1878 4310
1879 471
1879 1751
1879 3031
1879 4311
1880 472
1880 1752
1880 3032
1880 4312
1881 473
1881 1753
1881 3033
1881 4313
1882 474
1882 1754
1882 3034
1882 4314
1883 475
1883 1755
1883 3035
1883 4315
1884 476
1884 1756
1884 3036
1884 4316
1885 477
1885 1757
1885 3037
1885 4317
1886 478
1886 1758
1886 3038
1886 4318
1887 479
1887 1759
1887 3039
1887 4319
1888 480
1888 1760
1888 3040
1888 4320
1889 481
1889 1761
1889 3041
1889 4321
1890 482
1890 1762
1890 3042
1890 4322
1891 483
1891 1763
1891 3043
1891 4323
1892 484
1892 1764
1892 3044
1892 4324
1893 485
1893 1765
1893 3045
1893 4325
1894 486
1894 1766
1894 3046
1894 4326
1895 487
1895 1767
1895 3047
1895 4327
1896 488
1896 1768
1896 3048
1896 4328
1897 489
1897 1769
1897 3049
1897 4329
1898 490
1898 1770
1898 3050
1898 4330
1899 491
1899 1771
1899 3051
1899 4331
1900 492
1900 1772
1900 3052
1900 4332
1901 493
1901 1773
1901 3053
1901 4333
1902 494
1902 1774
1902 3054
1902 4334
1903 495
1903 1775
1903 3055
1903 4335
1904 496
1904 1776
1904 3056
1904 4336
1905 497
1905 1777
1905 3057
1905 4337
1906 498
1906 1778
1906 3058
1906 4338
1907 499
1907 1779
1907 3059
1907 4339
1908 500
1908 1780
1908 3060
1908 4340
1909 501
1909 1781
1909 3061
1909 4341
1910 502
1910 1782
1910 3062
1910 4342
1911 503
1911 1783
1911 3063
1911 4343
1912 504
1912 1784
1912 3064
1912 4344
1913 505
1913 1785
1913 3065
1913 4345
1914 506
1914 1786
1914 3066
1914 4346
1915 507
1915 1787
1915 3067
1915 4347
1916 508
1916 1788
1916 3068
1916 4348
1917 509
1917 1789
1917 3069
1917 4349
1918 510
1918 1790
1918 3070
1918 4350
1919 511
1919 1791
1919 3071
1919 4351
1920 512
1920 1792
1920 3072
1920 4352
1921 513
1921 1793
1921 3073
1921 4353
1922 514
1922 1794
1922 3074
1922 4354
1923 515
1923 1795
1923 3075
1923 4355
1924 516
1924 1796
1924 3076
1924 4356
1925 517
1925 1797
1925 3077
1925 4357
1926 518
1926 1798
1926 3078
1926 4358
1927 519
1927 1799
1927 3079
1927 4359
1928 520
1928 1800
1928 3080
1928 4360
1929 521
1929 1801
1929 3081
1929 4361
1930 522
1930 1802
1930 3082
1930 4362
1931 523
1931 1803
1931 3083
1931 4363
1932 524
1932 1804
1932 3084
1932 4364
1933 525
1933 1805
1933 3085
1933 4365
1934 526
1934 1806
1934 3086
1934 4366
1935 527
1935 1807
1935 3087
1935 4367
1936 528
1936 1808
1936 3088
1936 4368
1937 529
1937 1809
1937 3089
1937 4369
1938 530
1938 1810
1938 3090
1938 4370
1939 531
1939 1811
1939 3091
1939 4371
1940 532
1940 1812
1940 3092
1940 4372
1941 533
1941 1813
1941 3093
1941 4373
1942 534
1942 1814
1942 3094
1942 4374
1943 535
1943 1815
1943 3095
1943 4375
1944 536
1944 1816
1944 3096
1944 4376
1945 537
1945 1817
1945 3097
1945 4377
1946 538
1946 1818
1946 3098
1946 4378
1947 539
1947 1819
1947 3099
1947 4379
1948 540
1948 1820
1948 3100
1948 4380
1949 541
1949 1821
1949 3101
1949 4381
1950 542
1950 1822
1950 3102
1950 4382
1951 543
1951 1823
1951 3103
1951 4383
1952 544
1952 1824
1952 3104
1952 4384
1953 545
1953 1825
1953 3105
1953 4385
1954 546
1954 1826
1954 3106
1954 4386
1955 547
1955 1827
1955 3107
1955 4387
1956 548
1956 1828
1956 3108
1956 4388
1957 549
1957 1829
1957 3109
1957 4389
1958 550
1958 1830
1958 3110
1958 4390
1959 551
1959 1831
1959 3111
1959 4391
1960 552
1960 1832
1960 3112
1960 4392
1961 553
1961 1833
1961 3113
1961 4393
1962 554
1962 1834
1962 3114
1962 4394
1963 555
1963 1835
1963 3115
1963 4395
1964 556
1964 1836
1964 3116
1964 4396
1965 557
1965 1837
1965 3117
1965 4397
1966 558
1966 1838
1966 3118
1966 4398
1967 559
1967 1839
1967 3119
1967 4399
1968 560
1968 1840
1968 3120
1968 4400
1969 561
1969 1841
1969 3121
1969 4401
1970 562
1970 1842
1970 3122
1970 4402
1971 563
1971 1843
1971 3123
1971 4403
1972 564
1972 1844
1972 3124
1972 4404
1973 565
1973 1845
1973 3125
1973 4405
1974 566
1974 1846
1974 3126
1974 4406
1975 567
1975 1847
1975 3127
1975 4407
1976 568
1976 1848
1976 3128
1976 4408
1977 569
1977 1849
1977 3129
1977 4409
1978 570
1978 1850
1978 3130
1978 4410
1979 571
1979 1851
1979 3131
1979 4411
1980 572
1980 1852
1980 3132
1980 4412
1981 573
1981 1853
1981 3133
1981 4413
1982 574
1982 1854
1982 3134
1982 4414
1983 575
1983 1855
1983 3135
1983 4415
1984 576
1984 1856
1984 3136
1984 4416
1985 577
1985 1857
1985 3137
1985 4417
1986 578
1986 1858
1986 3138
1986 4418
1987 579
1987 1859
1987 3139
1987 4419
1988 580
1988 1860
1988 3140
1988 4420
1989 581
1989 1861
1989 3141
1989 4421
1990 582
1990 1862
1990 3142
1990 4422
1991 583
1991 1863
1991 3143
1991 4423
1992 584
1992 1864
1992 3144
1992 4424
1993 585
1993 1865
1993 3145
1993 4425
1994 586
1994 1866
1994 3146
1994 4426
1995 587
1995 1867
1995 3147
1995 4427
1996 588
1996 1868
1996 3148
1996 4428
1997 589
1997 1869
1997 3149
1997 4429
1998 590
1998 1870
1998 3150
1998 4430
1999 591
1999 1871
1999 3151
1999 4431
2000 592
2000 1872
2000 3152
2000 4432
2001 593
2001 1873
2001 3153
2001 4433
2002 594
2002 1874
2002 3154
2002 4434
2003 595
2003 1875
2003 3155
2003 4435
2004 596
2004 1876
2004 3156
2004 4436
2005 597
2005 1877
2005 3157
2005 4437
2006 598
2006 1878
2006 3158
2006 4438
2007 599
2007 1879
2007 3159
2007 4439
2008 600
2008 1880
2008 3160
2008 4440
2009 601
2009 1881
2009 3161
2009 4441
2010 602
2010 1882
2010 3162
2010 4442
2011 603
2011 1883
2011 3163
2011 4443
2012 604
2012 1884
2012 3164
2012 4444
2013 605
2013 1885
2013 3165
2013 4445
2014 606
2014 1886
2014 3166
2014 4446
2015 607
2015 1887
2015 3167
2015 4447
2016 608
2016 1888
2016 3168
2016 4448
2017 609
2017 1889
2017 3169
2017 4449
2018 610
2018 1890
2018 3170
2018 4450
2019 611
2019 1891
2019 3171
2019 4451
2020 612
2020 1892
2020 3172
2020 4452
2021 613
2021 1893
2021 3173
2021 4453
2022 614
2022 1894
2022 3174
2022 4454
2023 615
2023 1895
2023 3175
2023 4455
2024 616
2024 1896
2024 3176
2024 4456
2025 617
2025 1897
2025 3177
2025 4457
2026 618
2026 1898
2026 3178
2026 4458
2027 619
2027 1899
2027 3179
2027 4459
2028 620
2028 1900
2028 3180
2028 4460
2029 621
2029 1901
2029 3181
2029 4461
2030 622
2030 1902
2030 3182
2030 4462
2031 623
2031 1903
2031 3183
2031 4463
2032 624
2032 1904
2032 3184
2032 4464
2033 625
2033 1905
2033 3185
2033 4465
2034 626
2034 1906
2034 3186
2034 4466
2035 627
2035 1907
2035 3187
2035 4467
2036 628
2036 1908
2036 3188
2036 4468
2037 629
2037 1909
2037 3189
2037 4469
2038 630
2038 1910
2038 3190
2038 4470
2039 631
2039 1911
2039 3191
2039 4471
2040 632
2040 1912
2040 3192
2040 4472
2041 633
2041 1913
2041 3193
2041 4473
2042 634
2042 1914
2042 3194
2042 4474
2043 635
2043 1915
2043 3195
2043 4475
2044 636
2044 1916
2044 3196
2044 4476
2045 637
2045 1917
2045 3197
2045 4477
2046 638
2046 1918
2046 3198
2046 4478
2047 639
2047 1919
2047 3199
2047 4479
2048 640
2048 1920
2048 3200
2048 4480
2049 641
2049 1921
2049 3201
2049 4481
2050 642
2050 1922
2050 3202
2050 4482
2051 643
2051 1923
2051 3203
2051 4483
2052 644
2052 1924
2052 3204
2052 4484
2053 645
2053 1925
2053 3205
2053 4485
2054 646
2054 1926
2054 3206
2054 4486
2055 647
2055 1927
2055 3207
2055 4487
2056 648
2056 1928
2056 3208
2056 4488
2057 649
2057 1929
2057 3209
2057 4489
2058 650
2058 1930
2058 3210
2058 4490
2059 651
2059 1931
2059 3211
2059 4491
2060 652
2060 1932
2060 3212
2060 4492
2061 653
2061 1933
2061 3213
2061 4493
2062 654
2062 1934
2062 3214
2062 4494
2063 655
2063 1935
2063 3215
2063 4495
2064 656
2064 1936
2064 3216
2064 4496
2065 657
2065 1937
2065 3217
2065 4497
2066 658
2066 1938
2066 3218
2066 4498
2067 659
2067 1939
2067 3219
2067 4499
2068 660
2068 1940
2068 3220
2068 4500
2069 661
2069 1941
2069 3221
2069 4501
2070 662
2070 1942
2070 3222
2070 4502
2071 663
2071 1943
2071 3223
2071 4503
2072 664
2072 1944
2072 3224
2072 4504
2073 665
2073 1945
2073 3225
2073 4505
2074 666
2074 1946
2074 3226
2074 4506
2075 667
2075 1947
2075 3227
2075 4507
2076 668
2076 1948
2076 3228
2076 4508
2077 669
2077 1949
2077 3229
2077 4509
2078 670
2078 1950
2078 3230
2078 4510
2079 671
2079 1951
2079 3231
2079 4511
2080 672
2080 1952
2080 3232
2080 4512
2081 673
2081 1953
2081 3233
2081 4513
2082 674
2082 1954
2082 3234
2082 4514
2083 675
2083 1955
2083 3235
2083 4515
2084 676
2084 1956
2084 3236
2084 4516
2085 677
2085 1957
2085 3237
2085 4517
2086 678
2086 1958
2086 3238
2086 4518
2087 679
2087 1959
2087 3239
2087 4519
2088 680
2088 1960
2088 3240
2088 4520
2089 681
2089 1961
2089 3241
2089 4521
2090 682
2090 1962
2090 3242
2090 4522
2091 683
2091 1963
2091 3243
2091 4523
2092 684
2092 1964
2092 3244
2092 4524
2093 685
2093 1965
2093 3245
2093 4525
2094 686
2094 1966
2094 3246
2094 4526
2095 687
2095 1967
2095 3247
2095 4527
2096 688
2096 1968
2096 3248
2096 4528
2097 689
2097 1969
2097 3249
2097 4529
2098 690
2098 1970
2098 3250
2098 4530
2099 691
2099 1971
2099 3251
2099 4531
2100 692
2100 1972
2100 3252
2100 4532
2101 693
2101 1973
2101 3253
2101 4533
2102 694
2102 1974
2102 3254
2102 4534
2103 695
2103 1975
2103 3255
2103 4535
2104 696
2104 1976
2104 3256
2104 4536
2105 697
2105 1977
2105 3257
2105 4537
2106 698
2106 1978
2106 3258
2106 4538
2107 699
2107 1979
2107 3259
2107 4539
2108 700
2108 1980
2108 3260
2108 4540
2109 701
2109 1981
2109 3261
2109 4541
2110 702
2110 1982
2110 3262
2110 4542
2111 703
2111 1983
2111 3263
2111 4543
2112 704
2112 1984
2112 3264
2112 4544
2113 705
2113 1985
2113 3265
2113 4545
2114 706
2114 1986
2114 3266
2114 4546
2115 707
2115 1987
2115 3267
2115 4547
2116 708
2116 1988
2116 3268
2116 4548
2117 709
2117 1989
2117 3269
2117 4549
2118 710
2118 1990
2118 3270
2118 4550
2119 711
2119 1991
2119 3271
2119 4551
2120 712
2120 1992
2120 3272
2120 4552
2121 713
2121 1993
2121 3273
2121 4553
2122 714
2122 1994
2122 3274
2122 4554
2123 715
2123 1995
2123 3275
2123 4555
2124 716
2124 1996
2124 3276
2124 4556
2125 717
2125 1997
2125 3277
2125 4557
2126 718
2126 1998
2126 3278
2126 4558
2127 719
2127 1999
2127 3279
2127 4559
2128 720
2128 2000
2128 3280
2128 4560
2129 721
2129 2001
2129 3281
2129 4561
2130 722
2130 2002
2130 3282
2130 4562
2131 723
2131 2003
2131 3283
2131 4563
2132 724
2132 2004
2132 3284
2132 4564
2133 725
2133 2005
2133 3285
2133 4565
2134 726
2134 2006
2134 3286
2134 4566
2135 727
2135 2007
2135 3287
2135 4567
2136 728
2136 2008
2136 3288
2136 4568
2137 729
2137 2009
2137 3289
2137 4569
2138 730
2138 2010
2138 3290
2138 4570
2139 731
2139 2011
2139 3291
2139 4571
2140 732
2140 2012
2140 3292
2140 4572
2141 733
2141 2013
2141 3293
2141 4573
2142 734
2142 2014
2142 3294
2142 4574
2143 735
2143 2015
2143 3295
2143 4575
2144 736
2144 2016
2144 3296
2144 4576
2145 737
2145 2017
2145 3297
2145 4577
2146 738
2146 2018
2146 3298
2146 4578
2147 739
2147 2019
2147 3299
2147 4579
2148 740
2148 2020
2148 3300
2148 4580
2149 741
2149 2021
2149 3301
2149 4581
2150 742
2150 2022
2150 3302
2150 4582
2151 743
2151 2023
2151 3303
2151 4583
2152 744
2152 2024
2152 3304
2152 4584
2153 745
2153 2025
2153 3305
2153 4585
2154 746
2154 2026
2154 3306
2154 4586
2155 747
2155 2027
2155 3307
2155 4587
2156 748
2156 2028
2156 3308
2156 4588
2157 749
2157 2029
2157 3309
2157 4589
2158 750
2158 2030
2158 3310
2158 4590
2159 751
2159 2031
2159 3311
2159 4591
2160 752
2160 2032
2160 3312
2160 4592
2161 753
2161 2033
2161 3313
2161 4593
2162 754
2162 2034
2162 3314
2162 4594
2163 755
2163 2035
2163 3315
2163 4595
2164 756
2164 2036
2164 3316
2164 4596
2165 757
2165 2037
2165 3317
2165 4597
2166 758
2166 2038
2166 3318
2166 4598
2167 759
2167 2039
2167 3319
2167 4599
2168 760
2168 2040
2168 3320
2168 4600
2169 761
2169 2041
2169 3321
2169 4601
2170 762
2170 2042
2170 3322
2170 4602
2171 763
2171 2043
2171 3323
2171 4603
2172 764
2172 2044
2172 3324
2172 4604
2173 765
2173 2045
2173 3325
2173 4605
2174 766
2174 2046
2174 3326
2174 4606
2175 767
2175 2047
2175 3327
2175 4607
2176 768
2176 2048
2176 3328
2176 4608
2177 769
2177 2049
2177 3329
2177 4609
2178 770
2178 2050
2178 3330
2178 4610
2179 771
2179 2051
2179 3331
2179 4611
2180 772
2180 2052
2180 3332
2180 4612
2181 773
2181 2053
2181 3333
2181 4613
2182 774
2182 2054
2182 3334
2182 4614
2183 775
2183 2055
2183 3335
2183 4615
2184 776
2184 2056
2184 3336
2184 4616
2185 777
2185 2057
2185 3337
2185 4617
2186 778
2186 2058
2186 3338
2186 4618
2187 779
2187 2059
2187 3339
2187 4619
2188 780
2188 2060
2188 3340
2188 4620
2189 781
2189 2061
2189 3341
2189 4621
2190 782
2190 2062
2190 3342
2190 4622
2191 783
2191 2063
2191 3343
2191 4623
2192 784
2192 2064
2192 3344
2192 4624
2193 785
2193 2065
2193 3345
2193 4625
2194 786
2194 2066
2194 3346
2194 4626
2195 787
2195 2067
2195 3347
2195 4627
2196 788
2196 2068
2196 3348
2196 4628
2197 789
2197 2069
2197 3349
2197 4629
2198 790
2198 2070
2198 3350
2198 4630
2199 791
2199 2071
2199 3351
2199 4631
2200 792
2200 2072
2200 3352
2200 4632
2201 793
2201 2073
2201 3353
2201 4633
2202 794
2202 2074
2202 3354
2202 4634
2203 795
2203 2075
2203 3355
2203 4635
2204 796
2204 2076
2204 3356
2204 4636
2205 797
2205 2077
2205 3357
2205 4637
2206 798
2206 2078
2206 3358
2206 4638
2207 799
2207 2079
2207 3359
2207 4639
2208 800
2208 2080
2208 3360
2208 4640
2209 801
2209 2081
2209 3361
2209 4641
2210 802
2210 2082
2210 3362
2210 4642
2211 803
2211 2083
2211 3363
2211 4643
2212 804
2212 2084
2212 3364
2212 4644
2213 805
2213 2085
2213 3365
2213 4645
2214 806
2214 2086
2214 3366
2214 4646
2215 807
2215 2087
2215 3367
2215 4647
2216 808
2216 2088
2216 3368
2216 4648
2217 809
2217 2089
2217 3369
2217 4649
2218 810
2218 2090
2218 3370
2218 4650
2219 811
2219 2091
2219 3371
2219 4651
2220 812
2220 2092
2220 3372
2220 4652
2221 813
2221 2093
2221 3373
2221 4653
2222 814
2222 2094
2222 3374
2222 4654
2223 815
2223 2095
2223 3375
2223 4655
2224 816
2224 2096
2224 3376
2224 4656
2225 817
2225 2097
2225 3377
2225 4657
2226 818
2226 2098
2226 3378
2226 4658
2227 819
2227 2099
2227 3379
2227 4659
2228 820
2228 2100
2228 3380
2228 4660
2229 821
2229 2101
2229 3381
2229 4661
2230 822
2230 2102
2230 3382
2230 4662
2231 823
2231 2103
2231 3383
2231 4663
2232 824
2232 2104
2232 3384
2232 4664
2233 825
2233 2105
2233 3385
2233 4665
2234 826
2234 2106
2234 3386
2234 4666
2235 827
2235 2107
2235 3387
2235 4667
2236 828
2236 2108
2236 3388
2236 4668
2237 829
2237 2109
2237 3389
2237 4669
2238 830
2238 2110
2238 3390
2238 4670
2239 831
2239 2111
2239 3391
2239 4671
2240 832
2240 2112
2240 3392
2240 4672
2241 833
2241 2113
2241 3393
2241 4673
2242 834
2242 2114
2242 3394
2242 4674
2243 835
2243 2115
2243 3395
2243 4675
2244 836
2244 2116
2244 3396
2244 4676
2245 837
2245 2117
2245 3397
2245 4677
2246 838
2246 2118
2246 3398
2246 4678
2247 839
2247 2119
2247 3399
2247 4679
2248 840
2248 2120
2248 3400
2248 4680
2249 841
2249 2121
2249 3401
2249 4681
2250 842
2250 2122
2250 3402
2250 4682
2251 843
2251 2123
2251 3403
2251 4683
2252 844
2252 2124
2252 3404
2252 4684
2253 845
2253 2125
2253 3405
2253 4685
2254 846
2254 2126
2254 3406
2254 4686
2255 847
2255 2127
2255 3407
2255 4687
2256 848
2256 2128
2256 3408
2256 4688
2257 849
2257 2129
2257 3409
2257 4689
2258 850
2258 2130
2258 3410
2258 4690
2259 851
2259 2131
2259 3411
2259 4691
2260 852
2260 2132
2260 3412
2260 4692
2261 853
2261 2133
2261 3413
2261 4693
2262 854
2262 2134
2262 3414
2262 4694
2263 855
2263 2135
2263 3415
2263 4695
2264 856
2264 2136
2264 3416
2264 4696
2265 857
2265 2137
2265 3417
2265 4697
2266 858
2266 2138
2266 3418
2266 4698
2267 859
2267 2139
2267 3419
2267 4699
2268 860
2268 2140
2268 3420
2268 4700
2269 861
2269 2141
2269 3421
2269 4701
2270 862
2270 2142
2270 3422
2270 4702
2271 863
2271 2143
2271 3423
2271 4703
2272 864
2272 2144
2272 3424
2272 4704
2273 865
2273 2145
2273 3425
2273 4705
2274 866
2274 2146
2274 3426
2274 4706
2275 867
2275 2147
2275 3427
2275 4707
2276 868
2276 2148
2276 3428
2276 4708
2277 869
2277 2149
2277 3429
2277 4709
2278 870
2278 2150
2278 3430
2278 4710
2279 871
2279 2151
2279 3431
2279 4711
2280 872
2280 2152
2280 3432
2280 4712
2281 873
2281 2153
2281 3433
2281 4713
2282 874
2282 2154
2282 3434
2282 4714
2283 875
2283 2155
2283 3435
2283 4715
2284 876
2284 2156
2284 3436
2284 4716
2285 877
2285 2157
2285 3437
2285 4717
2286 878
2286 2158
2286 3438
2286 4718
2287 879
2287 2159
2287 3439
2287 4719
2288 880
2288 2160
2288 3440
2288 4720
2289 881
2289 2161
2289 3441
2289 4721
2290 882
2290 2162
2290 3442
2290 4722
2291 883
2291 2163
2291 3443
2291 4723
2292 884
2292 2164
2292 3444
2292 4724
2293 885
2293 2165
2293 3445
2293 4725
2294 886
2294 2166
2294 3446
2294 4726
2295 887
2295 2167
2295 3447
2295 4727
2296 888
2296 2168
2296 3448
2296 4728
2297 889
2297 2169
2297 3449
2297 4729
2298 890
2298 2170
2298 3450
2298 4730
2299 891
2299 2171
2299 3451
2299 4731
2300 892
2300 2172
2300 3452
2300 4732
2301 893
2301 2173
2301 3453
2301 4733
2302 894
2302 2174
2302 3454
2302 4734
2303 895
2303 2175
2303 3455
2303 4735
2304 896
2304 2176
2304 3456
2304 4736
2305 897
2305 2177
2305 3457
2305 4737
2306 898
2306 2178
2306 3458
2306 4738
2307 899
2307 2179
2307 3459
2307 4739
2308 900
2308 2180
2308 3460
2308 4740
2309 901
2309 2181
2309 3461
2309 4741
2310 902
2310 2182
2310 3462
2310 4742
2311 903
2311 2183
2311 3463
2311 4743
2312 904
2312 2184
2312 3464
2312 4744
2313 905
2313 2185
2313 3465
2313 4745
2314 906
2314 2186
2314 3466
2314 4746
2315 907
2315 2187
2315 3467
2315 4747
2316 908
2316 2188
2316 3468
2316 4748
2317 909
2317 2189
2317 3469
2317 4749
2318 910
2318 2190
2318 3470
2318 4750
2319 911
2319 2191
2319 3471
2319 4751
2320 912
2320 2192
2320 3472
2320 4752
2321 913
2321 2193
2321 3473
2321 4753
2322 914
2322 2194
2322 3474
2322 4754
2323 915
2323 2195
2323 3475
2323 4755
2324 916
2324 2196
2324 3476
2324 4756
2325 917
2325 2197
2325 3477
2325 4757
2326 918
2326 2198
2326 3478
2326 4758
2327 919
2327 2199
2327 3479
2327 4759
2328 920
2328 2200
2328 3480
2328 4760
2329 921
2329 2201
2329 3481
2329 4761
2330 922
2330 2202
2330 3482
2330 4762
2331 923
2331 2203
2331 3483
2331 4763
2332 924
2332 2204
2332 3484
2332 4764
2333 925
2333 2205
2333 3485
2333 4765
2334 926
2334 2206
2334 3486
2334 4766
2335 927
2335 2207
2335 3487
2335 4767
2336 928
2336 2208
2336 3488
2336 4768
2337 929
2337 2209
2337 3489
2337 4769
2338 930
2338 2210
2338 3490
2338 4770
2339 931
2339 2211
2339 3491
2339 4771
2340 932
2340 2212
2340 3492
2340 4772
2341 933
2341 2213
2341 3493
2341 4773
2342 934
2342 2214
2342 3494
2342 4774
2343 935
2343 2215
2343 3495
2343 4775
2344 936
2344 2216
2344 3496
2344 4776
2345 937
2345 2217
2345 3497
2345 4777
2346 938
2346 2218
2346 3498
2346 4778
2347 939
2347 2219
2347 3499
2347 4779
2348 940
2348 2220
2348 3500
2348 4780
2349 941
2349 2221
2349 3501
2349 4781
2350 942
2350 2222
2350 3502
2350 4782
2351 943
2351 2223
2351 3503
2351 4783
2352 944
2352 2224
2352 3504
2352 4784
2353 945
2353 2225
2353 3505
2353 4785
2354 946
2354 2226
2354 3506
2354 4786
2355 947
2355 2227
2355 3507
2355 4787
2356 948
2356 2228
2356 3508
2356 4788
2357 949
2357 2229
2357 3509
2357 4789
2358 950
2358 2230
2358 3510
2358 4790
2359 951
2359 2231
2359 3511
2359 4791
2360 952
2360 2232
2360 3512
2360 4792
2361 953
2361 2233
2361 3513
2361 4793
2362 954
2362 2234
2362 3514
2362 4794
2363 955
2363 2235
2363 3515
2363 4795
2364 956
2364 2236
2364 3516
2364 4796
2365 957
2365 2237
2365 3517
2365 4797
2366 958
2366 2238
2366 3518
2366 4798
2367 959
2367 2239
2367 3519
2367 4799
2368 960
2368 2240
2368 3520
2368 4800
2369 961
2369 2241
2369 3521
2369 4801
2370 962
2370 2242
2370 3522
2370 4802
2371 963
2371 2243
2371 3523
2371 4803
2372 964
2372 2244
2372 3524
2372 4804
2373 965
2373 2245
2373 3525
2373 4805
2374 966
2374 2246
2374 3526
2374 4806
2375 967
2375 2247
2375 3527
2375 4807
2376 968
2376 2248
2376 3528
2376 4808
2377 969
2377 2249
2377 3529
2377 4809
2378 970
2378 2250
2378 3530
2378 4810
2379 971
2379 2251
2379 3531
2379 4811
2380 972
2380 2252
2380 3532
2380 4812
2381 973
2381 2253
2381 3533
2381 4813
2382 974
2382 2254
2382 3534
2382 4814
2383 975
2383 2255
2383 3535
2383 4815
2384 976
2384 2256
2384 3536
2384 4816
2385 977
2385 2257
2385 3537
2385 4817
2386 978
2386 2258
2386 3538
2386 4818
2387 979
2387 2259
2387 3539
2387 4819
2388 980
2388 2260
2388 3540
2388 4820
2389 981
2389 2261
2389 3541
2389 4821
2390 982
2390 2262
2390 3542
2390 4822
2391 983
2391 2263
2391 3543
2391 4823
2392 984
2392 2264
2392 3544
2392 4824
2393 985
2393 2265
2393 3545
2393 4825
2394 986
2394 2266
2394 3546
2394 4826
2395 987
2395 2267
2395 3547
2395 4827
2396 988
2396 2268
2396 3548
2396 4828
2397 989
2397 2269
2397 3549
2397 4829
2398 990
2398 2270
2398 3550
2398 4830
2399 991
2399 2271
2399 3551
2399 4831
2400 992
2400 2272
2400 3552
2400 4832
2401 993
2401 2273
2401 3553
2401 4833
2402 994
2402 2274
2402 3554
2402 4834
2403 995
2403 2275
2403 3555
2403 4835
2404 996
2404 2276
2404 3556
2404 4836
2405 997
2405 2277
2405 3557
2405 4837
2406 998
2406 2278
2406 3558
2406 4838
2407 999
2407 2279
2407 3559
2407 4839
2408 1000
2408 2280
2408 3560
2408 4840
2409 1001
2409 2281
2409 3561
2409 4841
2410 1002
2410 2282
2410 3562
2410 4842
2411 1003
2411 2283
2411 3563
2411 4843
2412 1004
2412 2284
2412 3564
2412 4844
2413 1005
2413 2285
2413 3565
2413 4845
2414 1006
2414 2286
2414 3566
2414 4846
2415 1007
2415 2287
2415 3567
2415 4847
2416 1008
2416 2288
2416 3568
2416 4848
2417 1009
2417 2289
2417 3569
2417 4849
2418 1010
2418 2290
2418 3570
2418 4850
2419 1011
2419 2291
2419 3571
2419 4851
2420 1012
2420 2292
2420 3572
2420 4852
2421 1013
2421 2293
2421 3573
2421 4853
2422 1014
2422 2294
2422 3574
2422 4854
2423 1015
2423 2295
2423 3575
2423 4855
2424 1016
2424 2296
2424 3576
2424 4856
2425 1017
2425 2297
2425 3577
2425 4857
2426 1018
2426 2298
2426 3578
2426 4858
2427 1019
2427 2299
2427 3579
2427 4859
2428 1020
2428 2300
2428 3580
2428 4860
2429 1021
2429 2301
2429 3581
2429 4861
2430 1022
2430 2302
2430 3582
2430 4862
2431 1023
2431 2303
2431 3583
2431 4863
2432 1024
2432 2304
2432 3584
2432 4864
2433 1025
2433 2305
2433 3585
2433 4865
2434 1026
2434 2306
2434 3586
2434 4866
2435 1027
2435 2307
2435 3587
2435 4867
2436 1028
2436 2308
2436 3588
2436 4868
2437 1029
2437 2309
2437 3589
2437 4869
2438 1030
2438 2310
2438 3590
2438 4870
2439 1031
2439 2311
2439 3591
2439 4871
2440 1032
2440 2312
2440 3592
2440 4872
2441 1033
2441 2313
2441 3593
2441 4873
2442 1034
2442 2314
2442 3594
2442 4874
2443 1035
2443 2315
2443 3595
2443 4875
2444 1036
2444 2316
2444 3596
2444 4876
2445 1037
2445 2317
2445 3597
2445 4877
2446 1038
2446 2318
2446 3598
2446 4878
2447 1039
2447 2319
2447 3599
2447 4879
2448 1040
2448 2320
2448 3600
2448 4880
2449 1041
2449 2321
2449 3601
2449 4881
2450 1042
2450 2322
2450 3602
2450 4882
2451 1043
2451 2323
2451 3603
2451 4883
2452 1044
2452 2324
2452 3604
2452 4884
2453 1045
2453 2325
2453 3605
2453 4885
2454 1046
2454 2326
2454 3606
2454 4886
2455 1047
2455 2327
2455 3607
2455 4887
2456 1048
2456 2328
2456 3608
2456 4888
2457 1049
2457 2329
2457 3609
2457 4889
2458 1050
2458 2330
2458 3610
2458 4890
2459 1051
2459 2331
2459 3611
2459 4891
2460 1052
2460 2332
2460 3612
2460 4892
2461 1053
2461 2333
2461 3613
2461 4893
2462 1054
2462 2334
2462 3614
2462 4894
2463 1055
2463 2335
2463 3615
2463 4895
2464 1056
2464 2336
2464 3616
2464 4896
2465 1057
2465 2337
2465 3617
2465 4897
2466 1058
2466 2338
2466 3618
2466 4898
2467 1059
2467 2339
2467 3619
2467 4899
2468 1060
2468 2340
2468 3620
2468 4900
2469 1061
2469 2341
2469 3621
2469 4901
2470 1062
2470 2342
2470 3622
2470 4902
2471 1063
2471 2343
2471 3623
2471 4903
2472 1064
2472 2344
2472 3624
2472 4904
2473 1065
2473 2345
2473 3625
2473 4905
2474 1066
2474 2346
2474 3626
2474 4906
2475 1067
2475 2347
2475 3627
2475 4907
2476 1068
2476 2348
2476 3628
2476 4908
2477 1069
2477 2349
2477 3629
2477 4909
2478 1070
2478 2350
2478 3630
2478 4910
2479 1071
2479 2351
2479 3631
2479 4911
2480 1072
2480 2352
2480 3632
2480 4912
2481 1073
2481 2353
2481 3633
2481 4913
2482 1074
2482 2354
2482 3634
2482 4914
2483 1075
2483 2355
2483 3635
2483 4915
2484 1076
2484 2356
2484 3636
2484 4916
2485 1077
2485 2357
2485 3637
2485 4917
2486 1078
2486 2358
2486 3638
2486 4918
2487 1079
2487 2359
2487 3639
2487 4919
2488 1080
2488 2360
2488 3640
2488 4920
2489 1081
2489 2361
2489 3641
2489 4921
2490 1082
2490 2362
2490 3642
2490 4922
2491 1083
2491 2363
2491 3643
2491 4923
2492 1084
2492 2364
2492 3644
2492 4924
2493 1085
2493 2365
2493 3645
2493 4925
2494 1086
2494 2366
2494 3646
2494 4926
2495 1087
2495 2367
2495 3647
2495 4927
2496 1088
2496 2368
2496 3648
2496 4928
2497 1089
2497 2369
2497 3649
2497 4929
2498 1090
2498 2370
2498 3650
2498 4930
2499 1091
2499 2371
2499 3651
2499 4931
2500 1092
2500 2372
2500 3652
2500 4932
2501 1093
2501 2373
2501 3653
2501 4933
2502 1094
2502 2374
2502 3654
2502 4934
2503 1095
2503 2375
2503 3655
2503 4935
2504 1096
2504 2376
2504 3656
2504 4936
2505 1097
2505 2377
2505 3657
2505 4937
2506 1098
2506 2378
2506 3658
2506 4938
2507 1099
2507 2379
2507 3659
2507 4939
2508 1100
2508 2380
2508 3660
2508 4940
2509 1101
2509 2381
2509 3661
2509 4941
2510 1102
2510 2382
2510 3662
2510 4942
2511 1103
2511 2383
2511 3663
2511 4943
2512 1104
2512 2384
2512 3664
2512 4944
2513 1105
2513 2385
2513 3665
2513 4945
2514 1106
2514 2386
2514 3666
2514 4946
2515 1107
2515 2387
2515 3667
2515 4947
2516 1108
2516 2388
2516 3668
2516 4948
2517 1109
2517 2389
2517 3669
2517 4949
2518 1110
2518 2390
2518 3670
2518 4950
2519 1111
2519 2391
2519 3671
2519 4951
2520 1112
2520 2392
2520 3672
2520 4952
2521 1113
2521 2393
2521 3673
2521 4953
2522 1114
2522 2394
2522 3674
2522 4954
2523 1115
2523 2395
2523 3675
2523 4955
2524 1116
2524 2396
2524 3676
2524 4956
2525 1117
2525 2397
2525 3677
2525 4957
2526 1118
2526 2398
2526 3678
2526 4958
2527 1119
2527 2399
2527 3679
2527 4959
2528 1120
2528 2400
2528 3680
2528 4960
2529 1121
2529 2401
2529 3681
2529 4961
2530 1122
2530 2402
2530 3682
2530 4962
2531 1123
2531 2403
2531 3683
2531 4963
2532 1124
2532 2404
2532 3684
2532 4964
2533 1125
2533 2405
2533 3685
2533 4965
2534 1126
2534 2406
2534 3686
2534 4966
2535 1127
2535 2407
2535 3687
2535 4967
2536 1128
2536 2408
2536 3688
2536 4968
2537 1129
2537 2409
2537 3689
2537 4969
2538 1130
2538 2410
2538 3690
2538 4970
2539 1131
2539 2411
2539 3691
2539 4971
2540 1132
2540 2412
2540 3692
2540 4972
2541 1133
2541 2413
2541 3693
2541 4973
2542 1134
2542 2414
2542 3694
2542 4974
2543 1135
2543 2415
2543 3695
2543 4975
2544 1136
2544 2416
2544 3696
2544 4976
2545 1137
2545 2417
2545 3697
2545 4977
2546 1138
2546 2418
2546 3698
2546 4978
2547 1139
2547 2419
2547 3699
2547 4979
2548 1140
2548 2420
2548 3700
2548 4980
2549 1141
2549 2421
2549 3701
2549 4981
2550 1142
2550 2422
2550 3702
2550 4982
2551 1143
2551 2423
2551 3703
2551 4983
2552 1144
2552 2424
2552 3704
2552 4984
2553 1145
2553 2425
2553 3705
2553 4985
2554 1146
2554 2426
2554 3706
2554 4986
2555 1147
2555 2427
2555 3707
2555 4987
2556 1148
2556 2428
2556 3708
2556 4988
2557 1149
2557 2429
2557 3709
2557 4989
2558 1150
2558 2430
2558 3710
2558 4990
2559 1151
2559 2431
2559 3711
2559 4991
2560 1152
2560 2432
2560 3712
2560 4992
2561 1153
2561 2433
2561 3713
2561 4993
2562 1154
2562 2434
2562 3714
2562 4994
2563 1155
2563 2435
2563 3715
2563 4995
2564 1156
2564 2436
2564 3716
2564 4996
2565 1157
2565 2437
2565 3717
2565 4997
2566 1158
2566 2438
2566 3718
2566 4998
2567 1159
2567 2439
2567 3719
2567 4999
2568 1160
2568 2440
2568 3720
2568 5000
2569 1161
2569 2441
2569 3721
2569 5001
2570 1162
2570 2442
2570 3722
2570 5002
2571 1163
2571 2443
2571 3723
2571 5003
2572 1164
2572 2444
2572 3724
2572 5004
2573 1165
2573 2445
2573 3725
2573 5005
2574 1166
2574 2446
2574 3726
2574 5006
2575 1167
2575 2447
2575 3727
2575 5007
2576 1168
2576 2448
2576 3728
2576 5008
2577 1169
2577 2449
2577 3729
2577 5009
2578 1170
2578 2450
2578 3730
2578 5010
2579 1171
2579 2451
2579 3731
2579 5011
2580 1172
2580 2452
2580 3732
2580 5012
2581 1173
2581 2453
2581 3733
2581 5013
2582 1174
2582 2454
2582 3734
2582 5014
2583 1175
2583 2455
2583 3735
2583 5015
2584 1176
2584 2456
2584 3736
2584 5016
2585 1177
2585 2457
2585 3737
2585 5017
2586 1178
2586 2458
2586 3738
2586 5018
2587 1179
2587 2459
2587 3739
2587 5019
2588 1180
2588 2460
2588 3740
2588 5020
2589 1181
2589 2461
2589 3741
2589 5021
2590 1182
2590 2462
2590 3742
2590 5022
2591 1183
2591 2463
2591 3743
2591 5023
2592 1184
2592 2464
2592 3744
2592 5024
2593 1185
2593 2465
2593 3745
2593 5025
2594 1186
2594 2466
2594 3746
2594 5026
2595 1187
2595 2467
2595 3747
2595 5027
2596 1188
2596 2468
2596 3748
2596 5028
2597 1189
2597 2469
2597 3749
2597 5029
2598 1190
2598 2470
2598 3750
2598 5030
2599 1191
2599 2471
2599 3751
2599 5031
2600 1192
2600 2472
2600 3752
2600 5032
2601 1193
2601 2473
2601 3753
2601 5033
2602 1194
2602 2474
2602 3754
2602 5034
2603 1195
2603 2475
2603 3755
2603 5035
2604 1196
2604 2476
2604 3756
2604 5036
2605 1197
2605 2477
2605 3757
2605 5037
2606 1198
2606 2478
2606 3758
2606 5038
2607 1199
2607 2479
2607 3759
2607 5039
2608 1200
2608 2480
2608 3760
2608 5040
2609 1201
2609 2481
2609 3761
2609 5041
2610 1202
2610 2482
2610 3762
2610 5042
2611 1203
2611 2483
2611 3763
2611 5043
2612 1204
2612 2484
2612 3764
2612 5044
2613 1205
2613 2485
2613 3765
2613 5045
2614 1206
2614 2486
2614 3766
2614 5046
2615 1207
2615 2487
2615 3767
2615 5047
2616 1208
2616 2488
2616 3768
2616 5048
2617 1209
2617 2489
2617 3769
2617 5049
2618 1210
2618 2490
2618 3770
2618 5050
2619 1211
2619 2491
2619 3771
2619 5051
2620 1212
2620 2492
2620 3772
2620 5052
2621 1213
2621 2493
2621 3773
2621 5053
2622 1214
2622 2494
2622 3774
2622 5054
2623 1215
2623 2495
2623 3775
2623 5055
2624 1216
2624 2496
2624 3776
2624 5056
2625 1217
2625 2497
2625 3777
2625 5057
2626 1218
2626 2498
2626 3778
2626 5058
2627 1219
2627 2499
2627 3779
2627 5059
2628 1220
2628 2500
2628 3780
2628 5060
2629 1221
2629 2501
2629 3781
2629 5061
2630 1222
2630 2502
2630 3782
2630 5062
2631 1223
2631 2503
2631 3783
2631 5063
2632 1224
2632 2504
2632 3784
2632 5064
2633 1225
2633 2505
2633 3785
2633 5065
2634 1226
2634 2506
2634 3786
2634 5066
2635 1227
2635 2507
2635 3787
2635 5067
2636 1228
2636 2508
2636 3788
2636 5068
2637 1229
2637 2509
2637 3789
2637 5069
2638 1230
2638 2510
2638 3790
2638 5070
2639 1231
2639 2511
2639 3791
2639 5071
2640 1232
2640 2512
2640 3792
2640 5072
2641 1233
2641 2513
2641 3793
2641 5073
2642 1234
2642 2514
2642 3794
2642 5074
2643 1235
2643 2515
2643 3795
2643 5075
2644 1236
2644 2516
2644 3796
2644 5076
2645 1237
2645 2517
2645 3797
2645 5077
2646 1238
2646 2518
2646 3798
2646 5078
2647 1239
2647 2519
2647 3799
2647 5079
2648 1240
2648 2520
2648 3800
2648 5080
2649 1241
2649 2521
2649 3801
2649 5081
2650 1242
2650 2522
2650 3802
2650 5082
2651 1243
2651 2523
2651 3803
2651 5083
2652 1244
2652 2524
2652 3804
2652 5084
2653 1245
2653 2525
2653 3805
2653 5085
2654 1246
2654 2526
2654 3806
2654 5086
2655 1247
2655 2527
2655 3807
2655 5087
2656 1248
2656 2528
2656 3808
2656 5088
2657 1249
2657 2529
2657 3809
2657 5089
2658 1250
2658 2530
2658 3810
2658 5090
2659 1251
2659 2531
2659 3811
2659 5091
2660 1252
2660 2532
2660 3812
2660 5092
2661 1253
2661 2533
2661 3813
2661 5093
2662 1254
2662 2534
2662 3814
2662 5094
2663 1255
2663 2535
2663 3815
2663 5095
2664 1256
2664 2536
2664 3816
2664 5096
2665 1257
2665 2537
2665 3817
2665 5097
2666 1258
2666 2538
2666 3818
2666 5098
2667 1259
2667 2539
2667 3819
2667 5099
2668 1260
2668 2540
2668 3820
2668 5100
2669 1261
2669 2541
2669 3821
2669 5101
2670 1262
2670 2542
2670 3822
2670 5102
2671 1263
2671 2543
2671 3823
2671 5103
2672 1264
2672 2544
2672 3824
2672 5104
2673 1265
2673 2545
2673 3825
2673 5105
2674 1266
2674 2546
2674 3826
2674 5106
2675 1267
2675 2547
2675 3827
2675 5107
2676 1268
2676 2548
2676 3828
2676 5108
2677 1269
2677 2549
2677 3829
2677 5109
2678 1270
2678 2550
2678 3830
2678 5110
2679 1271
2679 2551
2679 3831
2679 5111
2680 1272
2680 2552
2680 3832
2680 5112
2681 1273
2681 2553
2681 3833
2681 5113
2682 1274
2682 2554
2682 3834
2682 5114
2683 1275
2683 2555
2683 3835
2683 5115
2684 1276
2684 2556
2684 3836
2684 5116
2685 1277
2685 2557
2685 3837
2685 5117
2686 1278
2686 2558
2686 3838
2686 5118
2687 1279
2687 2559
2687 3839
2687 5119
2688 1280
2688 2560
2688 3840
2688 5120
2689 1281
2689 2561
2689 3841
2689 5121
2690 1282
2690 2562
2690 3842
2690 5122
2691 1283
2691 2563
2691 3843
2691 5123
2692 1284
2692 2564
2692 3844
2692 5124
2693 1285
2693 2565
2693 3845
2693 5125
2694 1286
2694 2566
2694 3846
2694 5126
2695 1287
2695 2567
2695 3847
2695 5127
2696 1288
2696 2568
2696 3848
2696 5128
2697 1289
2697 2569
2697 3849
2697 5129
2698 1290
2698 2570
2698 3850
2698 5130
2699 1291
2699 2571
2699 3851
2699 5131
2700 1292
2700 2572
2700 3852
2700 5132
2701 1293
2701 2573
2701 3853
2701 5133
2702 1294
2702 2574
2702 3854
2702 5134
2703 1295
2703 2575
2703 3855
2703 5135
2704 1296
2704 2576
2704 3856
2704 5136
2705 1297
2705 2577
2705 3857
2705 5137
2706 1298
2706 2578
2706 3858
2706 5138
2707 1299
2707 2579
2707 3859
2707 5139
2708 1300
2708 2580
2708 3860
2708 5140
2709 1301
2709 2581
2709 3861
2709 5141
2710 1302
2710 2582
2710 3862
2710 5142
2711 1303
2711 2583
2711 3863
2711 5143
2712 1304
2712 2584
2712 3864
2712 5144
2713 1305
2713 2585
2713 3865
2713 5145
2714 1306
2714 2586
2714 3866
2714 5146
2715 1307
2715 2587
2715 3867
2715 5147
2716 1308
2716 2588
2716 3868
2716 5148
2717 1309
2717 2589
2717 3869
2717 5149
2718 1310
2718 2590
2718 3870
2718 5150
2719 1311
2719 2591
2719 3871
2719 5151
2720 1312
2720 2592
2720 3872
2720 5152
2721 1313
2721 2593
2721 3873
2721 5153
2722 1314
2722 2594
2722 3874
2722 5154
2723 1315
2723 2595
2723 3875
2723 5155
2724 1316
2724 2596
2724 3876
2724 5156
2725 1317
2725 2597
2725 3877
2725 5157
2726 1318
2726 2598
2726 3878
2726 5158
2727 1319
2727 2599
2727 3879
2727 5159
2728 1320
2728 2600
2728 3880
2728 5160
2729 1321
2729 2601
2729 3881
2729 5161
2730 1322
2730 2602
2730 3882
2730 5162
2731 1323
2731 2603
2731 3883
2731 5163
2732 1324
2732 2604
2732 3884
2732 5164
2733 1325
2733 2605
2733 3885
2733 5165
2734 1326
2734 2606
2734 3886
2734 5166
2735 1327
2735 2607
2735 3887
2735 5167
2736 1328
2736 2608
2736 3888
2736 5168
2737 1329
2737 2609
2737 3889
2737 5169
2738 1330
2738 2610
2738 3890
2738 5170
2739 1331
2739 2611
2739 3891
2739 5171
2740 1332
2740 2612
2740 3892
2740 5172
2741 1333
2741 2613
2741 3893
2741 5173
2742 1334
2742 2614
2742 3894
2742 5174
2743 1335
2743 2615
2743 3895
2743 5175
2744 1336
2744 2616
2744 3896
2744 5176
2745 1337
2745 2617
2745 3897
2745 5177
2746 1338
2746 2618
2746 3898
2746 5178
2747 1339
2747 2619
2747 3899
2747 5179
2748 1340
2748 2620
2748 3900
2748 5180
2749 1341
2749 2621
2749 3901
2749 5181
2750 1342
2750 2622
2750 3902
2750 5182
2751 1343
2751 2623
2751 3903
2751 5183
2752 1344
2752 2624
2752 3904
2752 5184
2753 1345
2753 2625
2753 3905
2753 5185
2754 1346
2754 2626
2754 3906
2754 5186
2755 1347
2755 2627
2755 3907
2755 5187
2756 1348
2756 2628
2756 3908
2756 5188
2757 1349
2757 2629
2757 3909
2757 5189
2758 1350
2758 2630
2758 3910
2758 5190
2759 1351
2759 2631
2759 3911
2759 5191
2760 1352
2760 2632
2760 3912
2760 5192
2761 1353
2761 2633
2761 3913
2761 5193
2762 1354
2762 2634
2762 3914
2762 5194
2763 1355
2763 2635
2763 3915
2763 5195
2764 1356
2764 2636
2764 3916
2764 5196
2765 1357
2765 2637
2765 3917
2765 5197
2766 1358
2766 2638
2766 3918
2766 5198
2767 1359
2767 2639
2767 3919
2767 5199
2768 1360
2768 2640
2768 3920
2768 5200
2769 1361
2769 2641
2769 3921
2769 5201
2770 1362
2770 2642
2770 3922
2770 5202
2771 1363
2771 2643
2771 3923
2771 5203
2772 1364
2772 2644
2772 3924
2772 5204
2773 1365
2773 2645
2773 3925
2773 5205
2774 1366
2774 2646
2774 3926
2774 5206
2775 1367
2775 2647
2775 3927
2775 5207
2776 1368
2776 2648
2776 3928
2776 5208
2777 1369
2777 2649
2777 3929
2777 5209
2778 1370
2778 2650
2778 3930
2778 5210
2779 1371
2779 2651
2779 3931
2779 5211
2780 1372
2780 2652
2780 3932
2780 5212
2781 1373
2781 2653
2781 3933
2781 5213
2782 1374
2782 2654
2782 3934
2782 5214
2783 1375
2783 2655
2783 3935
2783 5215
2784 1376
2784 2656
2784 3936
2784 5216
2785 1377
2785 2657
2785 3937
2785 5217
2786 1378
2786 2658
2786 3938
2786 5218
2787 1379
2787 2659
2787 3939
2787 5219
2788 1380
2788 2660
2788 3940
2788 5220
2789 1381
2789 2661
2789 3941
2789 5221
2790 1382
2790 2662
2790 3942
2790 5222
2791 1383
2791 2663
2791 3943
2791 5223
2792 1384
2792 2664
2792 3944
2792 5224
2793 1385
2793 2665
2793 3945
2793 5225
2794 1386
2794 2666
2794 3946
2794 5226
2795 1387
2795 2667
2795 3947
2795 5227
2796 1388
2796 2668
2796 3948
2796 5228
2797 1389
2797 2669
2797 3949
2797 5229
2798 1390
2798 2670
2798 3950
2798 5230
2799 1391
2799 2671
2799 3951
2799 5231
2800 1392
2800 2672
2800 3952
2800 5232
2801 1393
2801 2673
2801 3953
2801 5233
2802 1394
2802 2674
2802 3954
2802 5234
2803 1395
2803 2675
2803 3955
2803 5235
2804 1396
2804 2676
2804 3956
2804 5236
2805 1397
2805 2677
2805 3957
2805 5237
2806 1398
2806 2678
2806 3958
2806 5238
2807 1399
2807 2679
2807 3959
2807 5239
2808 1400
2808 2680
2808 3960
2808 5240
2809 1401
2809 2681
2809 3961
2809 5241
2810 1402
2810 2682
2810 3962
2810 5242
2811 1403
2811 2683
2811 3963
2811 5243
2812 1404
2812 2684
2812 3964
2812 5244
2813 1405
2813 2685
2813 3965
2813 5245
2814 1406
2814 2686
2814 3966
2814 5246
2815 1407
2815 2687
2815 3967
2815 5247
2816 0
2816 2560
2816 3712
2816 4864
2817 1
2817 2561
2817 3713
2817 4865
2818 2
2818 2562
2818 3714
2818 4866
2819 3
2819 2563
2819 3715
2819 4867
2820 4
2820 2564
2820 3716
2820 4868
2821 5
2821 2565
2821 3717
2821 4869
2822 6
2822 2566
2822 3718
2822 4870
2823 7
2823 2567
2823 3719
2823 4871
2824 8
2824 2568
2824 3720
2824 4872
2825 9
2825 2569
2825 3721
2825 4873
2826 10
2826 2570
2826 3722
2826 4874
2827 11
2827 2571
2827 3723
2827 4875
2828 12
2828 2572
2828 3724
2828 4876
2829 13
2829 2573
2829 3725
2829 4877
2830 14
2830 2574
2830 3726
2830 4878
2831 15
2831 2575
2831 3727
2831 4879
2832 16
2832 2576
2832 3728
2832 4880
2833 17
2833 2577
2833 3729
2833 4881
2834 18
2834 2578
2834 3730
2834 4882
2835 19
2835 2579
2835 3731
2835 4883
2836 20
2836 2580
2836 3732
2836 4884
2837 21
2837 2581
2837 3733
2837 4885
2838 22
2838 2582
2838 3734
2838 4886
2839 23
2839 2583
2839 3735
2839 4887
2840 24
2840 2584
2840 3736
2840 4888
2841 25
2841 2585
2841 3737
2841 4889
2842 26
2842 2586
2842 3738
2842 4890
2843 27
2843 2587
2843 3739
2843 4891
2844 28
2844 2588
2844 3740
2844 4892
2845 29
2845 2589
2845 3741
2845 4893
2846 30
2846 2590
2846 3742
2846 4894
2847 31
2847 2591
2847 3743
2847 4895
2848 32
2848 2592
2848 3744
2848 4896
2849 33
2849 2593
2849 3745
2849 4897
2850 34
2850 2594
2850 3746
2850 4898
2851 35
2851 2595
2851 3747
2851 4899
2852 36
2852 2596
2852 3748
2852 4900
2853 37
2853 2597
2853 3749
2853 4901
2854 38
2854 2598
2854 3750
2854 4902
2855 39
2855 2599
2855 3751
2855 4903
2856 40
2856 2600
2856 3752
2856 4904
2857 41
2857 2601
2857 3753
2857 4905
2858 42
2858 2602
2858 3754
2858 4906
2859 43
2859 2603
2859 3755
2859 4907
2860 44
2860 2604
2860 3756
2860 4908
2861 45
2861 2605
2861 3757
2861 4909
2862 46
2862 2606
2862 3758
2862 4910
2863 47
2863 2607
2863 3759
2863 4911
2864 48
2864 2608
2864 3760
2864 4912
2865 49
2865 2609
2865 3761
2865 4913
2866 50
2866 2610
2866 3762
2866 4914
2867 51
2867 2611
2867 3763
2867 4915
2868 52
2868 2612
2868 3764
2868 4916
2869 53
2869 2613
2869 3765
2869 4917
2870 54
2870 2614
2870 3766
2870 4918
2871 55
2871 2615
2871 3767
2871 4919
2872 56
2872 2616
2872 3768
2872 4920
2873 57
2873 2617
2873 3769
2873 4921
2874 58
2874 2618
2874 3770
2874 4922
2875 59
2875 2619
2875 3771
2875 4923
2876 60
2876 2620
2876 3772
2876 4924
2877 61
2877 2621
2877 3773
2877 4925
2878 62
2878 2622
2878 3774
2878 4926
2879 63
2879 2623
2879 3775
2879 4927
2880 64
2880 2624
2880 3776
2880 4928
2881 65
2881 2625
2881 3777
2881 4929
2882 66
2882 2626
2882 3778
2882 4930
2883 67
2883 2627
2883 3779
2883 4931
2884 68
2884 2628
2884 3780
2884 4932
2885 69
2885 2629
2885 3781
2885 4933
2886 70
2886 2630
2886 3782
2886 4934
2887 71
2887 2631
2887 3783
2887 4935
2888 72
2888 2632
2888 3784
2888 4936
2889 73
2889 2633
2889 3785
2889 4937
2890 74
2890 2634
2890 3786
2890 4938
2891 75
2891 2635
2891 3787
2891 4939
2892 76
2892 2636
2892 3788
2892 4940
2893 77
2893 2637
2893 3789
2893 4941
2894 78
2894 2638
2894 3790
2894 4942
2895 79
2895 2639
2895 3791
2895 4943
2896 80
2896 2640
2896 3792
2896 4944
2897 81
2897 2641
2897 3793
2897 4945
2898 82
2898 2642
2898 3794
2898 4946
2899 83
2899 2643
2899 3795
2899 4947
2900 84
2900 2644
2900 3796
2900 4948
2901 85
2901 2645
2901 3797
2901 4949
2902 86
2902 2646
2902 3798
2902 4950
2903 87
2903 2647
2903 3799
2903 4951
2904 88
2904 2648
2904 3800
2904 4952
2905 89
2905 2649
2905 3801
2905 4953
2906 90
2906 2650
2906 3802
2906 4954
2907 91
2907 2651
2907 3803
2907 4955
2908 92
2908 2652
2908 3804
2908 4956
2909 93
2909 2653
2909 3805
2909 4957
2910 94
2910 2654
2910 3806
2910 4958
2911 95
2911 2655
2911 3807
2911 4959
2912 96
2912 2656
2912 3808
2912 4960
2913 97
2913 2657
2913 3809
2913 4961
2914 98
2914 2658
2914 3810
2914 4962
2915 99
2915 2659
2915 3811
2915 4963
2916 100
2916 2660
2916 3812
2916 4964
2917 101
2917 2661
2917 3813
2917 4965
2918 102
2918 2662
2918 3814
2918 4966
2919 103
2919 2663
2919 3815
2919 4967
2920 104
2920 2664
2920 3816
2920 4968
2921 105
2921 2665
2921 3817
2921 4969
2922 106
2922 2666
2922 3818
2922 4970
2923 107
2923 2667
2923 3819
2923 4971
2924 108
2924 2668
2924 3820
2924 4972
2925 109
2925 2669
2925 3821
2925 4973
2926 110
2926 2670
2926 3822
2926 4974
2927 111
2927 2671
2927 3823
2927 4975
2928 112
2928 2672
2928 3824
2928 4976
2929 113
2929 2673
2929 3825
2929 4977
2930 114
2930 2674
2930 3826
2930 4978
2931 115
2931 2675
2931 3827
2931 4979
2932 116
2932 2676
2932 3828
2932 4980
2933 117
2933 2677
2933 3829
2933 4981
2934 118
2934 2678
2934 3830
2934 4982
2935 119
2935 2679
2935 3831
2935 4983
2936 120
2936 2680
2936 3832
2936 4984
2937 121
2937 2681
2937 3833
2937 4985
2938 122
2938 2682
2938 3834
2938 4986
2939 123
2939 2683
2939 3835
2939 4987
2940 124
2940 2684
2940 3836
2940 4988
2941 125
2941 2685
2941 3837
2941 4989
2942 126
2942 2686
2942 3838
2942 4990
2943 127
2943 2687
2943 3839
2943 4991
2944 128
2944 2688
2944 3840
2944 4992
2945 129
2945 2689
2945 3841
2945 4993
2946 130
2946 2690
2946 3842
2946 4994
2947 131
2947 2691
2947 3843
2947 4995
2948 132
2948 2692
2948 3844
2948 4996
2949 133
2949 2693
2949 3845
2949 4997
2950 134
2950 2694
2950 3846
2950 4998
2951 135
2951 2695
2951 3847
2951 4999
2952 136
2952 2696
2952 3848
2952 5000
2953 137
2953 2697
2953 3849
2953 5001
2954 138
2954 2698
2954 3850
2954 5002
2955 139
2955 2699
2955 3851
2955 5003
2956 140
2956 2700
2956 3852
2956 5004
2957 141
2957 2701
2957 3853
2957 5005
2958 142
2958 2702
2958 3854
2958 5006
2959 143
2959 2703
2959 3855
2959 5007
2960 144
2960 2704
2960 3856
2960 5008
2961 145
2961 2705
2961 3857
2961 5009
2962 146
2962 2706
2962 3858
2962 5010
2963 147
2963 2707
2963 3859
2963 5011
2964 148
2964 2708
2964 3860
2964 5012
2965 149
2965 2709
2965 3861
2965 5013
2966 150
2966 2710
2966 3862
2966 5014
2967 151
2967 2711
2967 3863
2967 5015
2968 152
2968 2712
2968 3864
2968 5016
2969 153
2969 2713
2969 3865
2969 5017
2970 154
2970 2714
2970 3866
2970 5018
2971 155
2971 2715
2971 3867
2971 5019
2972 156
2972 2716
2972 3868
2972 5020
2973 157
2973 2717
2973 3869
2973 5021
2974 158
2974 2718
2974 3870
2974 5022
2975 159
2975 2719
2975 3871
2975 5023
2976 160
2976 2720
2976 3872
2976 5024
2977 161
2977 2721
2977 3873
2977 5025
2978 162
2978 2722
2978 3874
2978 5026
2979 163
2979 2723
2979 3875
2979 5027
2980 164
2980 2724
2980 3876
2980 5028
2981 165
2981 2725
2981 3877
2981 5029
2982 166
2982 2726
2982 3878
2982 5030
2983 167
2983 2727
2983 3879
2983 5031
2984 168
2984 2728
2984 3880
2984 5032
2985 169
2985 2729
2985 3881
2985 5033
2986 170
2986 2730
2986 3882
2986 5034
2987 171
2987 2731
2987 3883
2987 5035
2988 172
2988 2732
2988 3884
2988 5036
2989 173
2989 2733
2989 3885
2989 5037
2990 174
2990 2734
2990 3886
2990 5038
2991 175
2991 2735
2991 3887
2991 5039
2992 176
2992 2736
2992 3888
2992 5040
2993 177
2993 2737
2993 3889
2993 5041
2994 178
2994 2738
2994 3890
2994 5042
2995 179
2995 2739
2995 3891
2995 5043
2996 180
2996 2740
2996 3892
2996 5044
2997 181
2997 2741
2997 3893
2997 5045
2998 182
2998 2742
2998 3894
2998 5046
2999 183
2999 2743
2999 3895
2999 5047
3000 184
3000 2744
3000 3896
3000 5048
3001 185
3001 2745
3001 3897
3001 5049
3002 186
3002 2746
3002 3898
3002 5050
3003 187
3003 2747
3003 3899
3003 5051
3004 188
3004 2748
3004 3900
3004 5052
3005 189
3005 2749
3005 3901
3005 5053
3006 190
3006 2750
3006 3902
3006 5054
3007 191
3007 2751
3007 3903
3007 5055
3008 192
3008 2752
3008 3904
3008 5056
3009 193
3009 2753
3009 3905
3009 5057
3010 194
3010 2754
3010 3906
3010 5058
3011 195
3011 2755
3011 3907
3011 5059
3012 196
3012 2756
3012 3908
3012 5060
3013 197
3013 2757
3013 3909
3013 5061
3014 198
3014 2758
3014 3910
3014 5062
3015 199
3015 2759
3015 3911
3015 5063
3016 200
3016 2760
3016 3912
3016 5064
3017 201
3017 2761
3017 3913
3017 5065
3018 202
3018 2762
3018 3914
3018 5066
3019 203
3019 2763
3019 3915
3019 5067
3020 204
3020 2764
3020 3916
3020 5068
3021 205
3021 2765
3021 3917
3021 5069
3022 206
3022 2766
3022 3918
3022 5070
3023 207
3023 2767
3023 3919
3023 5071
3024 208
3024 2768
3024 3920
3024 5072
3025 209
3025 2769
3025 3921
3025 5073
3026 210
3026 2770
3026 3922
3026 5074
3027 211
3027 2771
3027 3923
3027 5075
3028 212
3028 2772
3028 3924
3028 5076
3029 213
3029 2773
3029 3925
3029 5077
3030 214
3030 2774
3030 3926
3030 5078
3031 215
3031 2775
3031 3927
3031 5079
3032 216
3032 2776
3032 3928
3032 5080
3033 217
3033 2777
3033 3929
3033 5081
3034 218
3034 2778
3034 3930
3034 5082
3035 219
3035 2779
3035 3931
3035 5083
3036 220
3036 2780
3036 3932
3036 5084
3037 221
3037 2781
3037 3933
3037 5085
3038 222
3038 2782
3038 3934
3038 5086
3039 223
3039 2783
3039 3935
3039 5087
3040 224
3040 2784
3040 3936
3040 5088
3041 225
3041 2785
3041 3937
3041 5089
3042 226
3042 2786
3042 3938
3042 5090
3043 227
3043 2787
3043 3939
3043 5091
3044 228
3044 2788
3044 3940
3044 5092
3045 229
3045 2789
3045 3941
3045 5093
3046 230
3046 2790
3046 3942
3046 5094
3047 231
3047 2791
3047 3943
3047 5095
3048 232
3048 2792
3048 3944
3048 5096
3049 233
3049 2793
3049 3945
3049 5097
3050 234
3050 2794
3050 3946
3050 5098
3051 235
3051 2795
3051 3947
3051 5099
3052 236
3052 2796
3052 3948
3052 5100
3053 237
3053 2797
3053 3949
3053 5101
3054 238
3054 2798
3054 3950
3054 5102
3055 239
3055 2799
3055 3951
3055 5103
3056 240
3056 2800
3056 3952
3056 5104
3057 241
3057 2801
3057 3953
3057 5105
3058 242
3058 2802
3058 3954
3058 5106
3059 243
3059 2803
3059 3955
3059 5107
3060 244
3060 2804
3060 3956
3060 5108
3061 245
3061 2805
3061 3957
3061 5109
3062 246
3062 2806
3062 3958
3062 5110
3063 247
3063 2807
3063 3959
3063 5111
3064 248
3064 2808
3064 3960
3064 5112
3065 249
3065 2809
3065 3961
3065 5113
3066 250
3066 2810
3066 3962
3066 5114
3067 251
3067 2811
3067 3963
3067 5115
3068 252
3068 2812
3068 3964
3068 5116
3069 253
3069 2813
3069 3965
3069 5117
3070 254
3070 2814
3070 3966
3070 5118
3071 255
3071 2815
3071 3967
3071 5119
3072 256
3072 1408
3072 3968
3072 5120
3073 257
3073 1409
3073 3969
3073 5121
3074 258
3074 1410
3074 3970
3074 5122
3075 259
3075 1411
3075 3971
3075 5123
3076 260
3076 1412
3076 3972
3076 5124
3077 261
3077 1413
3077 3973
3077 5125
3078 262
3078 1414
3078 3974
3078 5126
3079 263
3079 1415
3079 3975
3079 5127
3080 264
3080 1416
3080 3976
3080 5128
3081 265
3081 1417
3081 3977
3081 5129
3082 266
3082 1418
3082 3978
3082 5130
3083 267
3083 1419
3083 3979
3083 5131
3084 268
3084 1420
3084 3980
3084 5132
3085 269
3085 1421
3085 3981
3085 5133
3086 270
3086 1422
3086 3982
3086 5134
3087 271
3087 1423
3087 3983
3087 5135
3088 272
3088 1424
3088 3984
3088 5136
3089 273
3089 1425
3089 3985
3089 5137
3090 274
3090 1426
3090 3986
3090 5138
3091 275
3091 1427
3091 3987
3091 5139
3092 276
3092 1428
3092 3988
3092 5140
3093 277
3093 1429
3093 3989
3093 5141
3094 278
3094 1430
3094 3990
3094 5142
3095 279
3095 1431
3095 3991
3095 5143
3096 280
3096 1432
3096 3992
3096 5144
3097 281
3097 1433
3097 3993
3097 5145
3098 282
3098 1434
3098 3994
3098 5146
3099 283
3099 1435
3099 3995
3099 5147
3100 284
3100 1436
3100 3996
3100 5148
3101 285
3101 1437
3101 3997
3101 5149
3102 286
3102 1438
3102 3998
3102 5150
3103 287
3103 1439
3103 3999
3103 5151
3104 288
3104 1440
3104 4000
3104 5152
3105 289
3105 1441
3105 4001
3105 5153
3106 290
3106 1442
3106 4002
3106 5154
3107 291
3107 1443
3107 4003
3107 5155
3108 292
3108 1444
3108 4004
3108 5156
3109 293
3109 1445
3109 4005
3109 5157
3110 294
3110 1446
3110 4006
3110 5158
3111 295
3111 1447
3111 4007
3111 5159
3112 296
3112 1448
3112 4008
3112 5160
3113 297
3113 1449
3113 4009
3113 5161
3114 298
3114 1450
3114 4010
3114 5162
3115 299
3115 1451
3115 4011
3115 5163
3116 300
3116 1452
3116 4012
3116 5164
3117 301
3117 1453
3117 4013
3117 5165
3118 302
3118 1454
3118 4014
3118 5166
3119 303
3119 1455
3119 4015
3119 5167
3120 304
3120 1456
3120 4016
3120 5168
3121 305
3121 1457
3121 4017
3121 5169
3122 306
3122 1458
3122 4018
3122 5170
3123 307
3123 1459
3123 4019
3123 5171
3124 308
3124 1460
3124 4020
3124 5172
3125 309
3125 1461
3125 4021
3125 5173
3126 310
3126 1462
3126 4022
3126 5174
3127 311
3127 1463
3127 4023
3127 5175
3128 312
3128 1464
3128 4024
3128 5176
3129 313
3129 1465
3129 4025
3129 5177
3130 314
3130 1466
3130 4026
3130 5178
3131 315
3131 1467
3131 4027
3131 5179
3132 316
3132 1468
3132 4028
3132 5180
3133 317
3133 1469
3133 4029
3133 5181
3134 318
3134 1470
3134 4030
3134 5182
3135 319
3135 1471
3135 4031
3135 5183
3136 320
3136 1472
3136 4032
3136 5184
3137 321
3137 1473
3137 4033
3137 5185
3138 322
3138 1474
3138 4034
3138 5186
3139 323
3139 1475
3139 4035
3139 5187
3140 324
3140 1476
3140 4036
3140 5188
3141 325
3141 1477
3141 4037
3141 5189
3142 326
3142 1478
3142 4038
3142 5190
3143 327
3143 1479
3143 4039
3143 5191
3144 328
3144 1480
3144 4040
3144 5192
3145 329
3145 1481
3145 4041
3145 5193
3146 330
3146 1482
3146 4042
3146 5194
3147 331
3147 1483
3147 4043
3147 5195
3148 332
3148 1484
3148 4044
3148 5196
3149 333
3149 1485
3149 4045
3149 5197
3150 334
3150 1486
3150 4046
3150 5198
3151 335
3151 1487
3151 4047
3151 5199
3152 336
3152 1488
3152 4048
3152 5200
3153 337
3153 1489
3153 4049
3153 5201
3154 338
3154 1490
3154 4050
3154 5202
3155 339
3155 1491
3155 4051
3155 5203
3156 340
3156 1492
3156 4052
3156 5204
3157 341
3157 1493
3157 4053
3157 5205
3158 342
3158 1494
3158 4054
3158 5206
3159 343
3159 1495
3159 4055
3159 5207
3160 344
3160 1496
3160 4056
3160 5208
3161 345
3161 1497
3161 4057
3161 5209
3162 346
3162 1498
3162 4058
3162 5210
3163 347
3163 1499
3163 4059
3163 5211
3164 348
3164 1500
3164 4060
3164 5212
3165 349
3165 1501
3165 4061
3165 5213
3166 350
3166 1502
3166 4062
3166 5214
3167 351
3167 1503
3167 4063
3167 5215
3168 352
3168 1504
3168 4064
3168 5216
3169 353
3169 1505
3169 4065
3169 5217
3170 354
3170 1506
3170 4066
3170 5218
3171 355
3171 1507
3171 4067
3171 5219
3172 356
3172 1508
3172 4068
3172 5220
3173 357
3173 1509
3173 4069
3173 5221
3174 358
3174 1510
3174 4070
3174 5222
3175 359
3175 1511
3175 4071
3175 5223
3176 360
3176 1512
3176 4072
3176 5224
3177 361
3177 1513
3177 4073
3177 5225
3178 362
3178 1514
3178 4074
3178 5226
3179 363
3179 1515
3179 4075
3179 5227
3180 364
3180 1516
3180 4076
3180 5228
3181 365
3181 1517
3181 4077
3181 5229
3182 366
3182 1518
3182 4078
3182 5230
3183 367
3183 1519
3183 4079
3183 5231
3184 368
3184 1520
3184 4080
3184 5232
3185 369
3185 1521
3185 4081
3185 5233
3186 370
3186 1522
3186 4082
3186 5234
3187 371
3187 1523
3187 4083
3187 5235
3188 372
3188 1524
3188 4084
3188 5236
3189 373
3189 1525
3189 4085
3189 5237
3190 374
3190 1526
3190 4086
3190 5238
3191 375
3191 1527
3191 4087
3191 5239
3192 376
3192 1528
3192 4088
3192 5240
3193 377
3193 1529
3193 4089
3193 5241
3194 378
3194 1530
3194 4090
3194 5242
3195 379
3195 1531
3195 4091
3195 5243
3196 380
3196 1532
3196 4092
3196 5244
3197 381
3197 1533
3197 4093
3197 5245
3198 382
3198 1534
3198 4094
3198 5246
3199 383
3199 1535
3199 4095
3199 5247
3200 384
3200 1536
3200 4096
3200 5248
3201 385
3201 1537
3201 4097
3201 5249
3202 386
3202 1538
3202 4098
3202 5250
3203 387
3203 1539
3203 4099
3203 5251
3204 388
3204 1540
3204 4100
3204 5252
3205 389
3205 1541
3205 4101
3205 5253
3206 390
3206 1542
3206 4102
3206 5254
3207 391
3207 1543
3207 4103
3207 5255
3208 392
3208 1544
3208 4104
3208 5256
3209 393
3209 1545
3209 4105
3209 5257
3210 394
3210 1546
3210 4106
3210 5258
3211 395
3211 1547
3211 4107
3211 5259
3212 396
3212 1548
3212 4108
3212 5260
3213 397
3213 1549
3213 4109
3213 5261
3214 398
3214 1550
3214 4110
3214 5262
3215 399
3215 1551
3215 4111
3215 5263
3216 400
3216 1552
3216 4112
3216 5264
3217 401
3217 1553
3217 4113
3217 5265
3218 402
3218 1554
3218 4114
3218 5266
3219 403
3219 1555
3219 4115
3219 5267
3220 404
3220 1556
3220 4116
3220 5268
3221 405
3221 1557
3221 4117
3221 5269
3222 406
3222 1558
3222 4118
3222 5270
3223 407
3223 1559
3223 4119
3223 5271
3224 408
3224 1560
3224 4120
3224 5272
3225 409
3225 1561
3225 4121
3225 5273
3226 410
3226 1562
3226 4122
3226 5274
3227 411
3227 1563
3227 4123
3227 5275
3228 412
3228 1564
3228 4124
3228 5276
3229 413
3229 1565
3229 4125
3229 5277
3230 414
3230 1566
3230 4126
3230 5278
3231 415
3231 1567
3231 4127
3231 5279
3232 416
3232 1568
3232 4128
3232 5280
3233 417
3233 1569
3233 4129
3233 5281
3234 418
3234 1570
3234 4130
3234 5282
3235 419
3235 1571
3235 4131
3235 5283
3236 420
3236 1572
3236 4132
3236 5284
3237 421
3237 1573
3237 4133
3237 5285
3238 422
3238 1574
3238 4134
3238 5286
3239 423
3239 1575
3239 4135
3239 5287
3240 424
3240 1576
3240 4136
3240 5288
3241 425
3241 1577
3241 4137
3241 5289
3242 426
3242 1578
3242 4138
3242 5290
3243 427
3243 1579
3243 4139
3243 5291
3244 428
3244 1580
3244 4140
3244 5292
3245 429
3245 1581
3245 4141
3245 5293
3246 430
3246 1582
3246 4142
3246 5294
3247 431
3247 1583
3247 4143
3247 5295
3248 432
3248 1584
3248 4144
3248 5296
3249 433
3249 1585
3249 4145
3249 5297
3250 434
3250 1586
3250 4146
3250 5298
3251 435
3251 1587
3251 4147
3251 5299
3252 436
3252 1588
3252 4148
3252 5300
3253 437
3253 1589
3253 4149
3253 5301
3254 438
3254 1590
3254 4150
3254 5302
3255 439
3255 1591
3255 4151
3255 5303
3256 440
3256 1592
3256 4152
3256 5304
3257 441
3257 1593
3257 4153
3257 5305
3258 442
3258 1594
3258 4154
3258 5306
3259 443
3259 1595
3259 4155
3259 5307
3260 444
3260 1596
3260 4156
3260 5308
3261 445
3261 1597
3261 4157
3261 5309
3262 446
3262 1598
3262 4158
3262 5310
3263 447
3263 1599
3263 4159
3263 5311
3264 448
3264 1600
3264 4160
3264 5312
3265 449
3265 1601
3265 4161
3265 5313
3266 450
3266 1602
3266 4162
3266 5314
3267 451
3267 1603
3267 4163
3267 5315
3268 452
3268 1604
3268 4164
3268 5316
3269 453
3269 1605
3269 4165
3269 5317
3270 454
3270 1606
3270 4166
3270 5318
3271 455
3271 1607
3271 4167
3271 5319
3272 456
3272 1608
3272 4168
3272 5320
3273 457
3273 1609
3273 4169
3273 5321
3274 458
3274 1610
3274 4170
3274 5322
3275 459
3275 1611
3275 4171
3275 5323
3276 460
3276 1612
3276 4172
3276 5324
3277 461
3277 1613
3277 4173
3277 5325
3278 462
3278 1614
3278 4174
3278 5326
3279 463
3279 1615
3279 4175
3279 5327
3280 464
3280 1616
3280 4176
3280 5328
3281 465
3281 1617
3281 4177
3281 5329
3282 466
3282 1618
3282 4178
3282 5330
3283 467
3283 1619
3283 4179
3283 5331
3284 468
3284 1620
3284 4180
3284 5332
3285 469
3285 1621
3285 4181
3285 5333
3286 470
3286 1622
3286 4182
3286 5334
3287 471
3287 1623
3287 4183
3287 5335
3288 472
3288 1624
3288 4184
3288 5336
3289 473
3289 1625
3289 4185
3289 5337
3290 474
3290 1626
3290 4186
3290 5338
3291 475
3291 1627
3291 4187
3291 5339
3292 476
3292 1628
3292 4188
3292 5340
3293 477
3293 1629
3293 4189
3293 5341
3294 478
3294 1630
3294 4190
3294 5342
3295 479
3295 1631
3295 4191
3295 5343
3296 480
3296 1632
3296 4192
3296 5344
3297 481
3297 1633
3297 4193
3297 5345
3298 482
3298 1634
3298 4194
3298 5346
3299 483
3299 1635
3299 4195
3299 5347
3300 484
3300 1636
3300 4196
3300 5348
3301 485
3301 1637
3301 4197
3301 5349
3302 486
3302 1638
3302 4198
3302 5350
3303 487
3303 1639
3303 4199
3303 5351
3304 488
3304 1640
3304 4200
3304 5352
3305 489
3305 1641
3305 4201
3305 5353
3306 490
3306 1642
3306 4202
3306 5354
3307 491
3307 1643
3307 4203
3307 5355
3308 492
3308 1644
3308 4204
3308 5356
3309 493
3309 1645
3309 4205
3309 5357
3310 494
3310 1646
3310 4206
3310 5358
3311 495
3311 1647
3311 4207
3311 5359
3312 496
3312 1648
3312 4208
3312 5360
3313 497
3313 1649
3313 4209
3313 5361
3314 498
3314 1650
3314 4210
3314 5362
3315 499
3315 1651
3315 4211
3315 5363
3316 500
3316 1652
3316 4212
3316 5364
3317 501
3317 1653
3317 4213
3317 5365
3318 502
3318 1654
3318 4214
3318 5366
3319 503
3319 1655
3319 4215
3319 5367
3320 504
3320 1656
3320 4216
3320 5368
3321 505
3321 1657
3321 4217
3321 5369
3322 506
3322 1658
3322 4218
3322 5370
3323 507
3323 1659
3323 4219
3323 5371
3324 508
3324 1660
3324 4220
3324 5372
3325 509
3325 1661
3325 4221
3325 5373
3326 510
3326 1662
3326 4222
3326 5374
3327 511
3327 1663
3327 4223
3327 5375
3328 512
3328 1664
3328 2816
3328 5376
3329 513
3329 1665
3329 2817
3329 5377
3330 514
3330 1666
3330 2818
3330 5378
3331 515
3331 1667
3331 2819
3331 5379
3332 516
3332 1668
3332 2820
3332 5380
3333 517
3333 1669
3333 2821
3333 5381
3334 518
3334 1670
3334 2822
3334 5382
3335 519
3335 1671
3335 2823
3335 5383
3336 520
3336 1672
3336 2824
3336 5384
3337 521
3337 1673
3337 2825
3337 5385
3338 522
3338 1674
3338 2826
3338 5386
3339 523
3339 1675
3339 2827
3339 5387
3340 524
3340 1676
3340 2828
3340 5388
3341 525
3341 1677
3341 2829
3341 5389
3342 526
3342 1678
3342 2830
3342 5390
3343 527
3343 1679
3343 2831
3343 5391
3344 528
3344 1680
3344 2832
3344 5392
3345 529
3345 1681
3345 2833
3345 5393
3346 530
3346 1682
3346 2834
3346 5394
3347 531
3347 1683
3347 2835
3347 5395
3348 532
3348 1684
3348 2836
3348 5396
3349 533
3349 1685
3349 2837
3349 5397
3350 534
3350 1686
3350 2838
3350 5398
3351 535
3351 1687
3351 2839
3351 5399
3352 536
3352 1688
3352 2840
3352 5400
3353 537
3353 1689
3353 2841
3353 5401
3354 538
3354 1690
3354 2842
3354 5402
3355 539
3355 1691
3355 2843
3355 5403
3356 540
3356 1692
3356 2844
3356 5404
3357 541
3357 1693
3357 2845
3357 5405
3358 542
3358 1694
3358 2846
3358 5406
3359 543
3359 1695
3359 2847
3359 5407
3360 544
3360 1696
3360 2848
3360 5408
3361 545
3361 1697
3361 2849
3361 5409
3362 546
3362 1698
3362 2850
3362 5410
3363 547
3363 1699
3363 2851
3363 5411
3364 548
3364 1700
3364 2852
3364 5412
3365 549
3365 1701
3365 2853
3365 5413
3366 550
3366 1702
3366 2854
3366 5414
3367 551
3367 1703
3367 2855
3367 5415
3368 552
3368 1704
3368 2856
3368 5416
3369 553
3369 1705
3369 2857
3369 5417
3370 554
3370 1706
3370 2858
3370 5418
3371 555
3371 1707
3371 2859
3371 5419
3372 556
3372 1708
3372 2860
3372 5420
3373 557
3373 1709
3373 2861
3373 5421
3374 558
3374 1710
3374 2862
3374 5422
3375 559
3375 1711
3375 2863
3375 5423
3376 560
3376 1712
3376 2864
3376 5424
3377 561
3377 1713
3377 2865
3377 5425
3378 562
3378 1714
3378 2866
3378 5426
3379 563
3379 1715
3379 2867
3379 5427
3380 564
3380 1716
3380 2868
3380 5428
3381 565
3381 1717
3381 2869
3381 5429
3382 566
3382 1718
3382 2870
3382 5430
3383 567
3383 1719
3383 2871
3383 5431
3384 568
3384 1720
3384 2872
3384 5432
3385 569
3385 1721
3385 2873
3385 5433
3386 570
3386 1722
3386 2874
3386 5434
3387 571
3387 1723
3387 2875
3387 5435
3388 572
3388 1724
3388 2876
3388 5436
3389 573
3389 1725
3389 2877
3389 5437
3390 574
3390 1726
3390 2878
3390 5438
3391 575
3391 1727
3391 2879
3391 5439
3392 576
3392 1728
3392 2880
3392 5440
3393 577
3393 1729
3393 2881
3393 5441
3394 578
3394 1730
3394 2882
3394 5442
3395 579
3395 1731
3395 2883
3395 5443
3396 580
3396 1732
3396 2884
3396 5444
3397 581
3397 1733
3397 2885
3397 5445
3398 582
3398 1734
3398 2886
3398 5446
3399 583
3399 1735
3399 2887
3399 5447
3400 584
3400 1736
3400 2888
3400 5448
3401 585
3401 1737
3401 2889
3401 5449
3402 586
3402 1738
3402 2890
3402 5450
3403 587
3403 1739
3403 2891
3403 5451
3404 588
3404 1740
3404 2892
3404 5452
3405 589
3405 1741
3405 2893
3405 5453
3406 590
3406 1742
3406 2894
3406 5454
3407 591
3407 1743
3407 2895
3407 5455
3408 592
3408 1744
3408 2896
3408 5456
3409 593
3409 1745
3409 2897
3409 5457
3410 594
3410 1746
3410 2898
3410 5458
3411 595
3411 1747
3411 2899
3411 5459
3412 596
3412 1748
3412 2900
3412 5460
3413 597
3413 1749
3413 2901
3413 5461
3414 598
3414 1750
3414 2902
3414 5462
3415 599
3415 1751
3415 2903
3415 5463
3416 600
3416 1752
3416 2904
3416 5464
3417 601
3417 1753
3417 2905
3417 5465
3418 602
3418 1754
3418 2906
3418 5466
3419 603
3419 1755
3419 2907
3419 5467
3420 604
3420 1756
3420 2908
3420 5468
3421 605
3421 1757
3421 2909
3421 5469
3422 606
3422 1758
3422 2910
3422 5470
3423 607
3423 1759
3423 2911
3423 5471
3424 608
3424 1760
3424 2912
3424 5472
3425 609
3425 1761
3425 2913
3425 5473
3426 610
3426 1762
3426 2914
3426 5474
3427 611
3427 1763
3427 2915
3427 5475
3428 612
3428 1764
3428 2916
3428 5476
3429 613
3429 1765
3429 2917
3429 5477
3430 614
3430 1766
3430 2918
3430 5478
3431 615
3431 1767
3431 2919
3431 5479
3432 616
3432 1768
3432 2920
3432 5480
3433 617
3433 1769
3433 2921
3433 5481
3434 618
3434 1770
3434 2922
3434 5482
3435 619
3435 1771
3435 2923
3435 5483
3436 620
3436 1772
3436 2924
3436 5484
3437 621
3437 1773
3437 2925
3437 5485
3438 622
3438 1774
3438 2926
3438 5486
3439 623
3439 1775
3439 2927
3439 5487
3440 624
3440 1776
3440 2928
3440 5488
3441 625
3441 1777
3441 2929
3441 5489
3442 626
3442 1778
3442 2930
3442 5490
3443 627
3443 1779
3443 2931
3443 5491
3444 628
3444 1780
3444 2932
3444 5492
3445 629
3445 1781
3445 2933
3445 5493
3446 630
3446 1782
3446 2934
3446 5494
3447 631
3447 1783
3447 2935
3447 5495
3448 632
3448 1784
3448 2936
3448 5496
3449 633
3449 1785
3449 2937
3449 5497
3450 634
3450 1786
3450 2938
3450 5498
3451 635
3451 1787
3451 2939
3451 5499
3452 636
3452 1788
3452 2940
3452 5500
3453 637
3453 1789
3453 2941
3453 5501
3454 638
3454 1790
3454 2942
3454 5502
3455 639
3455 1791
3455 2943
3455 5503
3456 640
3456 1792
3456 2944
3456 5504
3457 641
3457 1793
3457 2945
3457 5505
3458 642
3458 1794
3458 2946
3458 5506
3459 643
3459 1795
3459 2947
3459 5507
3460 644
3460 1796
3460 2948
3460 5508
3461 645
3461 1797
3461 2949
3461 5509
3462 646
3462 1798
3462 2950
3462 5510
3463 647
3463 1799
3463 2951
3463 5511
3464 648
3464 1800
3464 2952
3464 5512
3465 649
3465 1801
3465 2953
3465 5513
3466 650
3466 1802
3466 2954
3466 5514
3467 651
3467 1803
3467 2955
3467 5515
3468 652
3468 1804
3468 2956
3468 5516
3469 653
3469 1805
3469 2957
3469 5517
3470 654
3470 1806
3470 2958
3470 5518
3471 655
3471 1807
3471 2959
3471 5519
3472 656
3472 1808
3472 2960
3472 5520
3473 657
3473 1809
3473 2961
3473 5521
3474 658
3474 1810
3474 2962
3474 5522
3475 659
3475 1811
3475 2963
3475 5523
3476 660
3476 1812
3476 2964
3476 5524
3477 661
3477 1813
3477 2965
3477 5525
3478 662
3478 1814
3478 2966
3478 5526
3479 663
3479 1815
3479 2967
3479 5527
3480 664
3480 1816
3480 2968
3480 5528
3481 665
3481 1817
3481 2969
3481 5529
3482 666
3482 1818
3482 2970
3482 5530
3483 667
3483 1819
3483 2971
3483 5531
3484 668
3484 1820
3484 2972
3484 5532
3485 669
3485 1821
3485 2973
3485 5533
3486 670
3486 1822
3486 2974
3486 5534
3487 671
3487 1823
3487 2975
3487 5535
3488 672
3488 1824
3488 2976
3488 5536
3489 673
3489 1825
3489 2977
3489 5537
3490 674
3490 1826
3490 2978
3490 5538
3491 675
3491 1827
3491 2979
3491 5539
3492 676
3492 1828
3492 2980
3492 5540
3493 677
3493 1829
3493 2981
3493 5541
3494 678
3494 1830
3494 2982
3494 5542
3495 679
3495 1831
3495 2983
3495 5543
3496 680
3496 1832
3496 2984
3496 5544
3497 681
3497 1833
3497 2985
3497 5545
3498 682
3498 1834
3498 2986
3498 5546
3499 683
3499 1835
3499 2987
3499 5547
3500 684
3500 1836
3500 2988
3500 5548
3501 685
3501 1837
3501 2989
3501 5549
3502 686
3502 1838
3502 2990
3502 5550
3503 687
3503 1839
3503 2991
3503 5551
3504 688
3504 1840
3504 2992
3504 5552
3505 689
3505 1841
3505 2993
3505 5553
3506 690
3506 1842
3506 2994
3506 5554
3507 691
3507 1843
3507 2995
3507 5555
3508 692
3508 1844
3508 2996
3508 5556
3509 693
3509 1845
3509 2997
3509 5557
3510 694
3510 1846
3510 2998
3510 5558
3511 695
3511 1847
3511 2999
3511 5559
3512 696
3512 1848
3512 3000
3512 5560
3513 697
3513 1849
3513 3001
3513 5561
3514 698
3514 1850
3514 3002
3514 5562
3515 699
3515 1851
3515 3003
3515 5563
3516 700
3516 1852
3516 3004
3516 5564
3517 701
3517 1853
3517 3005
3517 5565
3518 702
3518 1854
3518 3006
3518 5566
3519 703
3519 1855
3519 3007
3519 5567
3520 704
3520 1856
3520 3008
3520 5568
3521 705
3521 1857
3521 3009
3521 5569
3522 706
3522 1858
3522 3010
3522 5570
3523 707
3523 1859
3523 3011
3523 5571
3524 708
3524 1860
3524 3012
3524 5572
3525 709
3525 1861
3525 3013
3525 5573
3526 710
3526 1862
3526 3014
3526 5574
3527 711
3527 1863
3527 3015
3527 5575
3528 712
3528 1864
3528 3016
3528 5576
3529 713
3529 1865
3529 3017
3529 5577
3530 714
3530 1866
3530 3018
3530 5578
3531 715
3531 1867
3531 3019
3531 5579
3532 716
3532 1868
3532 3020
3532 5580
3533 717
3533 1869
3533 3021
3533 5581
3534 718
3534 1870
3534 3022
3534 5582
3535 719
3535 1871
3535 3023
3535 5583
3536 720
3536 1872
3536 3024
3536 5584
3537 721
3537 1873
3537 3025
3537 5585
3538 722
3538 1874
3538 3026
3538 5586
3539 723
3539 1875
3539 3027
3539 5587
3540 724
3540 1876
3540 3028
3540 5588
3541 725
3541 1877
3541 3029
3541 5589
3542 726
3542 1878
3542 3030
3542 5590
3543 727
3543 1879
3543 3031
3543 5591
3544 728
3544 1880
3544 3032
3544 5592
3545 729
3545 1881
3545 3033
3545 5593
3546 730
3546 1882
3546 3034
3546 5594
3547 731
3547 1883
3547 3035
3547 5595
3548 732
3548 1884
3548 3036
3548 5596
3549 733
3549 1885
3549 3037
3549 5597
3550 734
3550 1886
3550 3038
3550 5598
3551 735
3551 1887
3551 3039
3551 5599
3552 736
3552 1888
3552 3040
3552 5600
3553 737
3553 1889
3553 3041
3553 5601
3554 738
3554 1890
3554 3042
3554 5602
3555 739
3555 1891
3555 3043
3555 5603
3556 740
3556 1892
3556 3044
3556 5604
3557 741
3557 1893
3557 3045
3557 5605
3558 742
3558 1894
3558 3046
3558 5606
3559 743
3559 1895
3559 3047
3559 5607
3560 744
3560 1896
3560 3048
3560 5608
3561 745
3561 1897
3561 3049
3561 5609
3562 746
3562 1898
3562 3050
3562 5610
3563 747
3563 1899
3563 3051
3563 5611
3564 748
3564 1900
3564 3052
3564 5612
3565 749
3565 1901
3565 3053
3565 5613
3566 750
3566 1902
3566 3054
3566 5614
3567 751
3567 1903
3567 3055
3567 5615
3568 752
3568 1904
3568 3056
3568 5616
3569 753
3569 1905
3569 3057
3569 5617
3570 754
3570 1906
3570 3058
3570 5618
3571 755
3571 1907
3571 3059
3571 5619
3572 756
3572 1908
3572 3060
3572 5620
3573 757
3573 1909
3573 3061
3573 5621
3574 758
3574 1910
3574 3062
3574 5622
3575 759
3575 1911
3575 3063
3575 5623
3576 760
3576 1912
3576 3064
3576 5624
3577 761
3577 1913
3577 3065
3577 5625
3578 762
3578 1914
3578 3066
3578 5626
3579 763
3579 1915
3579 3067
3579 5627
3580 764
3580 1916
3580 3068
3580 5628
3581 765
3581 1917
3581 3069
3581 5629
3582 766
3582 1918
3582 3070
3582 5630
3583 767
3583 1919
3583 3071
3583 5631
3584 768
3584 1920
3584 3072
3584 4224
3585 769
3585 1921
3585 3073
3585 4225
3586 770
3586 1922
3586 3074
3586 4226
3587 771
3587 1923
3587 3075
3587 4227
3588 772
3588 1924
3588 3076
3588 4228
3589 773
3589 1925
3589 3077
3589 4229
3590 774
3590 1926
3590 3078
3590 4230
3591 775
3591 1927
3591 3079
3591 4231
3592 776
3592 1928
3592 3080
3592 4232
3593 777
3593 1929
3593 3081
3593 4233
3594 778
3594 1930
3594 3082
3594 4234
3595 779
3595 1931
3595 3083
3595 4235
3596 780
3596 1932
3596 3084
3596 4236
3597 781
3597 1933
3597 3085
3597 4237
3598 782
3598 1934
3598 3086
3598 4238
3599 783
3599 1935
3599 3087
3599 4239
3600 784
3600 1936
3600 3088
3600 4240
3601 785
3601 1937
3601 3089
3601 4241
3602 786
3602 1938
3602 3090
3602 4242
3603 787
3603 1939
3603 3091
3603 4243
3604 788
3604 1940
3604 3092
3604 4244
3605 789
3605 1941
3605 3093
3605 4245
3606 790
3606 1942
3606 3094
3606 4246
3607 791
3607 1943
3607 3095
3607 4247
3608 792
3608 1944
3608 3096
3608 4248
3609 793
3609 1945
3609 3097
3609 4249
3610 794
3610 1946
3610 3098
3610 4250
3611 795
3611 1947
3611 3099
3611 4251
3612 796
3612 1948
3612 3100
3612 4252
3613 797
3613 1949
3613 3101
3613 4253
3614 798
3614 1950
3614 3102
3614 4254
3615 799
3615 1951
3615 3103
3615 4255
3616 800
3616 1952
3616 3104
3616 4256
3617 801
3617 1953
3617 3105
3617 4257
3618 802
3618 1954
3618 3106
3618 4258
3619 803
3619 1955
3619 3107
3619 4259
3620 804
3620 1956
3620 3108
3620 4260
3621 805
3621 1957
3621 3109
3621 4261
3622 806
3622 1958
3622 3110
3622 4262
3623 807
3623 1959
3623 3111
3623 4263
3624 808
3624 1960
3624 3112
3624 4264
3625 809
3625 1961
3625 3113
3625 4265
3626 810
3626 1962
3626 3114
3626 4266
3627 811
3627 1963
3627 3115
3627 4267
3628 812
3628 1964
3628 3116
3628 4268
3629 813
3629 1965
3629 3117
3629 4269
3630 814
3630 1966
3630 3118
3630 4270
3631 815
3631 1967
3631 3119
3631 4271
3632 816
3632 1968
3632 3120
3632 4272
3633 817
3633 1969
3633 3121
3633 4273
3634 818
3634 1970
3634 3122
3634 4274
3635 819
3635 1971
3635 3123
3635 4275
3636 820
3636 1972
3636 3124
3636 4276
3637 821
3637 1973
3637 3125
3637 4277
3638 822
3638 1974
3638 3126
3638 4278
3639 823
3639 1975
3639 3127
3639 4279
3640 824
3640 1976
3640 3128
3640 4280
3641 825
3641 1977
3641 3129
3641 4281
3642 826
3642 1978
3642 3130
3642 4282
3643 827
3643 1979
3643 3131
3643 4283
3644 828
3644 1980
3644 3132
3644 4284
3645 829
3645 1981
3645 3133
3645 4285
3646 830
3646 1982
3646 3134
3646 4286
3647 831
3647 1983
3647 3135
3647 4287
3648 832
3648 1984
3648 3136
3648 4288
3649 833
3649 1985
3649 3137
3649 4289
3650 834
3650 1986
3650 3138
3650 4290
3651 835
3651 1987
3651 3139
3651 4291
3652 836
3652 1988
3652 3140
3652 4292
3653 837
3653 1989
3653 3141
3653 4293
3654 838
3654 1990
3654 3142
3654 4294
3655 839
3655 1991
3655 3143
3655 4295
3656 840
3656 1992
3656 3144
3656 4296
3657 841
3657 1993
3657 3145
3657 4297
3658 842
3658 1994
3658 3146
3658 4298
3659 843
3659 1995
3659 3147
3659 4299
3660 844
3660 1996
3660 3148
3660 4300
3661 845
3661 1997
3661 3149
3661 4301
3662 846
3662 1998
3662 3150
3662 4302
3663 847
3663 1999
3663 3151
3663 4303
3664 848
3664 2000
3664 3152
3664 4304
3665 849
3665 2001
3665 3153
3665 4305
3666 850
3666 2002
3666 3154
3666 4306
3667 851
3667 2003
3667 3155
3667 4307
3668 852
3668 2004
3668 3156
3668 4308
3669 853
3669 2005
3669 3157
3669 4309
3670 854
3670 2006
3670 3158
3670 4310
3671 855
3671 2007
3671 3159
3671 4311
3672 856
3672 2008
3672 3160
3672 4312
3673 857
3673 2009
3673 3161
3673 4313
3674 858
3674 2010
3674 3162
3674 4314
3675 859
3675 2011
3675 3163
3675 4315
3676 860
3676 2012
3676 3164
3676 4316
3677 861
3677 2013
3677 3165
3677 4317
3678 862
3678 2014
3678 3166
3678 4318
3679 863
3679 2015
3679 3167
3679 4319
3680 864
3680 2016
3680 3168
3680 4320
3681 865
3681 2017
3681 3169
3681 4321
3682 866
3682 2018
3682 3170
3682 4322
3683 867
3683 2019
3683 3171
3683 4323
3684 868
3684 2020
3684 3172
3684 4324
3685 869
3685 2021
3685 3173
3685 4325
3686 870
3686 2022
3686 3174
3686 4326
3687 871
3687 2023
3687 3175
3687 4327
3688 872
3688 2024
3688 3176
3688 4328
3689 873
3689 2025
3689 3177
3689 4329
3690 874
3690 2026
3690 3178
3690 4330
3691 875
3691 2027
3691 3179
3691 4331
3692 876
3692 2028
3692 3180
3692 4332
3693 877
3693 2029
3693 3181
3693 4333
3694 878
3694 2030
3694 3182
3694 4334
3695 879
3695 2031
3695 3183
3695 4335
3696 880
3696 2032
3696 3184
3696 4336
3697 881
3697 2033
3697 3185
3697 4337
3698 882
3698 2034
3698 3186
3698 4338
3699 883
3699 2035
3699 3187
3699 4339
3700 884
3700 2036
3700 3188
3700 4340
3701 885
3701 2037
3701 3189
3701 4341
3702 886
3702 2038
3702 3190
3702 4342
3703 887
3703 2039
3703 3191
3703 4343
3704 888
3704 2040
3704 3192
3704 4344
3705 889
3705 2041
3705 3193
3705 4345
3706 890
3706 2042
3706 3194
3706 4346
3707 891
3707 2043
3707 3195
3707 4347
3708 892
3708 2044
3708 3196
3708 4348
3709 893
3709 2045
3709 3197
3709 4349
3710 894
3710 2046
3710 3198
3710 4350
3711 895
3711 2047
3711 3199
3711 4351
3712 896
3712 2048
3712 3200
3712 4352
3713 897
3713 2049
3713 3201
3713 4353
3714 898
3714 2050
3714 3202
3714 4354
3715 899
3715 2051
3715 3203
3715 4355
3716 900
3716 2052
3716 3204
3716 4356
3717 901
3717 2053
3717 3205
3717 4357
3718 902
3718 2054
3718 3206
3718 4358
3719 903
3719 2055
3719 3207
3719 4359
3720 904
3720 2056
3720 3208
3720 4360
3721 905
3721 2057
3721 3209
3721 4361
3722 906
3722 2058
3722 3210
3722 4362
3723 907
3723 2059
3723 3211
3723 4363
3724 908
3724 2060
3724 3212
3724 4364
3725 909
3725 2061
3725 3213
3725 4365
3726 910
3726 2062
3726 3214
3726 4366
3727 911
3727 2063
3727 3215
3727 4367
3728 912
3728 2064
3728 3216
3728 4368
3729 913
3729 2065
3729 3217
3729 4369
3730 914
3730 2066
3730 3218
3730 4370
3731 915
3731 2067
3731 3219
3731 4371
3732 916
3732 2068
3732 3220
3732 4372
3733 917
3733 2069
3733 3221
3733 4373
3734 918
3734 2070
3734 3222
3734 4374
3735 919
3735 2071
3735 3223
3735 4375
3736 920
3736 2072
3736 3224
3736 4376
3737 921
3737 2073
3737 3225
3737 4377
3738 922
3738 2074
3738 3226
3738 4378
3739 923
3739 2075
3739 3227
3739 4379
3740 924
3740 2076
3740 3228
3740 4380
3741 925
3741 2077
3741 3229
3741 4381
3742 926
3742 2078
3742 3230
3742 4382
3743 927
3743 2079
3743 3231
3743 4383
3744 928
3744 2080
3744 3232
3744 4384
3745 929
3745 2081
3745 3233
3745 4385
3746 930
3746 2082
3746 3234
3746 4386
3747 931
3747 2083
3747 3235
3747 4387
3748 932
3748 2084
3748 3236
3748 4388
3749 933
3749 2085
3749 3237
3749 4389
3750 934
3750 2086
3750 3238
3750 4390
3751 935
3751 2087
3751 3239
3751 4391
3752 936
3752 2088
3752 3240
3752 4392
3753 937
3753 2089
3753 3241
3753 4393
3754 938
3754 2090
3754 3242
3754 4394
3755 939
3755 2091
3755 3243
3755 4395
3756 940
3756 2092
3756 3244
3756 4396
3757 941
3757 2093
3757 3245
3757 4397
3758 942
3758 2094
3758 3246
3758 4398
3759 943
3759 2095
3759 3247
3759 4399
3760 944
3760 2096
3760 3248
3760 4400
3761 945
3761 2097
3761 3249
3761 4401
3762 946
3762 2098
3762 3250
3762 4402
3763 947
3763 2099
3763 3251
3763 4403
3764 948
3764 2100
3764 3252
3764 4404
3765 949
3765 2101
3765 3253
3765 4405
3766 950
3766 2102
3766 3254
3766 4406
3767 951
3767 2103
3767 3255
3767 4407
3768 952
3768 2104
3768 3256
3768 4408
3769 953
3769 2105
3769 3257
3769 4409
3770 954
3770 2106
3770 3258
3770 4410
3771 955
3771 2107
3771 3259
3771 4411
3772 956
3772 2108
3772 3260
3772 4412
3773 957
3773 2109
3773 3261
3773 4413
3774 958
3774 2110
3774 3262
3774 4414
3775 959
3775 2111
3775 3263
3775 4415
3776 960
3776 2112
3776 3264
3776 4416
3777 961
3777 2113
3777 3265
3777 4417
3778 962
3778 2114
3778 3266
3778 4418
3779 963
3779 2115
3779 3267
3779 4419
3780 964
3780 2116
3780 3268
3780 4420
3781 965
3781 2117
3781 3269
3781 4421
3782 966
3782 2118
3782 3270
3782 4422
3783 967
3783 2119
3783 3271
3783 4423
3784 968
3784 2120
3784 3272
3784 4424
3785 969
3785 2121
3785 3273
3785 4425
3786 970
3786 2122
3786 3274
3786 4426
3787 971
3787 2123
3787 3275
3787 4427
3788 972
3788 2124
3788 3276
3788 4428
3789 973
3789 2125
3789 3277
3789 4429
3790 974
3790 2126
3790 3278
3790 4430
3791 975
3791 2127
3791 3279
3791 4431
3792 976
3792 2128
3792 3280
3792 4432
3793 977
3793 2129
3793 3281
3793 4433
3794 978
3794 2130
3794 3282
3794 4434
3795 979
3795 2131
3795 3283
3795 4435
3796 980
3796 2132
3796 3284
3796 4436
3797 981
3797 2133
3797 3285
3797 4437
3798 982
3798 2134
3798 3286
3798 4438
3799 983
3799 2135
3799 3287
3799 4439
3800 984
3800 2136
3800 3288
3800 4440
3801 985
3801 2137
3801 3289
3801 4441
3802 986
3802 2138
3802 3290
3802 4442
3803 987
3803 2139
3803 3291
3803 4443
3804 988
3804 2140
3804 3292
3804 4444
3805 989
3805 2141
3805 3293
3805 4445
3806 990
3806 2142
3806 3294
3806 4446
3807 991
3807 2143
3807 3295
3807 4447
3808 992
3808 2144
3808 3296
3808 4448
3809 993
3809 2145
3809 3297
3809 4449
3810 994
3810 2146
3810 3298
3810 4450
3811 995
3811 2147
3811 3299
3811 4451
3812 996
3812 2148
3812 3300
3812 4452
3813 997
3813 2149
3813 3301
3813 4453
3814 998
3814 2150
3814 3302
3814 4454
3815 999
3815 2151
3815 3303
3815 4455
3816 1000
3816 2152
3816 3304
3816 4456
3817 1001
3817 2153
3817 3305
3817 4457
3818 1002
3818 2154
3818 3306
3818 4458
3819 1003
3819 2155
3819 3307
3819 4459
3820 1004
3820 2156
3820 3308
3820 4460
3821 1005
3821 2157
3821 3309
3821 4461
3822 1006
3822 2158
3822 3310
3822 4462
3823 1007
3823 2159
3823 3311
3823 4463
3824 1008
3824 2160
3824 3312
3824 4464
3825 1009
3825 2161
3825 3313
3825 4465
3826 1010
3826 2162
3826 3314
3826 4466
3827 1011
3827 2163
3827 3315
3827 4467
3828 1012
3828 2164
3828 3316
3828 4468
3829 1013
3829 2165
3829 3317
3829 4469
3830 1014
3830 2166
3830 3318
3830 4470
3831 1015
3831 2167
3831 3319
3831 4471
3832 1016
3832 2168
3832 3320
3832 4472
3833 1017
3833 2169
3833 3321
3833 4473
3834 1018
3834 2170
3834 3322
3834 4474
3835 1019
3835 2171
3835 3323
3835 4475
3836 1020
3836 2172
3836 3324
3836 4476
3837 1021
3837 2173
3837 3325
3837 4477
3838 1022
3838 2174
3838 3326
3838 4478
3839 1023
3839 2175
3839 3327
3839 4479
3840 1024
3840 2176
3840 3328
3840 4480
3841 1025
3841 2177
3841 3329
3841 4481
3842 1026
3842 2178
3842 3330
3842 4482
3843 1027
3843 2179
3843 3331
3843 4483
3844 1028
3844 2180
3844 3332
3844 4484
3845 1029
3845 2181
3845 3333
3845 4485
3846 1030
3846 2182
3846 3334
3846 4486
3847 1031
3847 2183
3847 3335
3847 4487
3848 1032
3848 2184
3848 3336
3848 4488
3849 1033
3849 2185
3849 3337
3849 4489
3850 1034
3850 2186
3850 3338
3850 4490
3851 1035
3851 2187
3851 3339
3851 4491
3852 1036
3852 2188
3852 3340
3852 4492
3853 1037
3853 2189
3853 3341
3853 4493
3854 1038
3854 2190
3854 3342
3854 4494
3855 1039
3855 2191
3855 3343
3855 4495
3856 1040
3856 2192
3856 3344
3856 4496
3857 1041
3857 2193
3857 3345
3857 4497
3858 1042
3858 2194
3858 3346
3858 4498
3859 1043
3859 2195
3859 3347
3859 4499
3860 1044
3860 2196
3860 3348
3860 4500
3861 1045
3861 2197
3861 3349
3861 4501
3862 1046
3862 2198
3862 3350
3862 4502
3863 1047
3863 2199
3863 3351
3863 4503
3864 1048
3864 2200
3864 3352
3864 4504
3865 1049
3865 2201
3865 3353
3865 4505
3866 1050
3866 2202
3866 3354
3866 4506
3867 1051
3867 2203
3867 3355
3867 4507
3868 1052
3868 2204
3868 3356
3868 4508
3869 1053
3869 2205
3869 3357
3869 4509
3870 1054
3870 2206
3870 3358
3870 4510
3871 1055
3871 2207
3871 3359
3871 4511
3872 1056
3872 2208
3872 3360
3872 4512
3873 1057
3873 2209
3873 3361
3873 4513
3874 1058
3874 2210
3874 3362
3874 4514
3875 1059
3875 2211
3875 3363
3875 4515
3876 1060
3876 2212
3876 3364
3876 4516
3877 1061
3877 2213
3877 3365
3877 4517
3878 1062
3878 2214
3878 3366
3878 4518
3879 1063
3879 2215
3879 3367
3879 4519
3880 1064
3880 2216
3880 3368
3880 4520
3881 1065
3881 2217
3881 3369
3881 4521
3882 1066
3882 2218
3882 3370
3882 4522
3883 1067
3883 2219
3883 3371
3883 4523
3884 1068
3884 2220
3884 3372
3884 4524
3885 1069
3885 2221
3885 3373
3885 4525
3886 1070
3886 2222
3886 3374
3886 4526
3887 1071
3887 2223
3887 3375
3887 4527
3888 1072
3888 2224
3888 3376
3888 4528
3889 1073
3889 2225
3889 3377
3889 4529
3890 1074
3890 2226
3890 3378
3890 4530
3891 1075
3891 2227
3891 3379
3891 4531
3892 1076
3892 2228
3892 3380
3892 4532
3893 1077
3893 2229
3893 3381
3893 4533
3894 1078
3894 2230
3894 3382
3894 4534
3895 1079
3895 2231
3895 3383
3895 4535
3896 1080
3896 2232
3896 3384
3896 4536
3897 1081
3897 2233
3897 3385
3897 4537
3898 1082
3898 2234
3898 3386
3898 4538
3899 1083
3899 2235
3899 3387
3899 4539
3900 1084
3900 2236
3900 3388
3900 4540
3901 1085
3901 2237
3901 3389
3901 4541
3902 1086
3902 2238
3902 3390
3902 4542
3903 1087
3903 2239
3903 3391
3903 4543
3904 1088
3904 2240
3904 3392
3904 4544
3905 1089
3905 2241
3905 3393
3905 4545
3906 1090
3906 2242
3906 3394
3906 4546
3907 1091
3907 2243
3907 3395
3907 4547
3908 1092
3908 2244
3908 3396
3908 4548
3909 1093
3909 2245
3909 3397
3909 4549
3910 1094
3910 2246
3910 3398
3910 4550
3911 1095
3911 2247
3911 3399
3911 4551
3912 1096
3912 2248
3912 3400
3912 4552
3913 1097
3913 2249
3913 3401
3913 4553
3914 1098
3914 2250
3914 3402
3914 4554
3915 1099
3915 2251
3915 3403
3915 4555
3916 1100
3916 2252
3916 3404
3916 4556
3917 1101
3917 2253
3917 3405
3917 4557
3918 1102
3918 2254
3918 3406
3918 4558
3919 1103
3919 2255
3919 3407
3919 4559
3920 1104
3920 2256
3920 3408
3920 4560
3921 1105
3921 2257
3921 3409
3921 4561
3922 1106
3922 2258
3922 3410
3922 4562
3923 1107
3923 2259
3923 3411
3923 4563
3924 1108
3924 2260
3924 3412
3924 4564
3925 1109
3925 2261
3925 3413
3925 4565
3926 1110
3926 2262
3926 3414
3926 4566
3927 1111
3927 2263
3927 3415
3927 4567
3928 1112
3928 2264
3928 3416
3928 4568
3929 1113
3929 2265
3929 3417
3929 4569
3930 1114
3930 2266
3930 3418
3930 4570
3931 1115
3931 2267
3931 3419
3931 4571
3932 1116
3932 2268
3932 3420
3932 4572
3933 1117
3933 2269
3933 3421
3933 4573
3934 1118
3934 2270
3934 3422
3934 4574
3935 1119
3935 2271
3935 3423
3935 4575
3936 1120
3936 2272
3936 3424
3936 4576
3937 1121
3937 2273
3937 3425
3937 4577
3938 1122
3938 2274
3938 3426
3938 4578
3939 1123
3939 2275
3939 3427
3939 4579
3940 1124
3940 2276
3940 3428
3940 4580
3941 1125
3941 2277
3941 3429
3941 4581
3942 1126
3942 2278
3942 3430
3942 4582
3943 1127
3943 2279
3943 3431
3943 4583
3944 1128
3944 2280
3944 3432
3944 4584
3945 1129
3945 2281
3945 3433
3945 4585
3946 1130
3946 2282
3946 3434
3946 4586
3947 1131
3947 2283
3947 3435
3947 4587
3948 1132
3948 2284
3948 3436
3948 4588
3949 1133
3949 2285
3949 3437
3949 4589
3950 1134
3950 2286
3950 3438
3950 4590
3951 1135
3951 2287
3951 3439
3951 4591
3952 1136
3952 2288
3952 3440
3952 4592
3953 1137
3953 2289
3953 3441
3953 4593
3954 1138
3954 2290
3954 3442
3954 4594
3955 1139
3955 2291
3955 3443
3955 4595
3956 1140
3956 2292
3956 3444
3956 4596
3957 1141
3957 2293
3957 3445
3957 4597
3958 1142
3958 2294
3958 3446
3958 4598
3959 1143
3959 2295
3959 3447
3959 4599
3960 1144
3960 2296
3960 3448
3960 4600
3961 1145
3961 2297
3961 3449
3961 4601
3962 1146
3962 2298
3962 3450
3962 4602
3963 1147
3963 2299
3963 3451
3963 4603
3964 1148
3964 2300
3964 3452
3964 4604
3965 1149
3965 2301
3965 3453
3965 4605
3966 1150
3966 2302
3966 3454
3966 4606
3967 1151
3967 2303
3967 3455
3967 4607
3968 1152
3968 2304
3968 3456
3968 4608
3969 1153
3969 2305
3969 3457
3969 4609
3970 1154
3970 2306
3970 3458
3970 4610
3971 1155
3971 2307
3971 3459
3971 4611
3972 1156
3972 2308
3972 3460
3972 4612
3973 1157
3973 2309
3973 3461
3973 4613
3974 1158
3974 2310
3974 3462
3974 4614
3975 1159
3975 2311
3975 3463
3975 4615
3976 1160
3976 2312
3976 3464
3976 4616
3977 1161
3977 2313
3977 3465
3977 4617
3978 1162
3978 2314
3978 3466
3978 4618
3979 1163
3979 2315
3979 3467
3979 4619
3980 1164
3980 2316
3980 3468
3980 4620
3981 1165
3981 2317
3981 3469
3981 4621
3982 1166
3982 2318
3982 3470
3982 4622
3983 1167
3983 2319
3983 3471
3983 4623
3984 1168
3984 2320
3984 3472
3984 4624
3985 1169
3985 2321
3985 3473
3985 4625
3986 1170
3986 2322
3986 3474
3986 4626
3987 1171
3987 2323
3987 3475
3987 4627
3988 1172
3988 2324
3988 3476
3988 4628
3989 1173
3989 2325
3989 3477
3989 4629
3990 1174
3990 2326
3990 3478
3990 4630
3991 1175
3991 2327
3991 3479
3991 4631
3992 1176
3992 2328
3992 3480
3992 4632
3993 1177
3993 2329
3993 3481
3993 4633
3994 1178
3994 2330
3994 3482
3994 4634
3995 1179
3995 2331
3995 3483
3995 4635
3996 1180
3996 2332
3996 3484
3996 4636
3997 1181
3997 2333
3997 3485
3997 4637
3998 1182
3998 2334
3998 3486
3998 4638
3999 1183
3999 2335
3999 3487
3999 4639
4000 1184
4000 2336
4000 3488
4000 4640
4001 1185
4001 2337
4001 3489
4001 4641
4002 1186
4002 2338
4002 3490
4002 4642
4003 1187
4003 2339
4003 3491
4003 4643
4004 1188
4004 2340
4004 3492
4004 4644
4005 1189
4005 2341
4005 3493
4005 4645
4006 1190
4006 2342
4006 3494
4006 4646
4007 1191
4007 2343
4007 3495
4007 4647
4008 1192
4008 2344
4008 3496
4008 4648
4009 1193
4009 2345
4009 3497
4009 4649
4010 1194
4010 2346
4010 3498
4010 4650
4011 1195
4011 2347
4011 3499
4011 4651
4012 1196
4012 2348
4012 3500
4012 4652
4013 1197
4013 2349
4013 3501
4013 4653
4014 1198
4014 2350
4014 3502
4014 4654
4015 1199
4015 2351
4015 3503
4015 4655
4016 1200
4016 2352
4016 3504
4016 4656
4017 1201
4017 2353
4017 3505
4017 4657
4018 1202
4018 2354
4018 3506
4018 4658
4019 1203
4019 2355
4019 3507
4019 4659
4020 1204
4020 2356
4020 3508
4020 4660
4021 1205
4021 2357
4021 3509
4021 4661
4022 1206
4022 2358
4022 3510
4022 4662
4023 1207
4023 2359
4023 3511
4023 4663
4024 1208
4024 2360
4024 3512
4024 4664
4025 1209
4025 2361
4025 3513
4025 4665
4026 1210
4026 2362
4026 3514
4026 4666
4027 1211
4027 2363
4027 3515
4027 4667
4028 1212
4028 2364
4028 3516
4028 4668
4029 1213
4029 2365
4029 3517
4029 4669
4030 1214
4030 2366
4030 3518
4030 4670
4031 1215
4031 2367
4031 3519
4031 4671
4032 1216
4032 2368
4032 3520
4032 4672
4033 1217
4033 2369
4033 3521
4033 4673
4034 1218
4034 2370
4034 3522
4034 4674
4035 1219
4035 2371
4035 3523
4035 4675
4036 1220
4036 2372
4036 3524
4036 4676
4037 1221
4037 2373
4037 3525
4037 4677
4038 1222
4038 2374
4038 3526
4038 4678
4039 1223
4039 2375
4039 3527
4039 4679
4040 1224
4040 2376
4040 3528
4040 4680
4041 1225
4041 2377
4041 3529
4041 4681
4042 1226
4042 2378
4042 3530
4042 4682
4043 1227
4043 2379
4043 3531
4043 4683
4044 1228
4044 2380
4044 3532
4044 4684
4045 1229
4045 2381
4045 3533
4045 4685
4046 1230
4046 2382
4046 3534
4046 4686
4047 1231
4047 2383
4047 3535
4047 4687
4048 1232
4048 2384
4048 3536
4048 4688
4049 1233
4049 2385
4049 3537
4049 4689
4050 1234
4050 2386
4050 3538
4050 4690
4051 1235
4051 2387
4051 3539
4051 4691
4052 1236
4052 2388
4052 3540
4052 4692
4053 1237
4053 2389
4053 3541
4053 4693
4054 1238
4054 2390
4054 3542
4054 4694
4055 1239
4055 2391
4055 3543
4055 4695
4056 1240
4056 2392
4056 3544
4056 4696
4057 1241
4057 2393
4057 3545
4057 4697
4058 1242
4058 2394
4058 3546
4058 4698
4059 1243
4059 2395
4059 3547
4059 4699
4060 1244
4060 2396
4060 3548
4060 4700
4061 1245
4061 2397
4061 3549
4061 4701
4062 1246
4062 2398
4062 3550
4062 4702
4063 1247
4063 2399
4063 3551
4063 4703
4064 1248
4064 2400
4064 3552
4064 4704
4065 1249
4065 2401
4065 3553
4065 4705
4066 1250
4066 2402
4066 3554
4066 4706
4067 1251
4067 2403
4067 3555
4067 4707
4068 1252
4068 2404
4068 3556
4068 4708
4069 1253
4069 2405
4069 3557
4069 4709
4070 1254
4070 2406
4070 3558
4070 4710
4071 1255
4071 2407
4071 3559
4071 4711
4072 1256
4072 2408
4072 3560
4072 4712
4073 1257
4073 2409
4073 3561
4073 4713
4074 1258
4074 2410
4074 3562
4074 4714
4075 1259
4075 2411
4075 3563
4075 4715
4076 1260
4076 2412
4076 3564
4076 4716
4077 1261
4077 2413
4077 3565
4077 4717
4078 1262
4078 2414
4078 3566
4078 4718
4079 1263
4079 2415
4079 3567
4079 4719
4080 1264
4080 2416
4080 3568
4080 4720
4081 1265
4081 2417
4081 3569
4081 4721
4082 1266
4082 2418
4082 3570
4082 4722
4083 1267
4083 2419
4083 3571
4083 4723
4084 1268
4084 2420
4084 3572
4084 4724
4085 1269
4085 2421
4085 3573
4085 4725
4086 1270
4086 2422
4086 3574
4086 4726
4087 1271
4087 2423
4087 3575
4087 4727
4088 1272
4088 2424
4088 3576
4088 4728
4089 1273
4089 2425
4089 3577
4089 4729
4090 1274
4090 2426
4090 3578
4090 4730
4091 1275
4091 2427
4091 3579
4091 4731
4092 1276
4092 2428
4092 3580
4092 4732
4093 1277
4093 2429
4093 3581
4093 4733
4094 1278
4094 2430
4094 3582
4094 4734
4095 1279
4095 2431
4095 3583
4095 4735
4096 1280
4096 2432
4096 3584
4096 4736
4097 1281
4097 2433
4097 3585
4097 4737
4098 1282
4098 2434
4098 3586
4098 4738
4099 1283
4099 2435
4099 3587
4099 4739
4100 1284
4100 2436
4100 3588
4100 4740
4101 1285
4101 2437
4101 3589
4101 4741
4102 1286
4102 2438
4102 3590
4102 4742
4103 1287
4103 2439
4103 3591
4103 4743
4104 1288
4104 2440
4104 3592
4104 4744
4105 1289
4105 2441
4105 3593
4105 4745
4106 1290
4106 2442
4106 3594
4106 4746
4107 1291
4107 2443
4107 3595
4107 4747
4108 1292
4108 2444
4108 3596
4108 4748
4109 1293
4109 2445
4109 3597
4109 4749
4110 1294
4110 2446
4110 3598
4110 4750
4111 1295
4111 2447
4111 3599
4111 4751
4112 1296
4112 2448
4112 3600
4112 4752
4113 1297
4113 2449
4113 3601
4113 4753
4114 1298
4114 2450
4114 3602
4114 4754
4115 1299
4115 2451
4115 3603
4115 4755
4116 1300
4116 2452
4116 3604
4116 4756
4117 1301
4117 2453
4117 3605
4117 4757
4118 1302
4118 2454
4118 3606
4118 4758
4119 1303
4119 2455
4119 3607
4119 4759
4120 1304
4120 2456
4120 3608
4120 4760
4121 1305
4121 2457
4121 3609
4121 4761
4122 1306
4122 2458
4122 3610
4122 4762
4123 1307
4123 2459
4123 3611
4123 4763
4124 1308
4124 2460
4124 3612
4124 4764
4125 1309
4125 2461
4125 3613
4125 4765
4126 1310
4126 2462
4126 3614
4126 4766
4127 1311
4127 2463
4127 3615
4127 4767
4128 1312
4128 2464
4128 3616
4128 4768
4129 1313
4129 2465
4129 3617
4129 4769
4130 1314
4130 2466
4130 3618
4130 4770
4131 1315
4131 2467
4131 3619
4131 4771
4132 1316
4132 2468
4132 3620
4132 4772
4133 1317
4133 2469
4133 3621
4133 4773
4134 1318
4134 2470
4134 3622
4134 4774
4135 1319
4135 2471
4135 3623
4135 4775
4136 1320
4136 2472
4136 3624
4136 4776
4137 1321
4137 2473
4137 3625
4137 4777
4138 1322
4138 2474
4138 3626
4138 4778
4139 1323
4139 2475
4139 3627
4139 4779
4140 1324
4140 2476
4140 3628
4140 4780
4141 1325
4141 2477
4141 3629
4141 4781
4142 1326
4142 2478
4142 3630
4142 4782
4143 1327
4143 2479
4143 3631
4143 4783
4144 1328
4144 2480
4144 3632
4144 4784
4145 1329
4145 2481
4145 3633
4145 4785
4146 1330
4146 2482
4146 3634
4146 4786
4147 1331
4147 2483
4147 3635
4147 4787
4148 1332
4148 2484
4148 3636
4148 4788
4149 1333
4149 2485
4149 3637
4149 4789
4150 1334
4150 2486
4150 3638
4150 4790
4151 1335
4151 2487
4151 3639
4151 4791
4152 1336
4152 2488
4152 3640
4152 4792
4153 1337
4153 2489
4153 3641
4153 4793
4154 1338
4154 2490
4154 3642
4154 4794
4155 1339
4155 2491
4155 3643
4155 4795
4156 1340
4156 2492
4156 3644
4156 4796
4157 1341
4157 2493
4157 3645
4157 4797
4158 1342
4158 2494
4158 3646
4158 4798
4159 1343
4159 2495
4159 3647
4159 4799
4160 1344
4160 2496
4160 3648
4160 4800
4161 1345
4161 2497
4161 3649
4161 4801
4162 1346
4162 2498
4162 3650
4162 4802
4163 1347
4163 2499
4163 3651
4163 4803
4164 1348
4164 2500
4164 3652
4164 4804
4165 1349
4165 2501
4165 3653
4165 4805
4166 1350
4166 2502
4166 3654
4166 4806
4167 1351
4167 2503
4167 3655
4167 4807
4168 1352
4168 2504
4168 3656
4168 4808
4169 1353
4169 2505
4169 3657
4169 4809
4170 1354
4170 2506
4170 3658
4170 4810
4171 1355
4171 2507
4171 3659
4171 4811
4172 1356
4172 2508
4172 3660
4172 4812
4173 1357
4173 2509
4173 3661
4173 4813
4174 1358
4174 2510
4174 3662
4174 4814
4175 1359
4175 2511
4175 3663
4175 4815
4176 1360
4176 2512
4176 3664
4176 4816
4177 1361
4177 2513
4177 3665
4177 4817
4178 1362
4178 2514
4178 3666
4178 4818
4179 1363
4179 2515
4179 3667
4179 4819
4180 1364
4180 2516
4180 3668
4180 4820
4181 1365
4181 2517
4181 3669
4181 4821
4182 1366
4182 2518
4182 3670
4182 4822
4183 1367
4183 2519
4183 3671
4183 4823
4184 1368
4184 2520
4184 3672
4184 4824
4185 1369
4185 2521
4185 3673
4185 4825
4186 1370
4186 2522
4186 3674
4186 4826
4187 1371
4187 2523
4187 3675
4187 4827
4188 1372
4188 2524
4188 3676
4188 4828
4189 1373
4189 2525
4189 3677
4189 4829
4190 1374
4190 2526
4190 3678
4190 4830
4191 1375
4191 2527
4191 3679
4191 4831
4192 1376
4192 2528
4192 3680
4192 4832
4193 1377
4193 2529
4193 3681
4193 4833
4194 1378
4194 2530
4194 3682
4194 4834
4195 1379
4195 2531
4195 3683
4195 4835
4196 1380
4196 2532
4196 3684
4196 4836
4197 1381
4197 2533
4197 3685
4197 4837
4198 1382
4198 2534
4198 3686
4198 4838
4199 1383
4199 2535
4199 3687
4199 4839
4200 1384
4200 2536
4200 3688
4200 4840
4201 1385
4201 2537
4201 3689
4201 4841
4202 1386
4202 2538
4202 3690
4202 4842
4203 1387
4203 2539
4203 3691
4203 4843
4204 1388
4204 2540
4204 3692
4204 4844
4205 1389
4205 2541
4205 3693
4205 4845
4206 1390
4206 2542
4206 3694
4206 4846
4207 1391
4207 2543
4207 3695
4207 4847
4208 1392
4208 2544
4208 3696
4208 4848
4209 1393
4209 2545
4209 3697
4209 4849
4210 1394
4210 2546
4210 3698
4210 4850
4211 1395
4211 2547
4211 3699
4211 4851
4212 1396
4212 2548
4212 3700
4212 4852
4213 1397
4213 2549
4213 3701
4213 4853
4214 1398
4214 2550
4214 3702
4214 4854
4215 1399
4215 2551
4215 3703
4215 4855
4216 1400
4216 2552
4216 3704
4216 4856
4217 1401
4217 2553
4217 3705
4217 4857
4218 1402
4218 2554
4218 3706
4218 4858
4219 1403
4219 2555
4219 3707
4219 4859
4220 1404
4220 2556
4220 3708
4220 4860
4221 1405
4221 2557
4221 3709
4221 4861
4222 1406
4222 2558
4222 3710
4222 4862
4223 1407
4223 2559
4223 3711
4223 4863
4224 0
4224 2432
4224 3456
4224 4480
4225 1
4225 2433
4225 3457
4225 4481
4226 2
4226 2434
4226 3458
4226 4482
4227 3
4227 2435
4227 3459
4227 4483
4228 4
4228 2436
4228 3460
4228 4484
4229 5
4229 2437
4229 3461
4229 4485
4230 6
4230 2438
4230 3462
4230 4486
4231 7
4231 2439
4231 3463
4231 4487
4232 8
4232 2440
4232 3464
4232 4488
4233 9
4233 2441
4233 3465
4233 4489
4234 10
4234 2442
4234 3466
4234 4490
4235 11
4235 2443
4235 3467
4235 4491
4236 12
4236 2444
4236 3468
4236 4492
4237 13
4237 2445
4237 3469
4237 4493
4238 14
4238 2446
4238 3470
4238 4494
4239 15
4239 2447
4239 3471
4239 4495
4240 16
4240 2448
4240 3472
4240 4496
4241 17
4241 2449
4241 3473
4241 4497
4242 18
4242 2450
4242 3474
4242 4498
4243 19
4243 2451
4243 3475
4243 4499
4244 20
4244 2452
4244 3476
4244 4500
4245 21
4245 2453
4245 3477
4245 4501
4246 22
4246 2454
4246 3478
4246 4502
4247 23
4247 2455
4247 3479
4247 4503
4248 24
4248 2456
4248 3480
4248 4504
4249 25
4249 2457
4249 3481
4249 4505
4250 26
4250 2458
4250 3482
4250 4506
4251 27
4251 2459
4251 3483
4251 4507
4252 28
4252 2460
4252 3484
4252 4508
4253 29
4253 2461
4253 3485
4253 4509
4254 30
4254 2462
4254 3486
4254 4510
4255 31
4255 2463
4255 3487
4255 4511
4256 32
4256 2464
4256 3488
4256 4512
4257 33
4257 2465
4257 3489
4257 4513
4258 34
4258 2466
4258 3490
4258 4514
4259 35
4259 2467
4259 3491
4259 4515
4260 36
4260 2468
4260 3492
4260 4516
4261 37
4261 2469
4261 3493
4261 4517
4262 38
4262 2470
4262 3494
4262 4518
4263 39
4263 2471
4263 3495
4263 4519
4264 40
4264 2472
4264 3496
4264 4520
4265 41
4265 2473
4265 3497
4265 4521
4266 42
4266 2474
4266 3498
4266 4522
4267 43
4267 2475
4267 3499
4267 4523
4268 44
4268 2476
4268 3500
4268 4524
4269 45
4269 2477
4269 3501
4269 4525
4270 46
4270 2478
4270 3502
4270 4526
4271 47
4271 2479
4271 3503
4271 4527
4272 48
4272 2480
4272 3504
4272 4528
4273 49
4273 2481
4273 3505
4273 4529
4274 50
4274 2482
4274 3506
4274 4530
4275 51
4275 2483
4275 3507
4275 4531
4276 52
4276 2484
4276 3508
4276 4532
4277 53
4277 2485
4277 3509
4277 4533
4278 54
4278 2486
4278 3510
4278 4534
4279 55
4279 2487
4279 3511
4279 4535
4280 56
4280 2488
4280 3512
4280 4536
4281 57
4281 2489
4281 3513
4281 4537
4282 58
4282 2490
4282 3514
4282 4538
4283 59
4283 2491
4283 3515
4283 4539
4284 60
4284 2492
4284 3516
4284 4540
4285 61
4285 2493
4285 3517
4285 4541
4286 62
4286 2494
4286 3518
4286 4542
4287 63
4287 2495
4287 3519
4287 4543
4288 64
4288 2496
4288 3520
4288 4544
4289 65
4289 2497
4289 3521
4289 4545
4290 66
4290 2498
4290 3522
4290 4546
4291 67
4291 2499
4291 3523
4291 4547
4292 68
4292 2500
4292 3524
4292 4548
4293 69
4293 2501
4293 3525
4293 4549
4294 70
4294 2502
4294 3526
4294 4550
4295 71
4295 2503
4295 3527
4295 4551
4296 72
4296 2504
4296 3528
4296 4552
4297 73
4297 2505
4297 3529
4297 4553
4298 74
4298 2506
4298 3530
4298 4554
4299 75
4299 2507
4299 3531
4299 4555
4300 76
4300 2508
4300 3532
4300 4556
4301 77
4301 2509
4301 3533
4301 4557
4302 78
4302 2510
4302 3534
4302 4558
4303 79
4303 2511
4303 3535
4303 4559
4304 80
4304 2512
4304 3536
4304 4560
4305 81
4305 2513
4305 3537
4305 4561
4306 82
4306 2514
4306 3538
4306 4562
4307 83
4307 2515
4307 3539
4307 4563
4308 84
4308 2516
4308 3540
4308 4564
4309 85
4309 2517
4309 3541
4309 4565
4310 86
4310 2518
4310 3542
4310 4566
4311 87
4311 2519
4311 3543
4311 4567
4312 88
4312 2520
4312 3544
4312 4568
4313 89
4313 2521
4313 3545
4313 4569
4314 90
4314 2522
4314 3546
4314 4570
4315 91
4315 2523
4315 3547
4315 4571
4316 92
4316 2524
4316 3548
4316 4572
4317 93
4317 2525
4317 3549
4317 4573
4318 94
4318 2526
4318 3550
4318 4574
4319 95
4319 2527
4319 3551
4319 4575
4320 96
4320 2528
4320 3552
4320 4576
4321 97
4321 2529
4321 3553
4321 4577
4322 98
4322 2530
4322 3554
4322 4578
4323 99
4323 2531
4323 3555
4323 4579
4324 100
4324 2532
4324 3556
4324 4580
4325 101
4325 2533
4325 3557
4325 4581
4326 102
4326 2534
4326 3558
4326 4582
4327 103
4327 2535
4327 3559
4327 4583
4328 104
4328 2536
4328 3560
4328 4584
4329 105
4329 2537
4329 3561
4329 4585
4330 106
4330 2538
4330 3562
4330 4586
4331 107
4331 2539
4331 3563
4331 4587
4332 108
4332 2540
4332 3564
4332 4588
4333 109
4333 2541
4333 3565
4333 4589
4334 110
4334 2542
4334 3566
4334 4590
4335 111
4335 2543
4335 3567
4335 4591
4336 112
4336 2544
4336 3568
4336 4592
4337 113
4337 2545
4337 3569
4337 4593
4338 114
4338 2546
4338 3570
4338 4594
4339 115
4339 2547
4339 3571
4339 4595
4340 116
4340 2548
4340 3572
4340 4596
4341 117
4341 2549
4341 3573
4341 4597
4342 118
4342 2550
4342 3574
4342 4598
4343 119
4343 2551
4343 3575
4343 4599
4344 120
4344 2552
4344 3576
4344 4600
4345 121
4345 2553
4345 3577
4345 4601
4346 122
4346 2554
4346 3578
4346 4602
4347 123
4347 2555
4347 3579
4347 4603
4348 124
4348 2556
4348 3580
4348 4604
4349 125
4349 2557
4349 3581
4349 4605
4350 126
4350 2558
4350 3582
4350 4606
4351 127
4351 2559
4351 3583
4351 4607
4352 128
4352 2560
4352 3584
4352 4608
4353 129
4353 2561
4353 3585
4353 4609
4354 130
4354 2562
4354 3586
4354 4610
4355 131
4355 2563
4355 3587
4355 4611
4356 132
4356 2564
4356 3588
4356 4612
4357 133
4357 2565
4357 3589
4357 4613
4358 134
4358 2566
4358 3590
4358 4614
4359 135
4359 2567
4359 3591
4359 4615
4360 136
4360 2568
4360 3592
4360 4616
4361 137
4361 2569
4361 3593
4361 4617
4362 138
4362 2570
4362 3594
4362 4618
4363 139
4363 2571
4363 3595
4363 4619
4364 140
4364 2572
4364 3596
4364 4620
4365 141
4365 2573
4365 3597
4365 4621
4366 142
4366 2574
4366 3598
4366 4622
4367 143
4367 2575
4367 3599
4367 4623
4368 144
4368 2576
4368 3600
4368 4624
4369 145
4369 2577
4369 3601
4369 4625
4370 146
4370 2578
4370 3602
4370 4626
4371 147
4371 2579
4371 3603
4371 4627
4372 148
4372 2580
4372 3604
4372 4628
4373 149
4373 2581
4373 3605
4373 4629
4374 150
4374 2582
4374 3606
4374 4630
4375 151
4375 2583
4375 3607
4375 4631
4376 152
4376 2584
4376 3608
4376 4632
4377 153
4377 2585
4377 3609
4377 4633
4378 154
4378 2586
4378 3610
4378 4634
4379 155
4379 2587
4379 3611
4379 4635
4380 156
4380 2588
4380 3612
4380 4636
4381 157
4381 2589
4381 3613
4381 4637
4382 158
4382 2590
4382 3614
4382 4638
4383 159
4383 2591
4383 3615
4383 4639
4384 160
4384 2592
4384 3616
4384 4640
4385 161
4385 2593
4385 3617
4385 4641
4386 162
4386 2594
4386 3618
4386 4642
4387 163
4387 2595
4387 3619
4387 4643
4388 164
4388 2596
4388 3620
4388 4644
4389 165
4389 2597
4389 3621
4389 4645
4390 166
4390 2598
4390 3622
4390 4646
4391 167
4391 2599
4391 3623
4391 4647
4392 168
4392 2600
4392 3624
4392 4648
4393 169
4393 2601
4393 3625
4393 4649
4394 170
4394 2602
4394 3626
4394 4650
4395 171
4395 2603
4395 3627
4395 4651
4396 172
4396 2604
4396 3628
4396 4652
4397 173
4397 2605
4397 3629
4397 4653
4398 174
4398 2606
4398 3630
4398 4654
4399 175
4399 2607
4399 3631
4399 4655
4400 176
4400 2608
4400 3632
4400 4656
4401 177
4401 2609
4401 3633
4401 4657
4402 178
4402 2610
4402 3634
4402 4658
4403 179
4403 2611
4403 3635
4403 4659
4404 180
4404 2612
4404 3636
4404 4660
4405 181
4405 2613
4405 3637
4405 4661
4406 182
4406 2614
4406 3638
4406 4662
4407 183
4407 2615
4407 3639
4407 4663
4408 184
4408 2616
4408 3640
4408 4664
4409 185
4409 2617
4409 3641
4409 4665
4410 186
4410 2618
4410 3642
4410 4666
4411 187
4411 2619
4411 3643
4411 4667
4412 188
4412 2620
4412 3644
4412 4668
4413 189
4413 2621
4413 3645
4413 4669
4414 190
4414 2622
4414 3646
4414 4670
4415 191
4415 2623
4415 3647
4415 4671
4416 192
4416 2624
4416 3648
4416 4672
4417 193
4417 2625
4417 3649
4417 4673
4418 194
4418 2626
4418 3650
4418 4674
4419 195
4419 2627
4419 3651
4419 4675
4420 196
4420 2628
4420 3652
4420 4676
4421 197
4421 2629
4421 3653
4421 4677
4422 198
4422 2630
4422 3654
4422 4678
4423 199
4423 2631
4423 3655
4423 4679
4424 200
4424 2632
4424 3656
4424 4680
4425 201
4425 2633
4425 3657
4425 4681
4426 202
4426 2634
4426 3658
4426 4682
4427 203
4427 2635
4427 3659
4427 4683
4428 204
4428 2636
4428 3660
4428 4684
4429 205
4429 2637
4429 3661
4429 4685
4430 206
4430 2638
4430 3662
4430 4686
4431 207
4431 2639
4431 3663
4431 4687
4432 208
4432 2640
4432 3664
4432 4688
4433 209
4433 2641
4433 3665
4433 4689
4434 210
4434 2642
4434 3666
4434 4690
4435 211
4435 2643
4435 3667
4435 4691
4436 212
4436 2644
4436 3668
4436 4692
4437 213
4437 2645
4437 3669
4437 4693
4438 214
4438 2646
4438 3670
4438 4694
4439 215
4439 2647
4439 3671
4439 4695
4440 216
4440 2648
4440 3672
4440 4696
4441 217
4441 2649
4441 3673
4441 4697
4442 218
4442 2650
4442 3674
4442 4698
4443 219
4443 2651
4443 3675
4443 4699
4444 220
4444 2652
4444 3676
4444 4700
4445 221
4445 2653
4445 3677
4445 4701
4446 222
4446 2654
4446 3678
4446 4702
4447 223
4447 2655
4447 3679
4447 4703
4448 224
4448 2656
4448 3680
4448 4704
4449 225
4449 2657
4449 3681
4449 4705
4450 226
4450 2658
4450 3682
4450 4706
4451 227
4451 2659
4451 3683
4451 4707
4452 228
4452 2660
4452 3684
4452 4708
4453 229
4453 2661
4453 3685
4453 4709
4454 230
4454 2662
4454 3686
4454 4710
4455 231
4455 2663
4455 3687
4455 4711
4456 232
4456 2664
4456 3688
4456 4712
4457 233
4457 2665
4457 3689
4457 4713
4458 234
4458 2666
4458 3690
4458 4714
4459 235
4459 2667
4459 3691
4459 4715
4460 236
4460 2668
4460 3692
4460 4716
4461 237
4461 2669
4461 3693
4461 4717
4462 238
4462 2670
4462 3694
4462 4718
4463 239
4463 2671
4463 3695
4463 4719
4464 240
4464 2672
4464 3696
4464 4720
4465 241
4465 2673
4465 3697
4465 4721
4466 242
4466 2674
4466 3698
4466 4722
4467 243
4467 2675
4467 3699
4467 4723
4468 244
4468 2676
4468 3700
4468 4724
4469 245
4469 2677
4469 3701
4469 4725
4470 246
4470 2678
4470 3702
4470 4726
4471 247
4471 2679
4471 3703
4471 4727
4472 248
4472 2680
4472 3704
4472 4728
4473 249
4473 2681
4473 3705
4473 4729
4474 250
4474 2682
4474 3706
4474 4730
4475 251
4475 2683
4475 3707
4475 4731
4476 252
4476 2684
4476 3708
4476 4732
4477 253
4477 2685
4477 3709
4477 4733
4478 254
4478 2686
4478 3710
4478 4734
4479 255
4479 2687
4479 3711
4479 4735
4480 256
4480 2688
4480 3712
4480 4736
4481 257
4481 2689
4481 3713
4481 4737
4482 258
4482 2690
4482 3714
4482 4738
4483 259
4483 2691
4483 3715
4483 4739
4484 260
4484 2692
4484 3716
4484 4740
4485 261
4485 2693
4485 3717
4485 4741
4486 262
4486 2694
4486 3718
4486 4742
4487 263
4487 2695
4487 3719
4487 4743
4488 264
4488 2696
4488 3720
4488 4744
4489 265
4489 2697
4489 3721
4489 4745
4490 266
4490 2698
4490 3722
4490 4746
4491 267
4491 2699
4491 3723
4491 4747
4492 268
4492 2700
4492 3724
4492 4748
4493 269
4493 2701
4493 3725
4493 4749
4494 270
4494 2702
4494 3726
4494 4750
4495 271
4495 2703
4495 3727
4495 4751
4496 272
4496 2704
4496 3728
4496 4752
4497 273
4497 2705
4497 3729
4497 4753
4498 274
4498 2706
4498 3730
4498 4754
4499 275
4499 2707
4499 3731
4499 4755
4500 276
4500 2708
4500 3732
4500 4756
4501 277
4501 2709
4501 3733
4501 4757
4502 278
4502 2710
4502 3734
4502 4758
4503 279
4503 2711
4503 3735
4503 4759
4504 280
4504 2712
4504 3736
4504 4760
4505 281
4505 2713
4505 3737
4505 4761
4506 282
4506 2714
4506 3738
4506 4762
4507 283
4507 2715
4507 3739
4507 4763
4508 284
4508 2716
4508 3740
4508 4764
4509 285
4509 2717
4509 3741
4509 4765
4510 286
4510 2718
4510 3742
4510 4766
4511 287
4511 2719
4511 3743
4511 4767
4512 288
4512 2720
4512 3744
4512 4768
4513 289
4513 2721
4513 3745
4513 4769
4514 290
4514 2722
4514 3746
4514 4770
4515 291
4515 2723
4515 3747
4515 4771
4516 292
4516 2724
4516 3748
4516 4772
4517 293
4517 2725
4517 3749
4517 4773
4518 294
4518 2726
4518 3750
4518 4774
4519 295
4519 2727
4519 3751
4519 4775
4520 296
4520 2728
4520 3752
4520 4776
4521 297
4521 2729
4521 3753
4521 4777
4522 298
4522 2730
4522 3754
4522 4778
4523 299
4523 2731
4523 3755
4523 4779
4524 300
4524 2732
4524 3756
4524 4780
4525 301
4525 2733
4525 3757
4525 4781
4526 302
4526 2734
4526 3758
4526 4782
4527 303
4527 2735
4527 3759
4527 4783
4528 304
4528 2736
4528 3760
4528 4784
4529 305
4529 2737
4529 3761
4529 4785
4530 306
4530 2738
4530 3762
4530 4786
4531 307
4531 2739
4531 3763
4531 4787
4532 308
4532 2740
4532 3764
4532 4788
4533 309
4533 2741
4533 3765
4533 4789
4534 310
4534 2742
4534 3766
4534 4790
4535 311
4535 2743
4535 3767
4535 4791
4536 312
4536 2744
4536 3768
4536 4792
4537 313
4537 2745
4537 3769
4537 4793
4538 314
4538 2746
4538 3770
4538 4794
4539 315
4539 2747
4539 3771
4539 4795
4540 316
4540 2748
4540 3772
4540 4796
4541 317
4541 2749
4541 3773
4541 4797
4542 318
4542 2750
4542 3774
4542 4798
4543 319
4543 2751
4543 3775
4543 4799
4544 320
4544 2752
4544 3776
4544 4800
4545 321
4545 2753
4545 3777
4545 4801
4546 322
4546 2754
4546 3778
4546 4802
4547 323
4547 2755
4547 3779
4547 4803
4548 324
4548 2756
4548 3780
4548 4804
4549 325
4549 2757
4549 3781
4549 4805
4550 326
4550 2758
4550 3782
4550 4806
4551 327
4551 2759
4551 3783
4551 4807
4552 328
4552 2760
4552 3784
4552 4808
4553 329
4553 2761
4553 3785
4553 4809
4554 330
4554 2762
4554 3786
4554 4810
4555 331
4555 2763
4555 3787
4555 4811
4556 332
4556 2764
4556 3788
4556 4812
4557 333
4557 2765
4557 3789
4557 4813
4558 334
4558 2766
4558 3790
4558 4814
4559 335
4559 2767
4559 3791
4559 4815
4560 336
4560 2768
4560 3792
4560 4816
4561 337
4561 2769
4561 3793
4561 4817
4562 338
4562 2770
4562 3794
4562 4818
4563 339
4563 2771
4563 3795
4563 4819
4564 340
4564 2772
4564 3796
4564 4820
4565 341
4565 2773
4565 3797
4565 4821
4566 342
4566 2774
4566 3798
4566 4822
4567 343
4567 2775
4567 3799
4567 4823
4568 344
4568 2776
4568 3800
4568 4824
4569 345
4569 2777
4569 3801
4569 4825
4570 346
4570 2778
4570 3802
4570 4826
4571 347
4571 2779
4571 3803
4571 4827
4572 348
4572 2780
4572 3804
4572 4828
4573 349
4573 2781
4573 3805
4573 4829
4574 350
4574 2782
4574 3806
4574 4830
4575 351
4575 2783
4575 3807
4575 4831
4576 352
4576 2784
4576 3808
4576 4832
4577 353
4577 2785
4577 3809
4577 4833
4578 354
4578 2786
4578 3810
4578 4834
4579 355
4579 2787
4579 3811
4579 4835
4580 356
4580 2788
4580 3812
4580 4836
4581 357
4581 2789
4581 3813
4581 4837
4582 358
4582 2790
4582 3814
4582 4838
4583 359
4583 2791
4583 3815
4583 4839
4584 360
4584 2792
4584 3816
4584 4840
4585 361
4585 2793
4585 3817
4585 4841
4586 362
4586 2794
4586 3818
4586 4842
4587 363
4587 2795
4587 3819
4587 4843
4588 364
4588 2796
4588 3820
4588 4844
4589 365
4589 2797
4589 3821
4589 4845
4590 366
4590 2798
4590 3822
4590 4846
4591 367
4591 2799
4591 3823
4591 4847
4592 368
4592 2800
4592 3824
4592 4848
4593 369
4593 2801
4593 3825
4593 4849
4594 370
4594 2802
4594 3826
4594 4850
4595 371
4595 2803
4595 3827
4595 4851
4596 372
4596 2804
4596 3828
4596 4852
4597 373
4597 2805
4597 3829
4597 4853
4598 374
4598 2806
4598 3830
4598 4854
4599 375
4599 2807
4599 3831
4599 4855
4600 376
4600 2808
4600 3832
4600 4856
4601 377
4601 2809
4601 3833
4601 4857
4602 378
4602 2810
4602 3834
4602 4858
4603 379
4603 2811
4603 3835
4603 4859
4604 380
4604 2812
4604 3836
4604 4860
4605 381
4605 2813
4605 3837
4605 4861
4606 382
4606 2814
4606 3838
4606 4862
4607 383
4607 2815
4607 3839
4607 4863
4608 384
4608 1408
4608 3840
4608 4864
4609 385
4609 1409
4609 3841
4609 4865
4610 386
4610 1410
4610 3842
4610 4866
4611 387
4611 1411
4611 3843
4611 4867
4612 388
4612 1412
4612 3844
4612 4868
4613 389
4613 1413
4613 3845
4613 4869
4614 390
4614 1414
4614 3846
4614 4870
4615 391
4615 1415
4615 3847
4615 4871
4616 392
4616 1416
4616 3848
4616 4872
4617 393
4617 1417
4617 3849
4617 4873
4618 394
4618 1418
4618 3850
4618 4874
4619 395
4619 1419
4619 3851
4619 4875
4620 396
4620 1420
4620 3852
4620 4876
4621 397
4621 1421
4621 3853
4621 4877
4622 398
4622 1422
4622 3854
4622 4878
4623 399
4623 1423
4623 3855
4623 4879
4624 400
4624 1424
4624 3856
4624 4880
4625 401
4625 1425
4625 3857
4625 4881
4626 402
4626 1426
4626 3858
4626 4882
4627 403
4627 1427
4627 3859
4627 4883
4628 404
4628 1428
4628 3860
4628 4884
4629 405
4629 1429
4629 3861
4629 4885
4630 406
4630 1430
4630 3862
4630 4886
4631 407
4631 1431
4631 3863
4631 4887
4632 408
4632 1432
4632 3864
4632 4888
4633 409
4633 1433
4633 3865
4633 4889
4634 410
4634 1434
4634 3866
4634 4890
4635 411
4635 1435
4635 3867
4635 4891
4636 412
4636 1436
4636 3868
4636 4892
4637 413
4637 1437
4637 3869
4637 4893
4638 414
4638 1438
4638 3870
4638 4894
4639 415
4639 1439
4639 3871
4639 4895
4640 416
4640 1440
4640 3872
4640 4896
4641 417
4641 1441
4641 3873
4641 4897
4642 418
4642 1442
4642 3874
4642 4898
4643 419
4643 1443
4643 3875
4643 4899
4644 420
4644 1444
4644 3876
4644 4900
4645 421
4645 1445
4645 3877
4645 4901
4646 422
4646 1446
4646 3878
4646 4902
4647 423
4647 1447
4647 3879
4647 4903
4648 424
4648 1448
4648 3880
4648 4904
4649 425
4649 1449
4649 3881
4649 4905
4650 426
4650 1450
4650 3882
4650 4906
4651 427
4651 1451
4651 3883
4651 4907
4652 428
4652 1452
4652 3884
4652 4908
4653 429
4653 1453
4653 3885
4653 4909
4654 430
4654 1454
4654 3886
4654 4910
4655 431
4655 1455
4655 3887
4655 4911
4656 432
4656 1456
4656 3888
4656 4912
4657 433
4657 1457
4657 3889
4657 4913
4658 434
4658 1458
4658 3890
4658 4914
4659 435
4659 1459
4659 3891
4659 4915
4660 436
4660 1460
4660 3892
4660 4916
4661 437
4661 1461
4661 3893
4661 4917
4662 438
4662 1462
4662 3894
4662 4918
4663 439
4663 1463
4663 3895
4663 4919
4664 440
4664 1464
4664 3896
4664 4920
4665 441
4665 1465
4665 3897
4665 4921
4666 442
4666 1466
4666 3898
4666 4922
4667 443
4667 1467
4667 3899
4667 4923
4668 444
4668 1468
4668 3900
4668 4924
4669 445
4669 1469
4669 3901
4669 4925
4670 446
4670 1470
4670 3902
4670 4926
4671 447
4671 1471
4671 3903
4671 4927
4672 448
4672 1472
4672 3904
4672 4928
4673 449
4673 1473
4673 3905
4673 4929
4674 450
4674 1474
4674 3906
4674 4930
4675 451
4675 1475
4675 3907
4675 4931
4676 452
4676 1476
4676 3908
4676 4932
4677 453
4677 1477
4677 3909
4677 4933
4678 454
4678 1478
4678 3910
4678 4934
4679 455
4679 1479
4679 3911
4679 4935
4680 456
4680 1480
4680 3912
4680 4936
4681 457
4681 1481
4681 3913
4681 4937
4682 458
4682 1482
4682 3914
4682 4938
4683 459
4683 1483
4683 3915
4683 4939
4684 460
4684 1484
4684 3916
4684 4940
4685 461
4685 1485
4685 3917
4685 4941
4686 462
4686 1486
4686 3918
4686 4942
4687 463
4687 1487
4687 3919
4687 4943
4688 464
4688 1488
4688 3920
4688 4944
4689 465
4689 1489
4689 3921
4689 4945
4690 466
4690 1490
4690 3922
4690 4946
4691 467
4691 1491
4691 3923
4691 4947
4692 468
4692 1492
4692 3924
4692 4948
4693 469
4693 1493
4693 3925
4693 4949
4694 470
4694 1494
4694 3926
4694 4950
4695 471
4695 1495
4695 3927
4695 4951
4696 472
4696 1496
4696 3928
4696 4952
4697 473
4697 1497
4697 3929
4697 4953
4698 474
4698 1498
4698 3930
4698 4954
4699 475
4699 1499
4699 3931
4699 4955
4700 476
4700 1500
4700 3932
4700 4956
4701 477
4701 1501
4701 3933
4701 4957
4702 478
4702 1502
4702 3934
4702 4958
4703 479
4703 1503
4703 3935
4703 4959
4704 480
4704 1504
4704 3936
4704 4960
4705 481
4705 1505
4705 3937
4705 4961
4706 482
4706 1506
4706 3938
4706 4962
4707 483
4707 1507
4707 3939
4707 4963
4708 484
4708 1508
4708 3940
4708 4964
4709 485
4709 1509
4709 3941
4709 4965
4710 486
4710 1510
4710 3942
4710 4966
4711 487
4711 1511
4711 3943
4711 4967
4712 488
4712 1512
4712 3944
4712 4968
4713 489
4713 1513
4713 3945
4713 4969
4714 490
4714 1514
4714 3946
4714 4970
4715 491
4715 1515
4715 3947
4715 4971
4716 492
4716 1516
4716 3948
4716 4972
4717 493
4717 1517
4717 3949
4717 4973
4718 494
4718 1518
4718 3950
4718 4974
4719 495
4719 1519
4719 3951
4719 4975
4720 496
4720 1520
4720 3952
4720 4976
4721 497
4721 1521
4721 3953
4721 4977
4722 498
4722 1522
4722 3954
4722 4978
4723 499
4723 1523
4723 3955
4723 4979
4724 500
4724 1524
4724 3956
4724 4980
4725 501
4725 1525
4725 3957
4725 4981
4726 502
4726 1526
4726 3958
4726 4982
4727 503
4727 1527
4727 3959
4727 4983
4728 504
4728 1528
4728 3960
4728 4984
4729 505
4729 1529
4729 3961
4729 4985
4730 506
4730 1530
4730 3962
4730 4986
4731 507
4731 1531
4731 3963
4731 4987
4732 508
4732 1532
4732 3964
4732 4988
4733 509
4733 1533
4733 3965
4733 4989
4734 510
4734 1534
4734 3966
4734 4990
4735 511
4735 1535
4735 3967
4735 4991
4736 512
4736 1536
4736 3968
4736 4992
4737 513
4737 1537
4737 3969
4737 4993
4738 514
4738 1538
4738 3970
4738 4994
4739 515
4739 1539
4739 3971
4739 4995
4740 516
4740 1540
4740 3972
4740 4996
4741 517
4741 1541
4741 3973
4741 4997
4742 518
4742 1542
4742 3974
4742 4998
4743 519
4743 1543
4743 3975
4743 4999
4744 520
4744 1544
4744 3976
4744 5000
4745 521
4745 1545
4745 3977
4745 5001
4746 522
4746 1546
4746 3978
4746 5002
4747 523
4747 1547
4747 3979
4747 5003
4748 524
4748 1548
4748 3980
4748 5004
4749 525
4749 1549
4749 3981
4749 5005
4750 526
4750 1550
4750 3982
4750 5006
4751 527
4751 1551
4751 3983
4751 5007
4752 528
4752 1552
4752 3984
4752 5008
4753 529
4753 1553
4753 3985
4753 5009
4754 530
4754 1554
4754 3986
4754 5010
4755 531
4755 1555
4755 3987
4755 5011
4756 532
4756 1556
4756 3988
4756 5012
4757 533
4757 1557
4757 3989
4757 5013
4758 534
4758 1558
4758 3990
4758 5014
4759 535
4759 1559
4759 3991
4759 5015
4760 536
4760 1560
4760 3992
4760 5016
4761 537
4761 1561
4761 3993
4761 5017
4762 538
4762 1562
4762 3994
4762 5018
4763 539
4763 1563
4763 3995
4763 5019
4764 540
4764 1564
4764 3996
4764 5020
4765 541
4765 1565
4765 3997
4765 5021
4766 542
4766 1566
4766 3998
4766 5022
4767 543
4767 1567
4767 3999
4767 5023
4768 544
4768 1568
4768 4000
4768 5024
4769 545
4769 1569
4769 4001
4769 5025
4770 546
4770 1570
4770 4002
4770 5026
4771 547
4771 1571
4771 4003
4771 5027
4772 548
4772 1572
4772 4004
4772 5028
4773 549
4773 1573
4773 4005
4773 5029
4774 550
4774 1574
4774 4006
4774 5030
4775 551
4775 1575
4775 4007
4775 5031
4776 552
4776 1576
4776 4008
4776 5032
4777 553
4777 1577
4777 4009
4777 5033
4778 554
4778 1578
4778 4010
4778 5034
4779 555
4779 1579
4779 4011
4779 5035
4780 556
4780 1580
4780 4012
4780 5036
4781 557
4781 1581
4781 4013
4781 5037
4782 558
4782 1582
4782 4014
4782 5038
4783 559
4783 1583
4783 4015
4783 5039
4784 560
4784 1584
4784 4016
4784 5040
4785 561
4785 1585
4785 4017
4785 5041
4786 562
4786 1586
4786 4018
4786 5042
4787 563
4787 1587
4787 4019
4787 5043
4788 564
4788 1588
4788 4020
4788 5044
4789 565
4789 1589
4789 4021
4789 5045
4790 566
4790 1590
4790 4022
4790 5046
4791 567
4791 1591
4791 4023
4791 5047
4792 568
4792 1592
4792 4024
4792 5048
4793 569
4793 1593
4793 4025
4793 5049
4794 570
4794 1594
4794 4026
4794 5050
4795 571
4795 1595
4795 4027
4795 5051
4796 572
4796 1596
4796 4028
4796 5052
4797 573
4797 1597
4797 4029
4797 5053
4798 574
4798 1598
4798 4030
4798 5054
4799 575
4799 1599
4799 4031
4799 5055
4800 576
4800 1600
4800 4032
4800 5056
4801 577
4801 1601
4801 4033
4801 5057
4802 578
4802 1602
4802 4034
4802 5058
4803 579
4803 1603
4803 4035
4803 5059
4804 580
4804 1604
4804 4036
4804 5060
4805 581
4805 1605
4805 4037
4805 5061
4806 582
4806 1606
4806 4038
4806 5062
4807 583
4807 1607
4807 4039
4807 5063
4808 584
4808 1608
4808 4040
4808 5064
4809 585
4809 1609
4809 4041
4809 5065
4810 586
4810 1610
4810 4042
4810 5066
4811 587
4811 1611
4811 4043
4811 5067
4812 588
4812 1612
4812 4044
4812 5068
4813 589
4813 1613
4813 4045
4813 5069
4814 590
4814 1614
4814 4046
4814 5070
4815 591
4815 1615
4815 4047
4815 5071
4816 592
4816 1616
4816 4048
4816 5072
4817 593
4817 1617
4817 4049
4817 5073
4818 594
4818 1618
4818 4050
4818 5074
4819 595
4819 1619
4819 4051
4819 5075
4820 596
4820 1620
4820 4052
4820 5076
4821 597
4821 1621
4821 4053
4821 5077
4822 598
4822 1622
4822 4054
4822 5078
4823 599
4823 1623
4823 4055
4823 5079
4824 600
4824 1624
4824 4056
4824 5080
4825 601
4825 1625
4825 4057
4825 5081
4826 602
4826 1626
4826 4058
4826 5082
4827 603
4827 1627
4827 4059
4827 5083
4828 604
4828 1628
4828 4060
4828 5084
4829 605
4829 1629
4829 4061
4829 5085
4830 606
4830 1630
4830 4062
4830 5086
4831 607
4831 1631
4831 4063
4831 5087
4832 608
4832 1632
4832 4064
4832 5088
4833 609
4833 1633
4833 4065
4833 5089
4834 610
4834 1634
4834 4066
4834 5090
4835 611
4835 1635
4835 4067
4835 5091
4836 612
4836 1636
4836 4068
4836 5092
4837 613
4837 1637
4837 4069
4837 5093
4838 614
4838 1638
4838 4070
4838 5094
4839 615
4839 1639
4839 4071
4839 5095
4840 616
4840 1640
4840 4072
4840 5096
4841 617
4841 1641
4841 4073
4841 5097
4842 618
4842 1642
4842 4074
4842 5098
4843 619
4843 1643
4843 4075
4843 5099
4844 620
4844 1644
4844 4076
4844 5100
4845 621
4845 1645
4845 4077
4845 5101
4846 622
4846 1646
4846 4078
4846 5102
4847 623
4847 1647
4847 4079
4847 5103
4848 624
4848 1648
4848 4080
4848 5104
4849 625
4849 1649
4849 4081
4849 5105
4850 626
4850 1650
4850 4082
4850 5106
4851 627
4851 1651
4851 4083
4851 5107
4852 628
4852 1652
4852 4084
4852 5108
4853 629
4853 1653
4853 4085
4853 5109
4854 630
4854 1654
4854 4086
4854 5110
4855 631
4855 1655
4855 4087
4855 5111
4856 632
4856 1656
4856 4088
4856 5112
4857 633
4857 1657
4857 4089
4857 5113
4858 634
4858 1658
4858 4090
4858 5114
4859 635
4859 1659
4859 4091
4859 5115
4860 636
4860 1660
4860 4092
4860 5116
4861 637
4861 1661
4861 4093
4861 5117
4862 638
4862 1662
4862 4094
4862 5118
4863 639
4863 1663
4863 4095
4863 5119
4864 640
4864 1664
4864 4096
4864 5120
4865 641
4865 1665
4865 4097
4865 5121
4866 642
4866 1666
4866 4098
4866 5122
4867 643
4867 1667
4867 4099
4867 5123
4868 644
4868 1668
4868 4100
4868 5124
4869 645
4869 1669
4869 4101
4869 5125
4870 646
4870 1670
4870 4102
4870 5126
4871 647
4871 1671
4871 4103
4871 5127
4872 648
4872 1672
4872 4104
4872 5128
4873 649
4873 1673
4873 4105
4873 5129
4874 650
4874 1674
4874 4106
4874 5130
4875 651
4875 1675
4875 4107
4875 5131
4876 652
4876 1676
4876 4108
4876 5132
4877 653
4877 1677
4877 4109
4877 5133
4878 654
4878 1678
4878 4110
4878 5134
4879 655
4879 1679
4879 4111
4879 5135
4880 656
4880 1680
4880 4112
4880 5136
4881 657
4881 1681
4881 4113
4881 5137
4882 658
4882 1682
4882 4114
4882 5138
4883 659
4883 1683
4883 4115
4883 5139
4884 660
4884 1684
4884 4116
4884 5140
4885 661
4885 1685
4885 4117
4885 5141
4886 662
4886 1686
4886 4118
4886 5142
4887 663
4887 1687
4887 4119
4887 5143
4888 664
4888 1688
4888 4120
4888 5144
4889 665
4889 1689
4889 4121
4889 5145
4890 666
4890 1690
4890 4122
4890 5146
4891 667
4891 1691
4891 4123
4891 5147
4892 668
4892 1692
4892 4124
4892 5148
4893 669
4893 1693
4893 4125
4893 5149
4894 670
4894 1694
4894 4126
4894 5150
4895 671
4895 1695
4895 4127
4895 5151
4896 672
4896 1696
4896 4128
4896 5152
4897 673
4897 1697
4897 4129
4897 5153
4898 674
4898 1698
4898 4130
4898 5154
4899 675
4899 1699
4899 4131
4899 5155
4900 676
4900 1700
4900 4132
4900 5156
4901 677
4901 1701
4901 4133
4901 5157
4902 678
4902 1702
4902 4134
4902 5158
4903 679
4903 1703
4903 4135
4903 5159
4904 680
4904 1704
4904 4136
4904 5160
4905 681
4905 1705
4905 4137
4905 5161
4906 682
4906 1706
4906 4138
4906 5162
4907 683
4907 1707
4907 4139
4907 5163
4908 684
4908 1708
4908 4140
4908 5164
4909 685
4909 1709
4909 4141
4909 5165
4910 686
4910 1710
4910 4142
4910 5166
4911 687
4911 1711
4911 4143
4911 5167
4912 688
4912 1712
4912 4144
4912 5168
4913 689
4913 1713
4913 4145
4913 5169
4914 690
4914 1714
4914 4146
4914 5170
4915 691
4915 1715
4915 4147
4915 5171
4916 692
4916 1716
4916 4148
4916 5172
4917 693
4917 1717
4917 4149
4917 5173
4918 694
4918 1718
4918 4150
4918 5174
4919 695
4919 1719
4919 4151
4919 5175
4920 696
4920 1720
4920 4152
4920 5176
4921 697
4921 1721
4921 4153
4921 5177
4922 698
4922 1722
4922 4154
4922 5178
4923 699
4923 1723
4923 4155
4923 5179
4924 700
4924 1724
4924 4156
4924 5180
4925 701
4925 1725
4925 4157
4925 5181
4926 702
4926 1726
4926 4158
4926 5182
4927 703
4927 1727
4927 4159
4927 5183
4928 704
4928 1728
4928 4160
4928 5184
4929 705
4929 1729
4929 4161
4929 5185
4930 706
4930 1730
4930 4162
4930 5186
4931 707
4931 1731
4931 4163
4931 5187
4932 708
4932 1732
4932 4164
4932 5188
4933 709
4933 1733
4933 4165
4933 5189
4934 710
4934 1734
4934 4166
4934 5190
4935 711
4935 1735
4935 4167
4935 5191
4936 712
4936 1736
4936 4168
4936 5192
4937 713
4937 1737
4937 4169
4937 5193
4938 714
4938 1738
4938 4170
4938 5194
4939 715
4939 1739
4939 4171
4939 5195
4940 716
4940 1740
4940 4172
4940 5196
4941 717
4941 1741
4941 4173
4941 5197
4942 718
4942 1742
4942 4174
4942 5198
4943 719
4943 1743
4943 4175
4943 5199
4944 720
4944 1744
4944 4176
4944 5200
4945 721
4945 1745
4945 4177
4945 5201
4946 722
4946 1746
4946 4178
4946 5202
4947 723
4947 1747
4947 4179
4947 5203
4948 724
4948 1748
4948 4180
4948 5204
4949 725
4949 1749
4949 4181
4949 5205
4950 726
4950 1750
4950 4182
4950 5206
4951 727
4951 1751
4951 4183
4951 5207
4952 728
4952 1752
4952 4184
4952 5208
4953 729
4953 1753
4953 4185
4953 5209
4954 730
4954 1754
4954 4186
4954 5210
4955 731
4955 1755
4955 4187
4955 5211
4956 732
4956 1756
4956 4188
4956 5212
4957 733
4957 1757
4957 4189
4957 5213
4958 734
4958 1758
4958 4190
4958 5214
4959 735
4959 1759
4959 4191
4959 5215
4960 736
4960 1760
4960 4192
4960 5216
4961 737
4961 1761
4961 4193
4961 5217
4962 738
4962 1762
4962 4194
4962 5218
4963 739
4963 1763
4963 4195
4963 5219
4964 740
4964 1764
4964 4196
4964 5220
4965 741
4965 1765
4965 4197
4965 5221
4966 742
4966 1766
4966 4198
4966 5222
4967 743
4967 1767
4967 4199
4967 5223
4968 744
4968 1768
4968 4200
4968 5224
4969 745
4969 1769
4969 4201
4969 5225
4970 746
4970 1770
4970 4202
4970 5226
4971 747
4971 1771
4971 4203
4971 5227
4972 748
4972 1772
4972 4204
4972 5228
4973 749
4973 1773
4973 4205
4973 5229
4974 750
4974 1774
4974 4206
4974 5230
4975 751
4975 1775
4975 4207
4975 5231
4976 752
4976 1776
4976 4208
4976 5232
4977 753
4977 1777
4977 4209
4977 5233
4978 754
4978 1778
4978 4210
4978 5234
4979 755
4979 1779
4979 4211
4979 5235
4980 756
4980 1780
4980 4212
4980 5236
4981 757
4981 1781
4981 4213
4981 5237
4982 758
4982 1782
4982 4214
4982 5238
4983 759
4983 1783
4983 4215
4983 5239
4984 760
4984 1784
4984 4216
4984 5240
4985 761
4985 1785
4985 4217
4985 5241
4986 762
4986 1786
4986 4218
4986 5242
4987 763
4987 1787
4987 4219
4987 5243
4988 764
4988 1788
4988 4220
4988 5244
4989 765
4989 1789
4989 4221
4989 5245
4990 766
4990 1790
4990 4222
4990 5246
4991 767
4991 1791
4991 4223
4991 5247
4992 768
4992 1792
4992 2816
4992 5248
4993 769
4993 1793
4993 2817
4993 5249
4994 770
4994 1794
4994 2818
4994 5250
4995 771
4995 1795
4995 2819
4995 5251
4996 772
4996 1796
4996 2820
4996 5252
4997 773
4997 1797
4997 2821
4997 5253
4998 774
4998 1798
4998 2822
4998 5254
4999 775
4999 1799
4999 2823
4999 5255
5000 776
5000 1800
5000 2824
5000 5256
5001 777
5001 1801
5001 2825
5001 5257
5002 778
5002 1802
5002 2826
5002 5258
5003 779
5003 1803
5003 2827
5003 5259
5004 780
5004 1804
5004 2828
5004 5260
5005 781
5005 1805
5005 2829
5005 5261
5006 782
5006 1806
5006 2830
5006 5262
5007 783
5007 1807
5007 2831
5007 5263
5008 784
5008 1808
5008 2832
5008 5264
5009 785
5009 1809
5009 2833
5009 5265
5010 786
5010 1810
5010 2834
5010 5266
5011 787
5011 1811
5011 2835
5011 5267
5012 788
5012 1812
5012 2836
5012 5268
5013 789
5013 1813
5013 2837
5013 5269
5014 790
5014 1814
5014 2838
5014 5270
5015 791
5015 1815
5015 2839
5015 5271
5016 792
5016 1816
5016 2840
5016 5272
5017 793
5017 1817
5017 2841
5017 5273
5018 794
5018 1818
5018 2842
5018 5274
5019 795
5019 1819
5019 2843
5019 5275
5020 796
5020 1820
5020 2844
5020 5276
5021 797
5021 1821
5021 2845
5021 5277
5022 798
5022 1822
5022 2846
5022 5278
5023 799
5023 1823
5023 2847
5023 5279
5024 800
5024 1824
5024 2848
5024 5280
5025 801
5025 1825
5025 2849
5025 5281
5026 802
5026 1826
5026 2850
5026 5282
5027 803
5027 1827
5027 2851
5027 5283
5028 804
5028 1828
5028 2852
5028 5284
5029 805
5029 1829
5029 2853
5029 5285
5030 806
5030 1830
5030 2854
5030 5286
5031 807
5031 1831
5031 2855
5031 5287
5032 808
5032 1832
5032 2856
5032 5288
5033 809
5033 1833
5033 2857
5033 5289
5034 810
5034 1834
5034 2858
5034 5290
5035 811
5035 1835
5035 2859
5035 5291
5036 812
5036 1836
5036 2860
5036 5292
5037 813
5037 1837
5037 2861
5037 5293
5038 814
5038 1838
5038 2862
5038 5294
5039 815
5039 1839
5039 2863
5039 5295
5040 816
5040 1840
5040 2864
5040 5296
5041 817
5041 1841
5041 2865
5041 5297
5042 818
5042 1842
5042 2866
5042 5298
5043 819
5043 1843
5043 2867
5043 5299
5044 820
5044 1844
5044 2868
5044 5300
5045 821
5045 1845
5045 2869
5045 5301
5046 822
5046 1846
5046 2870
5046 5302
5047 823
5047 1847
5047 2871
5047 5303
5048 824
5048 1848
5048 2872
5048 5304
5049 825
5049 1849
5049 2873
5049 5305
5050 826
5050 1850
5050 2874
5050 5306
5051 827
5051 1851
5051 2875
5051 5307
5052 828
5052 1852
5052 2876
5052 5308
5053 829
5053 1853
5053 2877
5053 5309
5054 830
5054 1854
5054 2878
5054 5310
5055 831
5055 1855
5055 2879
5055 5311
5056 832
5056 1856
5056 2880
5056 5312
5057 833
5057 1857
5057 2881
5057 5313
5058 834
5058 1858
5058 2882
5058 5314
5059 835
5059 1859
5059 2883
5059 5315
5060 836
5060 1860
5060 2884
5060 5316
5061 837
5061 1861
5061 2885
5061 5317
5062 838
5062 1862
5062 2886
5062 5318
5063 839
5063 1863
5063 2887
5063 5319
5064 840
5064 1864
5064 2888
5064 5320
5065 841
5065 1865
5065 2889
5065 5321
5066 842
5066 1866
5066 2890
5066 5322
5067 843
5067 1867
5067 2891
5067 5323
5068 844
5068 1868
5068 2892
5068 5324
5069 845
5069 1869
5069 2893
5069 5325
5070 846
5070 1870
5070 2894
5070 5326
5071 847
5071 1871
5071 2895
5071 5327
5072 848
5072 1872
5072 2896
5072 5328
5073 849
5073 1873
5073 2897
5073 5329
5074 850
5074 1874
5074 2898
5074 5330
5075 851
5075 1875
5075 2899
5075 5331
5076 852
5076 1876
5076 2900
5076 5332
5077 853
5077 1877
5077 2901
5077 5333
5078 854
5078 1878
5078 2902
5078 5334
5079 855
5079 1879
5079 2903
5079 5335
5080 856
5080 1880
5080 2904
5080 5336
5081 857
5081 1881
5081 2905
5081 5337
5082 858
5082 1882
5082 2906
5082 5338
5083 859
5083 1883
5083 2907
5083 5339
5084 860
5084 1884
5084 2908
5084 5340
5085 861
5085 1885
5085 2909
5085 5341
5086 862
5086 1886
5086 2910
5086 5342
5087 863
5087 1887
5087 2911
5087 5343
5088 864
5088 1888
5088 2912
5088 5344
5089 865
5089 1889
5089 2913
5089 5345
5090 866
5090 1890
5090 2914
5090 5346
5091 867
5091 1891
5091 2915
5091 5347
5092 868
5092 1892
5092 2916
5092 5348
5093 869
5093 1893
5093 2917
5093 5349
5094 870
5094 1894
5094 2918
5094 5350
5095 871
5095 1895
5095 2919
5095 5351
5096 872
5096 1896
5096 2920
5096 5352
5097 873
5097 1897
5097 2921
5097 5353
5098 874
5098 1898
5098 2922
5098 5354
5099 875
5099 1899
5099 2923
5099 5355
5100 876
5100 1900
5100 2924
5100 5356
5101 877
5101 1901
5101 2925
5101 5357
5102 878
5102 1902
5102 2926
5102 5358
5103 879
5103 1903
5103 2927
5103 5359
5104 880
5104 1904
5104 2928
5104 5360
5105 881
5105 1905
5105 2929
5105 5361
5106 882
5106 1906
5106 2930
5106 5362
5107 883
5107 1907
5107 2931
5107 5363
5108 884
5108 1908
5108 2932
5108 5364
5109 885
5109 1909
5109 2933
5109 5365
5110 886
5110 1910
5110 2934
5110 5366
5111 887
5111 1911
5111 2935
5111 5367
5112 888
5112 1912
5112 2936
5112 5368
5113 889
5113 1913
5113 2937
5113 5369
5114 890
5114 1914
5114 2938
5114 5370
5115 891
5115 1915
5115 2939
5115 5371
5116 892
5116 1916
5116 2940
5116 5372
5117 893
5117 1917
5117 2941
5117 5373
5118 894
5118 1918
5118 2942
5118 5374
5119 895
5119 1919
5119 2943
5119 5375
5120 896
5120 1920
5120 2944
5120 5376
5121 897
5121 1921
5121 2945
5121 5377
5122 898
5122 1922
5122 2946
5122 5378
5123 899
5123 1923
5123 2947
5123 5379
5124 900
5124 1924
5124 2948
5124 5380
5125 901
5125 1925
5125 2949
5125 5381
5126 902
5126 1926
5126 2950
5126 5382
5127 903
5127 1927
5127 2951
5127 5383
5128 904
5128 1928
5128 2952
5128 5384
5129 905
5129 1929
5129 2953
5129 5385
5130 906
5130 1930
5130 2954
5130 5386
5131 907
5131 1931
5131 2955
5131 5387
5132 908
5132 1932
5132 2956
5132 5388
5133 909
5133 1933
5133 2957
5133 5389
5134 910
5134 1934
5134 2958
5134 5390
5135 911
5135 1935
5135 2959
5135 5391
5136 912
5136 1936
5136 2960
5136 5392
5137 913
5137 1937
5137 2961
5137 5393
5138 914
5138 1938
5138 2962
5138 5394
5139 915
5139 1939
5139 2963
5139 5395
5140 916
5140 1940
5140 2964
5140 5396
5141 917
5141 1941
5141 2965
5141 5397
5142 918
5142 1942
5142 2966
5142 5398
5143 919
5143 1943
5143 2967
5143 5399
5144 920
5144 1944
5144 2968
5144 5400
5145 921
5145 1945
5145 2969
5145 5401
5146 922
5146 1946
5146 2970
5146 5402
5147 923
5147 1947
5147 2971
5147 5403
5148 924
5148 1948
5148 2972
5148 5404
5149 925
5149 1949
5149 2973
5149 5405
5150 926
5150 1950
5150 2974
5150 5406
5151 927
5151 1951
5151 2975
5151 5407
5152 928
5152 1952
5152 2976
5152 5408
5153 929
5153 1953
5153 2977
5153 5409
5154 930
5154 1954
5154 2978
5154 5410
5155 931
5155 1955
5155 2979
5155 5411
5156 932
5156 1956
5156 2980
5156 5412
5157 933
5157 1957
5157 2981
5157 5413
5158 934
5158 1958
5158 2982
5158 5414
5159 935
5159 1959
5159 2983
5159 5415
5160 936
5160 1960
5160 2984
5160 5416
5161 937
5161 1961
5161 2985
5161 5417
5162 938
5162 1962
5162 2986
5162 5418
5163 939
5163 1963
5163 2987
5163 5419
5164 940
5164 1964
5164 2988
5164 5420
5165 941
5165 1965
5165 2989
5165 5421
5166 942
5166 1966
5166 2990
5166 5422
5167 943
5167 1967
5167 2991
5167 5423
5168 944
5168 1968
5168 2992
5168 5424
5169 945
5169 1969
5169 2993
5169 5425
5170 946
5170 1970
5170 2994
5170 5426
5171 947
5171 1971
5171 2995
5171 5427
5172 948
5172 1972
5172 2996
5172 5428
5173 949
5173 1973
5173 2997
5173 5429
5174 950
5174 1974
5174 2998
5174 5430
5175 951
5175 1975
5175 2999
5175 5431
5176 952
5176 1976
5176 3000
5176 5432
5177 953
5177 1977
5177 3001
5177 5433
5178 954
5178 1978
5178 3002
5178 5434
5179 955
5179 1979
5179 3003
5179 5435
5180 956
5180 1980
5180 3004
5180 5436
5181 957
5181 1981
5181 3005
5181 5437
5182 958
5182 1982
5182 3006
5182 5438
5183 959
5183 1983
5183 3007
5183 5439
5184 960
5184 1984
5184 3008
5184 5440
5185 961
5185 1985
5185 3009
5185 5441
5186 962
5186 1986
5186 3010
5186 5442
5187 963
5187 1987
5187 3011
5187 5443
5188 964
5188 1988
5188 3012
5188 5444
5189 965
5189 1989
5189 3013
5189 5445
5190 966
5190 1990
5190 3014
5190 5446
5191 967
5191 1991
5191 3015
5191 5447
5192 968
5192 1992
5192 3016
5192 5448
5193 969
5193 1993
5193 3017
5193 5449
5194 970
5194 1994
5194 3018
5194 5450
5195 971
5195 1995
5195 3019
5195 5451
5196 972
5196 1996
5196 3020
5196 5452
5197 973
5197 1997
5197 3021
5197 5453
5198 974
5198 1998
5198 3022
5198 5454
5199 975
5199 1999
5199 3023
5199 5455
5200 976
5200 2000
5200 3024
5200 5456
5201 977
5201 2001
5201 3025
5201 5457
5202 978
5202 2002
5202 3026
5202 5458
5203 979
5203 2003
5203 3027
5203 5459
5204 980
5204 2004
5204 3028
5204 5460
5205 981
5205 2005
5205 3029
5205 5461
5206 982
5206 2006
5206 3030
5206 5462
5207 983
5207 2007
5207 3031
5207 5463
5208 984
5208 2008
5208 3032
5208 5464
5209 985
5209 2009
5209 3033
5209 5465
5210 986
5210 2010
5210 3034
5210 5466
5211 987
5211 2011
5211 3035
5211 5467
5212 988
5212 2012
5212 3036
5212 5468
5213 989
5213 2013
5213 3037
5213 5469
5214 990
5214 2014
5214 3038
5214 5470
5215 991
5215 2015
5215 3039
5215 5471
5216 992
5216 2016
5216 3040
5216 5472
5217 993
5217 2017
5217 3041
5217 5473
5218 994
5218 2018
5218 3042
5218 5474
5219 995
5219 2019
5219 3043
5219 5475
5220 996
5220 2020
5220 3044
5220 5476
5221 997
5221 2021
5221 3045
5221 5477
5222 998
5222 2022
5222 3046
5222 5478
5223 999
5223 2023
5223 3047
5223 5479
5224 1000
5224 2024
5224 3048
5224 5480
5225 1001
5225 2025
5225 3049
5225 5481
5226 1002
5226 2026
5226 3050
5226 5482
5227 1003
5227 2027
5227 3051
5227 5483
5228 1004
5228 2028
5228 3052
5228 5484
5229 1005
5229 2029
5229 3053
5229 5485
5230 1006
5230 2030
5230 3054
5230 5486
5231 1007
5231 2031
5231 3055
5231 5487
5232 1008
5232 2032
5232 3056
5232 5488
5233 1009
5233 2033
5233 3057
5233 5489
5234 1010
5234 2034
5234 3058
5234 5490
5235 1011
5235 2035
5235 3059
5235 5491
5236 1012
5236 2036
5236 3060
5236 5492
5237 1013
5237 2037
5237 3061
5237 5493
5238 1014
5238 2038
5238 3062
5238 5494
5239 1015
5239 2039
5239 3063
5239 5495
5240 1016
5240 2040
5240 3064
5240 5496
5241 1017
5241 2041
5241 3065
5241 5497
5242 1018
5242 2042
5242 3066
5242 5498
5243 1019
5243 2043
5243 3067
5243 5499
5244 1020
5244 2044
5244 3068
5244 5500
5245 1021
5245 2045
5245 3069
5245 5501
5246 1022
5246 2046
5246 3070
5246 5502
5247 1023
5247 2047
5247 3071
5247 5503
5248 1024
5248 2048
5248 3072
5248 5504
5249 1025
5249 2049
5249 3073
5249 5505
5250 1026
5250 2050
5250 3074
5250 5506
5251 1027
5251 2051
5251 3075
5251 5507
5252 1028
5252 2052
5252 3076
5252 5508
5253 1029
5253 2053
5253 3077
5253 5509
5254 1030
5254 2054
5254 3078
5254 5510
5255 1031
5255 2055
5255 3079
5255 5511
5256 1032
5256 2056
5256 3080
5256 5512
5257 1033
5257 2057
5257 3081
5257 5513
5258 1034
5258 2058
5258 3082
5258 5514
5259 1035
5259 2059
5259 3083
5259 5515
5260 1036
5260 2060
5260 3084
5260 5516
5261 1037
5261 2061
5261 3085
5261 5517
5262 1038
5262 2062
5262 3086
5262 5518
5263 1039
5263 2063
5263 3087
5263 5519
5264 1040
5264 2064
5264 3088
5264 5520
5265 1041
5265 2065
5265 3089
5265 5521
5266 1042
5266 2066
5266 3090
5266 5522
5267 1043
5267 2067
5267 3091
5267 5523
5268 1044
5268 2068
5268 3092
5268 5524
5269 1045
5269 2069
5269 3093
5269 5525
5270 1046
5270 2070
5270 3094
5270 5526
5271 1047
5271 2071
5271 3095
5271 5527
5272 1048
5272 2072
5272 3096
5272 5528
5273 1049
5273 2073
5273 3097
5273 5529
5274 1050
5274 2074
5274 3098
5274 5530
5275 1051
5275 2075
5275 3099
5275 5531
5276 1052
5276 2076
5276 3100
5276 5532
5277 1053
5277 2077
5277 3101
5277 5533
5278 1054
5278 2078
5278 3102
5278 5534
5279 1055
5279 2079
5279 3103
5279 5535
5280 1056
5280 2080
5280 3104
5280 5536
5281 1057
5281 2081
5281 3105
5281 5537
5282 1058
5282 2082
5282 3106
5282 5538
5283 1059
5283 2083
5283 3107
5283 5539
5284 1060
5284 2084
5284 3108
5284 5540
5285 1061
5285 2085
5285 3109
5285 5541
5286 1062
5286 2086
5286 3110
5286 5542
5287 1063
5287 2087
5287 3111
5287 5543
5288 1064
5288 2088
5288 3112
5288 5544
5289 1065
5289 2089
5289 3113
5289 5545
5290 1066
5290 2090
5290 3114
5290 5546
5291 1067
5291 2091
5291 3115
5291 5547
5292 1068
5292 2092
5292 3116
5292 5548
5293 1069
5293 2093
5293 3117
5293 5549
5294 1070
5294 2094
5294 3118
5294 5550
5295 1071
5295 2095
5295 3119
5295 5551
5296 1072
5296 2096
5296 3120
5296 5552
5297 1073
5297 2097
5297 3121
5297 5553
5298 1074
5298 2098
5298 3122
5298 5554
5299 1075
5299 2099
5299 3123
5299 5555
5300 1076
5300 2100
5300 3124
5300 5556
5301 1077
5301 2101
5301 3125
5301 5557
5302 1078
5302 2102
5302 3126
5302 5558
5303 1079
5303 2103
5303 3127
5303 5559
5304 1080
5304 2104
5304 3128
5304 5560
5305 1081
5305 2105
5305 3129
5305 5561
5306 1082
5306 2106
5306 3130
5306 5562
5307 1083
5307 2107
5307 3131
5307 5563
5308 1084
5308 2108
5308 3132
5308 5564
5309 1085
5309 2109
5309 3133
5309 5565
5310 1086
5310 2110
5310 3134
5310 5566
5311 1087
5311 2111
5311 3135
5311 5567
5312 1088
5312 2112
5312 3136
5312 5568
5313 1089
5313 2113
5313 3137
5313 5569
5314 1090
5314 2114
5314 3138
5314 5570
5315 1091
5315 2115
5315 3139
5315 5571
5316 1092
5316 2116
5316 3140
5316 5572
5317 1093
5317 2117
5317 3141
5317 5573
5318 1094
5318 2118
5318 3142
5318 5574
5319 1095
5319 2119
5319 3143
5319 5575
5320 1096
5320 2120
5320 3144
5320 5576
5321 1097
5321 2121
5321 3145
5321 5577
5322 1098
5322 2122
5322 3146
5322 5578
5323 1099
5323 2123
5323 3147
5323 5579
5324 1100
5324 2124
5324 3148
5324 5580
5325 1101
5325 2125
5325 3149
5325 5581
5326 1102
5326 2126
5326 3150
5326 5582
5327 1103
5327 2127
5327 3151
5327 5583
5328 1104
5328 2128
5328 3152
5328 5584
5329 1105
5329 2129
5329 3153
5329 5585
5330 1106
5330 2130
5330 3154
5330 5586
5331 1107
5331 2131
5331 3155
5331 5587
5332 1108
5332 2132
5332 3156
5332 5588
5333 1109
5333 2133
5333 3157
5333 5589
5334 1110
5334 2134
5334 3158
5334 5590
5335 1111
5335 2135
5335 3159
5335 5591
5336 1112
5336 2136
5336 3160
5336 5592
5337 1113
5337 2137
5337 3161
5337 5593
5338 1114
5338 2138
5338 3162
5338 5594
5339 1115
5339 2139
5339 3163
5339 5595
5340 1116
5340 2140
5340 3164
5340 5596
5341 1117
5341 2141
5341 3165
5341 5597
5342 1118
5342 2142
5342 3166
5342 5598
5343 1119
5343 2143
5343 3167
5343 5599
5344 1120
5344 2144
5344 3168
5344 5600
5345 1121
5345 2145
5345 3169
5345 5601
5346 1122
5346 2146
5346 3170
5346 5602
5347 1123
5347 2147
5347 3171
5347 5603
5348 1124
5348 2148
5348 3172
5348 5604
5349 1125
5349 2149
5349 3173
5349 5605
5350 1126
5350 2150
5350 3174
5350 5606
5351 1127
5351 2151
5351 3175
5351 5607
5352 1128
5352 2152
5352 3176
5352 5608
5353 1129
5353 2153
5353 3177
5353 5609
5354 1130
5354 2154
5354 3178
5354 5610
5355 1131
5355 2155
5355 3179
5355 5611
5356 1132
5356 2156
5356 3180
5356 5612
5357 1133
5357 2157
5357 3181
5357 5613
5358 1134
5358 2158
5358 3182
5358 5614
5359 1135
5359 2159
5359 3183
5359 5615
5360 1136
5360 2160
5360 3184
5360 5616
5361 1137
5361 2161
5361 3185
5361 5617
5362 1138
5362 2162
5362 3186
5362 5618
5363 1139
5363 2163
5363 3187
5363 5619
5364 1140
5364 2164
5364 3188
5364 5620
5365 1141
5365 2165
5365 3189
5365 5621
5366 1142
5366 2166
5366 3190
5366 5622
5367 1143
5367 2167
5367 3191
5367 5623
5368 1144
5368 2168
5368 3192
5368 5624
5369 1145
5369 2169
5369 3193
5369 5625
5370 1146
5370 2170
5370 3194
5370 5626
5371 1147
5371 2171
5371 3195
5371 5627
5372 1148
5372 2172
5372 3196
5372 5628
5373 1149
5373 2173
5373 3197
5373 5629
5374 1150
5374 2174
5374 3198
5374 5630
5375 1151
5375 2175
5375 3199
5375 5631
5376 1152
5376 2176
5376 3200
5376 4224
5377 1153
5377 2177
5377 3201
5377 4225
5378 1154
5378 2178
5378 3202
5378 4226
5379 1155
5379 2179
5379 3203
5379 4227
5380 1156
5380 2180
5380 3204
5380 4228
5381 1157
5381 2181
5381 3205
5381 4229
5382 1158
5382 2182
5382 3206
5382 4230
5383 1159
5383 2183
5383 3207
5383 4231
5384 1160
5384 2184
5384 3208
5384 4232
5385 1161
5385 2185
5385 3209
5385 4233
5386 1162
5386 2186
5386 3210
5386 4234
5387 1163
5387 2187
5387 3211
5387 4235
5388 1164
5388 2188
5388 3212
5388 4236
5389 1165
5389 2189
5389 3213
5389 4237
5390 1166
5390 2190
5390 3214
5390 4238
5391 1167
5391 2191
5391 3215
5391 4239
5392 1168
5392 2192
5392 3216
5392 4240
5393 1169
5393 2193
5393 3217
5393 4241
5394 1170
5394 2194
5394 3218
5394 4242
5395 1171
5395 2195
5395 3219
5395 4243
5396 1172
5396 2196
5396 3220
5396 4244
5397 1173
5397 2197
5397 3221
5397 4245
5398 1174
5398 2198
5398 3222
5398 4246
5399 1175
5399 2199
5399 3223
5399 4247
5400 1176
5400 2200
5400 3224
5400 4248
5401 1177
5401 2201
5401 3225
5401 4249
5402 1178
5402 2202
5402 3226
5402 4250
5403 1179
5403 2203
5403 3227
5403 4251
5404 1180
5404 2204
5404 3228
5404 4252
5405 1181
5405 2205
5405 3229
5405 4253
5406 1182
5406 2206
5406 3230
5406 4254
5407 1183
5407 2207
5407 3231
5407 4255
5408 1184
5408 2208
5408 3232
5408 4256
5409 1185
5409 2209
5409 3233
5409 4257
5410 1186
5410 2210
5410 3234
5410 4258
5411 1187
5411 2211
5411 3235
5411 4259
5412 1188
5412 2212
5412 3236
5412 4260
5413 1189
5413 2213
5413 3237
5413 4261
5414 1190
5414 2214
5414 3238
5414 4262
5415 1191
5415 2215
5415 3239
5415 4263
5416 1192
5416 2216
5416 3240
5416 4264
5417 1193
5417 2217
5417 3241
5417 4265
5418 1194
5418 2218
5418 3242
5418 4266
5419 1195
5419 2219
5419 3243
5419 4267
5420 1196
5420 2220
5420 3244
5420 4268
5421 1197
5421 2221
5421 3245
5421 4269
5422 1198
5422 2222
5422 3246
5422 4270
5423 1199
5423 2223
5423 3247
5423 4271
5424 1200
5424 2224
5424 3248
5424 4272
5425 1201
5425 2225
5425 3249
5425 4273
5426 1202
5426 2226
5426 3250
5426 4274
5427 1203
5427 2227
5427 3251
5427 4275
5428 1204
5428 2228
5428 3252
5428 4276
5429 1205
5429 2229
5429 3253
5429 4277
5430 1206
5430 2230
5430 3254
5430 4278
5431 1207
5431 2231
5431 3255
5431 4279
5432 1208
5432 2232
5432 3256
5432 4280
5433 1209
5433 2233
5433 3257
5433 4281
5434 1210
5434 2234
5434 3258
5434 4282
5435 1211
5435 2235
5435 3259
5435 4283
5436 1212
5436 2236
5436 3260
5436 4284
5437 1213
5437 2237
5437 3261
5437 4285
5438 1214
5438 2238
5438 3262
5438 4286
5439 1215
5439 2239
5439 3263
5439 4287
5440 1216
5440 2240
5440 3264
5440 4288
5441 1217
5441 2241
5441 3265
5441 4289
5442 1218
5442 2242
5442 3266
5442 4290
5443 1219
5443 2243
5443 3267
5443 4291
5444 1220
5444 2244
5444 3268
5444 4292
5445 1221
5445 2245
5445 3269
5445 4293
5446 1222
5446 2246
5446 3270
5446 4294
5447 1223
5447 2247
5447 3271
5447 4295
5448 1224
5448 2248
5448 3272
5448 4296
5449 1225
5449 2249
5449 3273
5449 4297
5450 1226
5450 2250
5450 3274
5450 4298
5451 1227
5451 2251
5451 3275
5451 4299
5452 1228
5452 2252
5452 3276
5452 4300
5453 1229
5453 2253
5453 3277
5453 4301
5454 1230
5454 2254
5454 3278
5454 4302
5455 1231
5455 2255
5455 3279
5455 4303
5456 1232
5456 2256
5456 3280
5456 4304
5457 1233
5457 2257
5457 3281
5457 4305
5458 1234
5458 2258
5458 3282
5458 4306
5459 1235
5459 2259
5459 3283
5459 4307
5460 1236
5460 2260
5460 3284
5460 4308
5461 1237
5461 2261
5461 3285
5461 4309
5462 1238
5462 2262
5462 3286
5462 4310
5463 1239
5463 2263
5463 3287
5463 4311
5464 1240
5464 2264
5464 3288
5464 4312
5465 1241
5465 2265
5465 3289
5465 4313
5466 1242
5466 2266
5466 3290
5466 4314
5467 1243
5467 2267
5467 3291
5467 4315
5468 1244
5468 2268
5468 3292
5468 4316
5469 1245
5469 2269
5469 3293
5469 4317
5470 1246
5470 2270
5470 3294
5470 4318
5471 1247
5471 2271
5471 3295
5471 4319
5472 1248
5472 2272
5472 3296
5472 4320
5473 1249
5473 2273
5473 3297
5473 4321
5474 1250
5474 2274
5474 3298
5474 4322
5475 1251
5475 2275
5475 3299
5475 4323
5476 1252
5476 2276
5476 3300
5476 4324
5477 1253
5477 2277
5477 3301
5477 4325
5478 1254
5478 2278
5478 3302
5478 4326
5479 1255
5479 2279
5479 3303
5479 4327
5480 1256
5480 2280
5480 3304
5480 4328
5481 1257
5481 2281
5481 3305
5481 4329
5482 1258
5482 2282
5482 3306
5482 4330
5483 1259
5483 2283
5483 3307
5483 4331
5484 1260
5484 2284
5484 3308
5484 4332
5485 1261
5485 2285
5485 3309
5485 4333
5486 1262
5486 2286
5486 3310
5486 4334
5487 1263
5487 2287
5487 3311
5487 4335
5488 1264
5488 2288
5488 3312
5488 4336
5489 1265
5489 2289
5489 3313
5489 4337
5490 1266
5490 2290
5490 3314
5490 4338
5491 1267
5491 2291
5491 3315
5491 4339
5492 1268
5492 2292
5492 3316
5492 4340
5493 1269
5493 2293
5493 3317
5493 4341
5494 1270
5494 2294
5494 3318
5494 4342
5495 1271
5495 2295
5495 3319
5495 4343
5496 1272
5496 2296
5496 3320
5496 4344
5497 1273
5497 2297
5497 3321
5497 4345
5498 1274
5498 2298
5498 3322
5498 4346
5499 1275
5499 2299
5499 3323
5499 4347
5500 1276
5500 2300
5500 3324
5500 4348
5501 1277
5501 2301
5501 3325
5501 4349
5502 1278
5502 2302
5502 3326
5502 4350
5503 1279
5503 2303
5503 3327
5503 4351
5504 1280
5504 2304
5504 3328
5504 4352
5505 1281
5505 2305
5505 3329
5505 4353
5506 1282
5506 2306
5506 3330
5506 4354
5507 1283
5507 2307
5507 3331
5507 4355
5508 1284
5508 2308
5508 3332
5508 4356
5509 1285
5509 2309
5509 3333
5509 4357
5510 1286
5510 2310
5510 3334
5510 4358
5511 1287
5511 2311
5511 3335
5511 4359
5512 1288
5512 2312
5512 3336
5512 4360
5513 1289
5513 2313
5513 3337
5513 4361
5514 1290
5514 2314
5514 3338
5514 4362
5515 1291
5515 2315
5515 3339
5515 4363
5516 1292
5516 2316
5516 3340
5516 4364
5517 1293
5517 2317
5517 3341
5517 4365
5518 1294
5518 2318
5518 3342
5518 4366
5519 1295
5519 2319
5519 3343
5519 4367
5520 1296
5520 2320
5520 3344
5520 4368
5521 1297
5521 2321
5521 3345
5521 4369
5522 1298
5522 2322
5522 3346
5522 4370
5523 1299
5523 2323
5523 3347
5523 4371
5524 1300
5524 2324
5524 3348
5524 4372
5525 1301
5525 2325
5525 3349
5525 4373
5526 1302
5526 2326
5526 3350
5526 4374
5527 1303
5527 2327
5527 3351
5527 4375
5528 1304
5528 2328
5528 3352
5528 4376
5529 1305
5529 2329
5529 3353
5529 4377
5530 1306
5530 2330
5530 3354
5530 4378
5531 1307
5531 2331
5531 3355
5531 4379
5532 1308
5532 2332
5532 3356
5532 4380
5533 1309
5533 2333
5533 3357
5533 4381
5534 1310
5534 2334
5534 3358
5534 4382
5535 1311
5535 2335
5535 3359
5535 4383
5536 1312
5536 2336
5536 3360
5536 4384
5537 1313
5537 2337
5537 3361
5537 4385
5538 1314
5538 2338
5538 3362
5538 4386
5539 1315
5539 2339
5539 3363
5539 4387
5540 1316
5540 2340
5540 3364
5540 4388
5541 1317
5541 2341
5541 3365
5541 4389
5542 1318
5542 2342
5542 3366
5542 4390
5543 1319
5543 2343
5543 3367
5543 4391
5544 1320
5544 2344
5544 3368
5544 4392
5545 1321
5545 2345
5545 3369
5545 4393
5546 1322
5546 2346
5546 3370
5546 4394
5547 1323
5547 2347
5547 3371
5547 4395
5548 1324
5548 2348
5548 3372
5548 4396
5549 1325
5549 2349
5549 3373
5549 4397
5550 1326
5550 2350
5550 3374
5550 4398
5551 1327
5551 2351
5551 3375
5551 4399
5552 1328
5552 2352
5552 3376
5552 4400
5553 1329
5553 2353
5553 3377
5553 4401
5554 1330
5554 2354
5554 3378
5554 4402
5555 1331
5555 2355
5555 3379
5555 4403
5556 1332
5556 2356
5556 3380
5556 4404
5557 1333
5557 2357
5557 3381
5557 4405
5558 1334
5558 2358
5558 3382
5558 4406
5559 1335
5559 2359
5559 3383
5559 4407
5560 1336
5560 2360
5560 3384
5560 4408
5561 1337
5561 2361
5561 3385
5561 4409
5562 1338
5562 2362
5562 3386
5562 4410
5563 1339
5563 2363
5563 3387
5563 4411
5564 1340
5564 2364
5564 3388
5564 4412
5565 1341
5565 2365
5565 3389
5565 4413
5566 1342
5566 2366
5566 3390
5566 4414
5567 1343
5567 2367
5567 3391
5567 4415
5568 1344
5568 2368
5568 3392
5568 4416
5569 1345
5569 2369
5569 3393
5569 4417
5570 1346
5570 2370
5570 3394
5570 4418
5571 1347
5571 2371
5571 3395
5571 4419
5572 1348
5572 2372
5572 3396
5572 4420
5573 1349
5573 2373
5573 3397
5573 4421
5574 1350
5574 2374
5574 3398
5574 4422
5575 1351
5575 2375
5575 3399
5575 4423
5576 1352
5576 2376
5576 3400
5576 4424
5577 1353
5577 2377
5577 3401
5577 4425
5578 1354
5578 2378
5578 3402
5578 4426
5579 1355
5579 2379
5579 3403
5579 4427
5580 1356
5580 2380
5580 3404
5580 4428
5581 1357
5581 2381
5581 3405
5581 4429
5582 1358
5582 2382
5582 3406
5582 4430
5583 1359
5583 2383
5583 3407
5583 4431
5584 1360
5584 2384
5584 3408
5584 4432
5585 1361
5585 2385
5585 3409
5585 4433
5586 1362
5586 2386
5586 3410
5586 4434
5587 1363
5587 2387
5587 3411
5587 4435
5588 1364
5588 2388
5588 3412
5588 4436
5589 1365
5589 2389
5589 3413
5589 4437
5590 1366
5590 2390
5590 3414
5590 4438
5591 1367
5591 2391
5591 3415
5591 4439
5592 1368
5592 2392
5592 3416
5592 4440
5593 1369
5593 2393
5593 3417
5593 4441
5594 1370
5594 2394
5594 3418
5594 4442
5595 1371
5595 2395
5595 3419
5595 4443
5596 1372
5596 2396
5596 3420
5596 4444
5597 1373
5597 2397
5597 3421
5597 4445
5598 1374
5598 2398
5598 3422
5598 4446
5599 1375
5599 2399
5599 3423
5599 4447
5600 1376
5600 2400
5600 3424
5600 4448
5601 1377
5601 2401
5601 3425
5601 4449
5602 1378
5602 2402
5602 3426
5602 4450
5603 1379
5603 2403
5603 3427
5603 4451
5604 1380
5604 2404
5604 3428
5604 4452
5605 1381
5605 2405
5605 3429
5605 4453
5606 1382
5606 2406
5606 3430
5606 4454
5607 1383
5607 2407
5607 3431
5607 4455
5608 1384
5608 2408
5608 3432
5608 4456
5609 1385
5609 2409
5609 3433
5609 4457
5610 1386
5610 2410
5610 3434
5610 4458
5611 1387
5611 2411
5611 3435
5611 4459
5612 1388
5612 2412
5612 3436
5612 4460
5613 1389
5613 2413
5613 3437
5613 4461
5614 1390
5614 2414
5614 3438
5614 4462
5615 1391
5615 2415
5615 3439
5615 4463
5616 1392
5616 2416
5616 3440
5616 4464
5617 1393
5617 2417
5617 3441
5617 4465
5618 1394
5618 2418
5618 3442
5618 4466
5619 1395
5619 2419
5619 3443
5619 4467
5620 1396
5620 2420
5620 3444
5620 4468
5621 1397
5621 2421
5621 3445
5621 4469
5622 1398
5622 2422
5622 3446
5622 4470
5623 1399
5623 2423
5623 3447
5623 4471
5624 1400
5624 2424
5624 3448
5624 4472
5625 1401
5625 2425
5625 3449
5625 4473
5626 1402
5626 2426
5626 3450
5626 4474
5627 1403
5627 2427
5627 3451
5627 4475
5628 1404
5628 2428
5628 3452
5628 4476
5629 1405
5629 2429
5629 3453
5629 4477
5630 1406
5630 2430
5630 3454
5630 4478
5631 1407
5631 2431
5631 3455
5631 4479
5632 0
5632 2304
5632 3200
5632 5504
5633 1
5633 2305
5633 3201
5633 5505
5634 2
5634 2306
5634 3202
5634 5506
5635 3
5635 2307
5635 3203
5635 5507
5636 4
5636 2308
5636 3204
5636 5508
5637 5
5637 2309
5637 3205
5637 5509
5638 6
5638 2310
5638 3206
5638 5510
5639 7
5639 2311
5639 3207
5639 5511
5640 8
5640 2312
5640 3208
5640 5512
5641 9
5641 2313
5641 3209
5641 5513
5642 10
5642 2314
5642 3210
5642 5514
5643 11
5643 2315
5643 3211
5643 5515
5644 12
5644 2316
5644 3212
5644 5516
5645 13
5645 2317
5645 3213
5645 5517
5646 14
5646 2318
5646 3214
5646 5518
5647 15
5647 2319
5647 3215
5647 5519
5648 16
5648 2320
5648 3216
5648 5520
5649 17
5649 2321
5649 3217
5649 5521
5650 18
5650 2322
5650 3218
5650 5522
5651 19
5651 2323
5651 3219
5651 5523
5652 20
5652 2324
5652 3220
5652 5524
5653 21
5653 2325
5653 3221
5653 5525
5654 22
5654 2326
5654 3222
5654 5526
5655 23
5655 2327
5655 3223
5655 5527
5656 24
5656 2328
5656 3224
5656 5528
5657 25
5657 2329
5657 3225
5657 5529
5658 26
5658 2330
5658 3226
5658 5530
5659 27
5659 2331
5659 3227
5659 5531
5660 28
5660 2332
5660 3228
5660 5532
5661 29
5661 2333
5661 3229
5661 5533
5662 30
5662 2334
5662 3230
5662 5534
5663 31
5663 2335
5663 3231
5663 5535
5664 32
5664 2336
5664 3232
5664 5536
5665 33
5665 2337
5665 3233
5665 5537
5666 34
5666 2338
5666 3234
5666 5538
5667 35
5667 2339
5667 3235
5667 5539
5668 36
5668 2340
5668 3236
5668 5540
5669 37
5669 2341
5669 3237
5669 5541
5670 38
5670 2342
5670 3238
5670 5542
5671 39
5671 2343
5671 3239
5671 5543
5672 40
5672 2344
5672 3240
5672 5544
5673 41
5673 2345
5673 3241
5673 5545
5674 42
5674 2346
5674 3242
5674 5546
5675 43
5675 2347
5675 3243
5675 5547
5676 44
5676 2348
5676 3244
5676 5548
5677 45
5677 2349
5677 3245
5677 5549
5678 46
5678 2350
5678 3246
5678 5550
5679 47
5679 2351
5679 3247
5679 5551
5680 48
5680 2352
5680 3248
5680 5552
5681 49
5681 2353
5681 3249
5681 5553
5682 50
5682 2354
5682 3250
5682 5554
5683 51
5683 2355
5683 3251
5683 5555
5684 52
5684 2356
5684 3252
5684 5556
5685 53
5685 2357
5685 3253
5685 5557
5686 54
5686 2358
5686 3254
5686 5558
5687 55
5687 2359
5687 3255
5687 5559
5688 56
5688 2360
5688 3256
5688 5560
5689 57
5689 2361
5689 3257
5689 5561
5690 58
5690 2362
5690 3258
5690 5562
5691 59
5691 2363
5691 3259
5691 5563
5692 60
5692 2364
5692 3260
5692 5564
5693 61
5693 2365
5693 3261
5693 5565
5694 62
5694 2366
5694 3262
5694 5566
5695 63
5695 2367
5695 3263
5695 5567
5696 64
5696 2368
5696 3264
5696 5568
5697 65
5697 2369
5697 3265
5697 5569
5698 66
5698 2370
5698 3266
5698 5570
5699 67
5699 2371
5699 3267
5699 5571
5700 68
5700 2372
5700 3268
5700 5572
5701 69
5701 2373
5701 3269
5701 5573
5702 70
5702 2374
5702 3270
5702 5574
5703 71
5703 2375
5703 3271
5703 5575
5704 72
5704 2376
5704 3272
5704 5576
5705 73
5705 2377
5705 3273
5705 5577
5706 74
5706 2378
5706 3274
5706 5578
5707 75
5707 2379
5707 3275
5707 5579
5708 76
5708 2380
5708 3276
5708 5580
5709 77
5709 2381
5709 3277
5709 5581
5710 78
5710 2382
5710 3278
5710 5582
5711 79
5711 2383
5711 3279
5711 5583
5712 80
5712 2384
5712 3280
5712 5584
5713 81
5713 2385
5713 3281
5713 5585
5714 82
5714 2386
5714 3282
5714 5586
5715 83
5715 2387
5715 3283
5715 5587
5716 84
5716 2388
5716 3284
5716 5588
5717 85
5717 2389
5717 3285
5717 5589
5718 86
5718 2390
5718 3286
5718 5590
5719 87
5719 2391
5719 3287
5719 5591
5720 88
5720 2392
5720 3288
5720 5592
5721 89
5721 2393
5721 3289
5721 5593
5722 90
5722 2394
5722 3290
5722 5594
5723 91
5723 2395
5723 3291
5723 5595
5724 92
5724 2396
5724 3292
5724 5596
5725 93
5725 2397
5725 3293
5725 5597
5726 94
5726 2398
5726 3294
5726 5598
5727 95
5727 2399
5727 3295
5727 5599
5728 96
5728 2400
5728 3296
5728 5600
5729 97
5729 2401
5729 3297
5729 5601
5730 98
5730 2402
5730 3298
5730 5602
5731 99
5731 2403
5731 3299
5731 5603
5732 100
5732 2404
5732 3300
5732 5604
5733 101
5733 2405
5733 3301
5733 5605
5734 102
5734 2406
5734 3302
5734 5606
5735 103
5735 2407
5735 3303
5735 5607
5736 104
5736 2408
5736 3304
5736 5608
5737 105
5737 2409
5737 3305
5737 5609
5738 106
5738 2410
5738 3306
5738 5610
5739 107
5739 2411
5739 3307
5739 5611
5740 108
5740 2412
5740 3308
5740 5612
5741 109
5741 2413
5741 3309
5741 5613
5742 110
5742 2414
5742 3310
5742 5614
5743 111
5743 2415
5743 3311
5743 5615
5744 112
5744 2416
5744 3312
5744 5616
5745 113
5745 2417
5745 3313
5745 5617
5746 114
5746 2418
5746 3314
5746 5618
5747 115
5747 2419
5747 3315
5747 5619
5748 116
5748 2420
5748 3316
5748 5620
5749 117
5749 2421
5749 3317
5749 5621
5750 118
5750 2422
5750 3318
5750 5622
5751 119
5751 2423
5751 3319
5751 5623
5752 120
5752 2424
5752 3320
5752 5624
5753 121
5753 2425
5753 3321
5753 5625
5754 122
5754 2426
5754 3322
5754 5626
5755 123
5755 2427
5755 3323
5755 5627
5756 124
5756 2428
5756 3324
5756 5628
5757 125
5757 2429
5757 3325
5757 5629
5758 126
5758 2430
5758 3326
5758 5630
5759 127
5759 2431
5759 3327
5759 5631
5760 128
5760 2432
5760 3328
5760 4224
5761 129
5761 2433
5761 3329
5761 4225
5762 130
5762 2434
5762 3330
5762 4226
5763 131
5763 2435
5763 3331
5763 4227
5764 132
5764 2436
5764 3332
5764 4228
5765 133
5765 2437
5765 3333
5765 4229
5766 134
5766 2438
5766 3334
5766 4230
5767 135
5767 2439
5767 3335
5767 4231
5768 136
5768 2440
5768 3336
5768 4232
5769 137
5769 2441
5769 3337
5769 4233
5770 138
5770 2442
5770 3338
5770 4234
5771 139
5771 2443
5771 3339
5771 4235
5772 140
5772 2444
5772 3340
5772 4236
5773 141
5773 2445
5773 3341
5773 4237
5774 142
5774 2446
5774 3342
5774 4238
5775 143
5775 2447
5775 3343
5775 4239
5776 144
5776 2448
5776 3344
5776 4240
5777 145
5777 2449
5777 3345
5777 4241
5778 146
5778 2450
5778 3346
5778 4242
5779 147
5779 2451
5779 3347
5779 4243
5780 148
5780 2452
5780 3348
5780 4244
5781 149
5781 2453
5781 3349
5781 4245
5782 150
5782 2454
5782 3350
5782 4246
5783 151
5783 2455
5783 3351
5783 4247
5784 152
5784 2456
5784 3352
5784 4248
5785 153
5785 2457
5785 3353
5785 4249
5786 154
5786 2458
5786 3354
5786 4250
5787 155
5787 2459
5787 3355
5787 4251
5788 156
5788 2460
5788 3356
5788 4252
5789 157
5789 2461
5789 3357
5789 4253
5790 158
5790 2462
5790 3358
5790 4254
5791 159
5791 2463
5791 3359
5791 4255
5792 160
5792 2464
5792 3360
5792 4256
5793 161
5793 2465
5793 3361
5793 4257
5794 162
5794 2466
5794 3362
5794 4258
5795 163
5795 2467
5795 3363
5795 4259
5796 164
5796 2468
5796 3364
5796 4260
5797 165
5797 2469
5797 3365
5797 4261
5798 166
5798 2470
5798 3366
5798 4262
5799 167
5799 2471
5799 3367
5799 4263
5800 168
5800 2472
5800 3368
5800 4264
5801 169
5801 2473
5801 3369
5801 4265
5802 170
5802 2474
5802 3370
5802 4266
5803 171
5803 2475
5803 3371
5803 4267
5804 172
5804 2476
5804 3372
5804 4268
5805 173
5805 2477
5805 3373
5805 4269
5806 174
5806 2478
5806 3374
5806 4270
5807 175
5807 2479
5807 3375
5807 4271
5808 176
5808 2480
5808 3376
5808 4272
5809 177
5809 2481
5809 3377
5809 4273
5810 178
5810 2482
5810 3378
5810 4274
5811 179
5811 2483
5811 3379
5811 4275
5812 180
5812 2484
5812 3380
5812 4276
5813 181
5813 2485
5813 3381
5813 4277
5814 182
5814 2486
5814 3382
5814 4278
5815 183
5815 2487
5815 3383
5815 4279
5816 184
5816 2488
5816 3384
5816 4280
5817 185
5817 2489
5817 3385
5817 4281
5818 186
5818 2490
5818 3386
5818 4282
5819 187
5819 2491
5819 3387
5819 4283
5820 188
5820 2492
5820 3388
5820 4284
5821 189
5821 2493
5821 3389
5821 4285
5822 190
5822 2494
5822 3390
5822 4286
5823 191
5823 2495
5823 3391
5823 4287
5824 192
5824 2496
5824 3392
5824 4288
5825 193
5825 2497
5825 3393
5825 4289
5826 194
5826 2498
5826 3394
5826 4290
5827 195
5827 2499
5827 3395
5827 4291
5828 196
5828 2500
5828 3396
5828 4292
5829 197
5829 2501
5829 3397
5829 4293
5830 198
5830 2502
5830 3398
5830 4294
5831 199
5831 2503
5831 3399
5831 4295
5832 200
5832 2504
5832 3400
5832 4296
5833 201
5833 2505
5833 3401
5833 4297
5834 202
5834 2506
5834 3402
5834 4298
5835 203
5835 2507
5835 3403
5835 4299
5836 204
5836 2508
5836 3404
5836 4300
5837 205
5837 2509
5837 3405
5837 4301
5838 206
5838 2510
5838 3406
5838 4302
5839 207
5839 2511
5839 3407
5839 4303
5840 208
5840 2512
5840 3408
5840 4304
5841 209
5841 2513
5841 3409
5841 4305
5842 210
5842 2514
5842 3410
5842 4306
5843 211
5843 2515
5843 3411
5843 4307
5844 212
5844 2516
5844 3412
5844 4308
5845 213
5845 2517
5845 3413
5845 4309
5846 214
5846 2518
5846 3414
5846 4310
5847 215
5847 2519
5847 3415
5847 4311
5848 216
5848 2520
5848 3416
5848 4312
5849 217
5849 2521
5849 3417
5849 4313
5850 218
5850 2522
5850 3418
5850 4314
5851 219
5851 2523
5851 3419
5851 4315
5852 220
5852 2524
5852 3420
5852 4316
5853 221
5853 2525
5853 3421
5853 4317
5854 222
5854 2526
5854 3422
5854 4318
5855 223
5855 2527
5855 3423
5855 4319
5856 224
5856 2528
5856 3424
5856 4320
5857 225
5857 2529
5857 3425
5857 4321
5858 226
5858 2530
5858 3426
5858 4322
5859 227
5859 2531
5859 3427
5859 4323
5860 228
5860 2532
5860 3428
5860 4324
5861 229
5861 2533
5861 3429
5861 4325
5862 230
5862 2534
5862 3430
5862 4326
5863 231
5863 2535
5863 3431
5863 4327
5864 232
5864 2536
5864 3432
5864 4328
5865 233
5865 2537
5865 3433
5865 4329
5866 234
5866 2538
5866 3434
5866 4330
5867 235
5867 2539
5867 3435
5867 4331
5868 236
5868 2540
5868 3436
5868 4332
5869 237
5869 2541
5869 3437
5869 4333
5870 238
5870 2542
5870 3438
5870 4334
5871 239
5871 2543
5871 3439
5871 4335
5872 240
5872 2544
5872 3440
5872 4336
5873 241
5873 2545
5873 3441
5873 4337
5874 242
5874 2546
5874 3442
5874 4338
5875 243
5875 2547
5875 3443
5875 4339
5876 244
5876 2548
5876 3444
5876 4340
5877 245
5877 2549
5877 3445
5877 4341
5878 246
5878 2550
5878 3446
5878 4342
5879 247
5879 2551
5879 3447
5879 4343
5880 248
5880 2552
5880 3448
5880 4344
5881 249
5881 2553
5881 3449
5881 4345
5882 250
5882 2554
5882 3450
5882 4346
5883 251
5883 2555
5883 3451
5883 4347
5884 252
5884 2556
5884 3452
5884 4348
5885 253
5885 2557
5885 3453
5885 4349
5886 254
5886 2558
5886 3454
5886 4350
5887 255
5887 2559
5887 3455
5887 4351
5888 256
5888 2560
5888 3456
5888 4352
5889 257
5889 2561
5889 3457
5889 4353
5890 258
5890 2562
5890 3458
5890 4354
5891 259
5891 2563
5891 3459
5891 4355
5892 260
5892 2564
5892 3460
5892 4356
5893 261
5893 2565
5893 3461
5893 4357
5894 262
5894 2566
5894 3462
5894 4358
5895 263
5895 2567
5895 3463
5895 4359
5896 264
5896 2568
5896 3464
5896 4360
5897 265
5897 2569
5897 3465
5897 4361
5898 266
5898 2570
5898 3466
5898 4362
5899 267
5899 2571
5899 3467
5899 4363
5900 268
5900 2572
5900 3468
5900 4364
5901 269
5901 2573
5901 3469
5901 4365
5902 270
5902 2574
5902 3470
5902 4366
5903 271
5903 2575
5903 3471
5903 4367
5904 272
5904 2576
5904 3472
5904 4368
5905 273
5905 2577
5905 3473
5905 4369
5906 274
5906 2578
5906 3474
5906 4370
5907 275
5907 2579
5907 3475
5907 4371
5908 276
5908 2580
5908 3476
5908 4372
5909 277
5909 2581
5909 3477
5909 4373
5910 278
5910 2582
5910 3478
5910 4374
5911 279
5911 2583
5911 3479
5911 4375
5912 280
5912 2584
5912 3480
5912 4376
5913 281
5913 2585
5913 3481
5913 4377
5914 282
5914 2586
5914 3482
5914 4378
5915 283
5915 2587
5915 3483
5915 4379
5916 284
5916 2588
5916 3484
5916 4380
5917 285
5917 2589
5917 3485
5917 4381
5918 286
5918 2590
5918 3486
5918 4382
5919 287
5919 2591
5919 3487
5919 4383
5920 288
5920 2592
5920 3488
5920 4384
5921 289
5921 2593
5921 3489
5921 4385
5922 290
5922 2594
5922 3490
5922 4386
5923 291
5923 2595
5923 3491
5923 4387
5924 292
5924 2596
5924 3492
5924 4388
5925 293
5925 2597
5925 3493
5925 4389
5926 294
5926 2598
5926 3494
5926 4390
5927 295
5927 2599
5927 3495
5927 4391
5928 296
5928 2600
5928 3496
5928 4392
5929 297
5929 2601
5929 3497
5929 4393
5930 298
5930 2602
5930 3498
5930 4394
5931 299
5931 2603
5931 3499
5931 4395
5932 300
5932 2604
5932 3500
5932 4396
5933 301
5933 2605
5933 3501
5933 4397
5934 302
5934 2606
5934 3502
5934 4398
5935 303
5935 2607
5935 3503
5935 4399
5936 304
5936 2608
5936 3504
5936 4400
5937 305
5937 2609
5937 3505
5937 4401
5938 306
5938 2610
5938 3506
5938 4402
5939 307
5939 2611
5939 3507
5939 4403
5940 308
5940 2612
5940 3508
5940 4404
5941 309
5941 2613
5941 3509
5941 4405
5942 310
5942 2614
5942 3510
5942 4406
5943 311
5943 2615
5943 3511
5943 4407
5944 312
5944 2616
5944 3512
5944 4408
5945 313
5945 2617
5945 3513
5945 4409
5946 314
5946 2618
5946 3514
5946 4410
5947 315
5947 2619
5947 3515
5947 4411
5948 316
5948 2620
5948 3516
5948 4412
5949 317
5949 2621
5949 3517
5949 4413
5950 318
5950 2622
5950 3518
5950 4414
5951 319
5951 2623
5951 3519
5951 4415
5952 320
5952 2624
5952 3520
5952 4416
5953 321
5953 2625
5953 3521
5953 4417
5954 322
5954 2626
5954 3522
5954 4418
5955 323
5955 2627
5955 3523
5955 4419
5956 324
5956 2628
5956 3524
5956 4420
5957 325
5957 2629
5957 3525
5957 4421
5958 326
5958 2630
5958 3526
5958 4422
5959 327
5959 2631
5959 3527
5959 4423
5960 328
5960 2632
5960 3528
5960 4424
5961 329
5961 2633
5961 3529
5961 4425
5962 330
5962 2634
5962 3530
5962 4426
5963 331
5963 2635
5963 3531
5963 4427
5964 332
5964 2636
5964 3532
5964 4428
5965 333
5965 2637
5965 3533
5965 4429
5966 334
5966 2638
5966 3534
5966 4430
5967 335
5967 2639
5967 3535
5967 4431
5968 336
5968 2640
5968 3536
5968 4432
5969 337
5969 2641
5969 3537
5969 4433
5970 338
5970 2642
5970 3538
5970 4434
5971 339
5971 2643
5971 3539
5971 4435
5972 340
5972 2644
5972 3540
5972 4436
5973 341
5973 2645
5973 3541
5973 4437
5974 342
5974 2646
5974 3542
5974 4438
5975 343
5975 2647
5975 3543
5975 4439
5976 344
5976 2648
5976 3544
5976 4440
5977 345
5977 2649
5977 3545
5977 4441
5978 346
5978 2650
5978 3546
5978 4442
5979 347
5979 2651
5979 3547
5979 4443
5980 348
5980 2652
5980 3548
5980 4444
5981 349
5981 2653
5981 3549
5981 4445
5982 350
5982 2654
5982 3550
5982 4446
5983 351
5983 2655
5983 3551
5983 4447
5984 352
5984 2656
5984 3552
5984 4448
5985 353
5985 2657
5985 3553
5985 4449
5986 354
5986 2658
5986 3554
5986 4450
5987 355
5987 2659
5987 3555
5987 4451
5988 356
5988 2660
5988 3556
5988 4452
5989 357
5989 2661
5989 3557
5989 4453
5990 358
5990 2662
5990 3558
5990 4454
5991 359
5991 2663
5991 3559
5991 4455
5992 360
5992 2664
5992 3560
5992 4456
5993 361
5993 2665
5993 3561
5993 4457
5994 362
5994 2666
5994 3562
5994 4458
5995 363
5995 2667
5995 3563
5995 4459
5996 364
5996 2668
5996 3564
5996 4460
5997 365
5997 2669
5997 3565
5997 4461
5998 366
5998 2670
5998 3566
5998 4462
5999 367
5999 2671
5999 3567
5999 4463
6000 368
6000 2672
6000 3568
6000 4464
6001 369
6001 2673
6001 3569
6001 4465
6002 370
6002 2674
6002 3570
6002 4466
6003 371
6003 2675
6003 3571
6003 4467
6004 372
6004 2676
6004 3572
6004 4468
6005 373
6005 2677
6005 3573
6005 4469
6006 374
6006 2678
6006 3574
6006 4470
6007 375
6007 2679
6007 3575
6007 4471
6008 376
6008 2680
6008 3576
6008 4472
6009 377
6009 2681
6009 3577
6009 4473
6010 378
6010 2682
6010 3578
6010 4474
6011 379
6011 2683
6011 3579
6011 4475
6012 380
6012 2684
6012 3580
6012 4476
6013 381
6013 2685
6013 3581
6013 4477
6014 382
6014 2686
6014 3582
6014 4478
6015 383
6015 2687
6015 3583
6015 4479
6016 384
6016 2688
6016 3584
6016 4480
6017 385
6017 2689
6017 3585
6017 4481
6018 386
6018 2690
6018 3586
6018 4482
6019 387
6019 2691
6019 3587
6019 4483
6020 388
6020 2692
6020 3588
6020 4484
6021 389
6021 2693
6021 3589
6021 4485
6022 390
6022 2694
6022 3590
6022 4486
6023 391
6023 2695
6023 3591
6023 4487
6024 392
6024 2696
6024 3592
6024 4488
6025 393
6025 2697
6025 3593
6025 4489
6026 394
6026 2698
6026 3594
6026 4490
6027 395
6027 2699
6027 3595
6027 4491
6028 396
6028 2700
6028 3596
6028 4492
6029 397
6029 2701
6029 3597
6029 4493
6030 398
6030 2702
6030 3598
6030 4494
6031 399
6031 2703
6031 3599
6031 4495
6032 400
6032 2704
6032 3600
6032 4496
6033 401
6033 2705
6033 3601
6033 4497
6034 402
6034 2706
6034 3602
6034 4498
6035 403
6035 2707
6035 3603
6035 4499
6036 404
6036 2708
6036 3604
6036 4500
6037 405
6037 2709
6037 3605
6037 4501
6038 406
6038 2710
6038 3606
6038 4502
6039 407
6039 2711
6039 3607
6039 4503
6040 408
6040 2712
6040 3608
6040 4504
6041 409
6041 2713
6041 3609
6041 4505
6042 410
6042 2714
6042 3610
6042 4506
6043 411
6043 2715
6043 3611
6043 4507
6044 412
6044 2716
6044 3612
6044 4508
6045 413
6045 2717
6045 3613
6045 4509
6046 414
6046 2718
6046 3614
6046 4510
6047 415
6047 2719
6047 3615
6047 4511
6048 416
6048 2720
6048 3616
6048 4512
6049 417
6049 2721
6049 3617
6049 4513
6050 418
6050 2722
6050 3618
6050 4514
6051 419
6051 2723
6051 3619
6051 4515
6052 420
6052 2724
6052 3620
6052 4516
6053 421
6053 2725
6053 3621
6053 4517
6054 422
6054 2726
6054 3622
6054 4518
6055 423
6055 2727
6055 3623
6055 4519
6056 424
6056 2728
6056 3624
6056 4520
6057 425
6057 2729
6057 3625
6057 4521
6058 426
6058 2730
6058 3626
6058 4522
6059 427
6059 2731
6059 3627
6059 4523
6060 428
6060 2732
6060 3628
6060 4524
6061 429
6061 2733
6061 3629
6061 4525
6062 430
6062 2734
6062 3630
6062 4526
6063 431
6063 2735
6063 3631
6063 4527
6064 432
6064 2736
6064 3632
6064 4528
6065 433
6065 2737
6065 3633
6065 4529
6066 434
6066 2738
6066 3634
6066 4530
6067 435
6067 2739
6067 3635
6067 4531
6068 436
6068 2740
6068 3636
6068 4532
6069 437
6069 2741
6069 3637
6069 4533
6070 438
6070 2742
6070 3638
6070 4534
6071 439
6071 2743
6071 3639
6071 4535
6072 440
6072 2744
6072 3640
6072 4536
6073 441
6073 2745
6073 3641
6073 4537
6074 442
6074 2746
6074 3642
6074 4538
6075 443
6075 2747
6075 3643
6075 4539
6076 444
6076 2748
6076 3644
6076 4540
6077 445
6077 2749
6077 3645
6077 4541
6078 446
6078 2750
6078 3646
6078 4542
6079 447
6079 2751
6079 3647
6079 4543
6080 448
6080 2752
6080 3648
6080 4544
6081 449
6081 2753
6081 3649
6081 4545
6082 450
6082 2754
6082 3650
6082 4546
6083 451
6083 2755
6083 3651
6083 4547
6084 452
6084 2756
6084 3652
6084 4548
6085 453
6085 2757
6085 3653
6085 4549
6086 454
6086 2758
6086 3654
6086 4550
6087 455
6087 2759
6087 3655
6087 4551
6088 456
6088 2760
6088 3656
6088 4552
6089 457
6089 2761
6089 3657
6089 4553
6090 458
6090 2762
6090 3658
6090 4554
6091 459
6091 2763
6091 3659
6091 4555
6092 460
6092 2764
6092 3660
6092 4556
6093 461
6093 2765
6093 3661
6093 4557
6094 462
6094 2766
6094 3662
6094 4558
6095 463
6095 2767
6095 3663
6095 4559
6096 464
6096 2768
6096 3664
6096 4560
6097 465
6097 2769
6097 3665
6097 4561
6098 466
6098 2770
6098 3666
6098 4562
6099 467
6099 2771
6099 3667
6099 4563
6100 468
6100 2772
6100 3668
6100 4564
6101 469
6101 2773
6101 3669
6101 4565
6102 470
6102 2774
6102 3670
6102 4566
6103 471
6103 2775
6103 3671
6103 4567
6104 472
6104 2776
6104 3672
6104 4568
6105 473
6105 2777
6105 3673
6105 4569
6106 474
6106 2778
6106 3674
6106 4570
6107 475
6107 2779
6107 3675
6107 4571
6108 476
6108 2780
6108 3676
6108 4572
6109 477
6109 2781
6109 3677
6109 4573
6110 478
6110 2782
6110 3678
6110 4574
6111 479
6111 2783
6111 3679
6111 4575
6112 480
6112 2784
6112 3680
6112 4576
6113 481
6113 2785
6113 3681
6113 4577
6114 482
6114 2786
6114 3682
6114 4578
6115 483
6115 2787
6115 3683
6115 4579
6116 484
6116 2788
6116 3684
6116 4580
6117 485
6117 2789
6117 3685
6117 4581
6118 486
6118 2790
6118 3686
6118 4582
6119 487
6119 2791
6119 3687
6119 4583
6120 488
6120 2792
6120 3688
6120 4584
6121 489
6121 2793
6121 3689
6121 4585
6122 490
6122 2794
6122 3690
6122 4586
6123 491
6123 2795
6123 3691
6123 4587
6124 492
6124 2796
6124 3692
6124 4588
6125 493
6125 2797
6125 3693
6125 4589
6126 494
6126 2798
6126 3694
6126 4590
6127 495
6127 2799
6127 3695
6127 4591
6128 496
6128 2800
6128 3696
6128 4592
6129 497
6129 2801
6129 3697
6129 4593
6130 498
6130 2802
6130 3698
6130 4594
6131 499
6131 2803
6131 3699
6131 4595
6132 500
6132 2804
6132 3700
6132 4596
6133 501
6133 2805
6133 3701
6133 4597
6134 502
6134 2806
6134 3702
6134 4598
6135 503
6135 2807
6135 3703
6135 4599
6136 504
6136 2808
6136 3704
6136 4600
6137 505
6137 2809
6137 3705
6137 4601
6138 506
6138 2810
6138 3706
6138 4602
6139 507
6139 2811
6139 3707
6139 4603
6140 508
6140 2812
6140 3708
6140 4604
6141 509
6141 2813
6141 3709
6141 4605
6142 510
6142 2814
6142 3710
6142 4606
6143 511
6143 2815
6143 3711
6143 4607
6144 512
6144 1408
6144 3712
6144 4608
6145 513
6145 1409
6145 3713
6145 4609
6146 514
6146 1410
6146 3714
6146 4610
6147 515
6147 1411
6147 3715
6147 4611
6148 516
6148 1412
6148 3716
6148 4612
6149 517
6149 1413
6149 3717
6149 4613
6150 518
6150 1414
6150 3718
6150 4614
6151 519
6151 1415
6151 3719
6151 4615
6152 520
6152 1416
6152 3720
6152 4616
6153 521
6153 1417
6153 3721
6153 4617
6154 522
6154 1418
6154 3722
6154 4618
6155 523
6155 1419
6155 3723
6155 4619
6156 524
6156 1420
6156 3724
6156 4620
6157 525
6157 1421
6157 3725
6157 4621
6158 526
6158 1422
6158 3726
6158 4622
6159 527
6159 1423
6159 3727
6159 4623
6160 528
6160 1424
6160 3728
6160 4624
6161 529
6161 1425
6161 3729
6161 4625
6162 530
6162 1426
6162 3730
6162 4626
6163 531
6163 1427
6163 3731
6163 4627
6164 532
6164 1428
6164 3732
6164 4628
6165 533
6165 1429
6165 3733
6165 4629
6166 534
6166 1430
6166 3734
6166 4630
6167 535
6167 1431
6167 3735
6167 4631
6168 536
6168 1432
6168 3736
6168 4632
6169 537
6169 1433
6169 3737
6169 4633
6170 538
6170 1434
6170 3738
6170 4634
6171 539
6171 1435
6171 3739
6171 4635
6172 540
6172 1436
6172 3740
6172 4636
6173 541
6173 1437
6173 3741
6173 4637
6174 542
6174 1438
6174 3742
6174 4638
6175 543
6175 1439
6175 3743
6175 4639
6176 544
6176 1440
6176 3744
6176 4640
6177 545
6177 1441
6177 3745
6177 4641
6178 546
6178 1442
6178 3746
6178 4642
6179 547
6179 1443
6179 3747
6179 4643
6180 548
6180 1444
6180 3748
6180 4644
6181 549
6181 1445
6181 3749
6181 4645
6182 550
6182 1446
6182 3750
6182 4646
6183 551
6183 1447
6183 3751
6183 4647
6184 552
6184 1448
6184 3752
6184 4648
6185 553
6185 1449
6185 3753
6185 4649
6186 554
6186 1450
6186 3754
6186 4650
6187 555
6187 1451
6187 3755
6187 4651
6188 556
6188 1452
6188 3756
6188 4652
6189 557
6189 1453
6189 3757
6189 4653
6190 558
6190 1454
6190 3758
6190 4654
6191 559
6191 1455
6191 3759
6191 4655
6192 560
6192 1456
6192 3760
6192 4656
6193 561
6193 1457
6193 3761
6193 4657
6194 562
6194 1458
6194 3762
6194 4658
6195 563
6195 1459
6195 3763
6195 4659
6196 564
6196 1460
6196 3764
6196 4660
6197 565
6197 1461
6197 3765
6197 4661
6198 566
6198 1462
6198 3766
6198 4662
6199 567
6199 1463
6199 3767
6199 4663
6200 568
6200 1464
6200 3768
6200 4664
6201 569
6201 1465
6201 3769
6201 4665
6202 570
6202 1466
6202 3770
6202 4666
6203 571
6203 1467
6203 3771
6203 4667
6204 572
6204 1468
6204 3772
6204 4668
6205 573
6205 1469
6205 3773
6205 4669
6206 574
6206 1470
6206 3774
6206 4670
6207 575
6207 1471
6207 3775
6207 4671
6208 576
6208 1472
6208 3776
6208 4672
6209 577
6209 1473
6209 3777
6209 4673
6210 578
6210 1474
6210 3778
6210 4674
6211 579
6211 1475
6211 3779
6211 4675
6212 580
6212 1476
6212 3780
6212 4676
6213 581
6213 1477
6213 3781
6213 4677
6214 582
6214 1478
6214 3782
6214 4678
6215 583
6215 1479
6215 3783
6215 4679
6216 584
6216 1480
6216 3784
6216 4680
6217 585
6217 1481
6217 3785
6217 4681
6218 586
6218 1482
6218 3786
6218 4682
6219 587
6219 1483
6219 3787
6219 4683
6220 588
6220 1484
6220 3788
6220 4684
6221 589
6221 1485
6221 3789
6221 4685
6222 590
6222 1486
6222 3790
6222 4686
6223 591
6223 1487
6223 3791
6223 4687
6224 592
6224 1488
6224 3792
6224 4688
6225 593
6225 1489
6225 3793
6225 4689
6226 594
6226 1490
6226 3794
6226 4690
6227 595
6227 1491
6227 3795
6227 4691
6228 596
6228 1492
6228 3796
6228 4692
6229 597
6229 1493
6229 3797
6229 4693
6230 598
6230 1494
6230 3798
6230 4694
6231 599
6231 1495
6231 3799
6231 4695
6232 600
6232 1496
6232 3800
6232 4696
6233 601
6233 1497
6233 3801
6233 4697
6234 602
6234 1498
6234 3802
6234 4698
6235 603
6235 1499
6235 3803
6235 4699
6236 604
6236 1500
6236 3804
6236 4700
6237 605
6237 1501
6237 3805
6237 4701
6238 606
6238 1502
6238 3806
6238 4702
6239 607
6239 1503
6239 3807
6239 4703
6240 608
6240 1504
6240 3808
6240 4704
6241 609
6241 1505
6241 3809
6241 4705
6242 610
6242 1506
6242 3810
6242 4706
6243 611
6243 1507
6243 3811
6243 4707
6244 612
6244 1508
6244 3812
6244 4708
6245 613
6245 1509
6245 3813
6245 4709
6246 614
6246 1510
6246 3814
6246 4710
6247 615
6247 1511
6247 3815
6247 4711
6248 616
6248 1512
6248 3816
6248 4712
6249 617
6249 1513
6249 3817
6249 4713
6250 618
6250 1514
6250 3818
6250 4714
6251 619
6251 1515
6251 3819
6251 4715
6252 620
6252 1516
6252 3820
6252 4716
6253 621
6253 1517
6253 3821
6253 4717
6254 622
6254 1518
6254 3822
6254 4718
6255 623
6255 1519
6255 3823
6255 4719
6256 624
6256 1520
6256 3824
6256 4720
6257 625
6257 1521
6257 3825
6257 4721
6258 626
6258 1522
6258 3826
6258 4722
6259 627
6259 1523
6259 3827
6259 4723
6260 628
6260 1524
6260 3828
6260 4724
6261 629
6261 1525
6261 3829
6261 4725
6262 630
6262 1526
6262 3830
6262 4726
6263 631
6263 1527
6263 3831
6263 4727
6264 632
6264 1528
6264 3832
6264 4728
6265 633
6265 1529
6265 3833
6265 4729
6266 634
6266 1530
6266 3834
6266 4730
6267 635
6267 1531
6267 3835
6267 4731
6268 636
6268 1532
6268 3836
6268 4732
6269 637
6269 1533
6269 3837
6269 4733
6270 638
6270 1534
6270 3838
6270 4734
6271 639
6271 1535
6271 3839
6271 4735
6272 640
6272 1536
6272 3840
6272 4736
6273 641
6273 1537
6273 3841
6273 4737
6274 642
6274 1538
6274 3842
6274 4738
6275 643
6275 1539
6275 3843
6275 4739
6276 644
6276 1540
6276 3844
6276 4740
6277 645
6277 1541
6277 3845
6277 4741
6278 646
6278 1542
6278 3846
6278 4742
6279 647
6279 1543
6279 3847
6279 4743
6280 648
6280 1544
6280 3848
6280 4744
6281 649
6281 1545
6281 3849
6281 4745
6282 650
6282 1546
6282 3850
6282 4746
6283 651
6283 1547
6283 3851
6283 4747
6284 652
6284 1548
6284 3852
6284 4748
6285 653
6285 1549
6285 3853
6285 4749
6286 654
6286 1550
6286 3854
6286 4750
6287 655
6287 1551
6287 3855
6287 4751
6288 656
6288 1552
6288 3856
6288 4752
6289 657
6289 1553
6289 3857
6289 4753
6290 658
6290 1554
6290 3858
6290 4754
6291 659
6291 1555
6291 3859
6291 4755
6292 660
6292 1556
6292 3860
6292 4756
6293 661
6293 1557
6293 3861
6293 4757
6294 662
6294 1558
6294 3862
6294 4758
6295 663
6295 1559
6295 3863
6295 4759
6296 664
6296 1560
6296 3864
6296 4760
6297 665
6297 1561
6297 3865
6297 4761
6298 666
6298 1562
6298 3866
6298 4762
6299 667
6299 1563
6299 3867
6299 4763
6300 668
6300 1564
6300 3868
6300 4764
6301 669
6301 1565
6301 3869
6301 4765
6302 670
6302 1566
6302 3870
6302 4766
6303 671
6303 1567
6303 3871
6303 4767
6304 672
6304 1568
6304 3872
6304 4768
6305 673
6305 1569
6305 3873
6305 4769
6306 674
6306 1570
6306 3874
6306 4770
6307 675
6307 1571
6307 3875
6307 4771
6308 676
6308 1572
6308 3876
6308 4772
6309 677
6309 1573
6309 3877
6309 4773
6310 678
6310 1574
6310 3878
6310 4774
6311 679
6311 1575
6311 3879
6311 4775
6312 680
6312 1576
6312 3880
6312 4776
6313 681
6313 1577
6313 3881
6313 4777
6314 682
6314 1578
6314 3882
6314 4778
6315 683
6315 1579
6315 3883
6315 4779
6316 684
6316 1580
6316 3884
6316 4780
6317 685
6317 1581
6317 3885
6317 4781
6318 686
6318 1582
6318 3886
6318 4782
6319 687
6319 1583
6319 3887
6319 4783
6320 688
6320 1584
6320 3888
6320 4784
6321 689
6321 1585
6321 3889
6321 4785
6322 690
6322 1586
6322 3890
6322 4786
6323 691
6323 1587
6323 3891
6323 4787
6324 692
6324 1588
6324 3892
6324 4788
6325 693
6325 1589
6325 3893
6325 4789
6326 694
6326 1590
6326 3894
6326 4790
6327 695
6327 1591
6327 3895
6327 4791
6328 696
6328 1592
6328 3896
6328 4792
6329 697
6329 1593
6329 3897
6329 4793
6330 698
6330 1594
6330 3898
6330 4794
6331 699
6331 1595
6331 3899
6331 4795
6332 700
6332 1596
6332 3900
6332 4796
6333 701
6333 1597
6333 3901
6333 4797
6334 702
6334 1598
6334 3902
6334 4798
6335 703
6335 1599
6335 3903
6335 4799
6336 704
6336 1600
6336 3904
6336 4800
6337 705
6337 1601
6337 3905
6337 4801
6338 706
6338 1602
6338 3906
6338 4802
6339 707
6339 1603
6339 3907
6339 4803
6340 708
6340 1604
6340 3908
6340 4804
6341 709
6341 1605
6341 3909
6341 4805
6342 710
6342 1606
6342 3910
6342 4806
6343 711
6343 1607
6343 3911
6343 4807
6344 712
6344 1608
6344 3912
6344 4808
6345 713
6345 1609
6345 3913
6345 4809
6346 714
6346 1610
6346 3914
6346 4810
6347 715
6347 1611
6347 3915
6347 4811
6348 716
6348 1612
6348 3916
6348 4812
6349 717
6349 1613
6349 3917
6349 4813
6350 718
6350 1614
6350 3918
6350 4814
6351 719
6351 1615
6351 3919
6351 4815
6352 720
6352 1616
6352 3920
6352 4816
6353 721
6353 1617
6353 3921
6353 4817
6354 722
6354 1618
6354 3922
6354 4818
6355 723
6355 1619
6355 3923
6355 4819
6356 724
6356 1620
6356 3924
6356 4820
6357 725
6357 1621
6357 3925
6357 4821
6358 726
6358 1622
6358 3926
6358 4822
6359 727
6359 1623
6359 3927
6359 4823
6360 728
6360 1624
6360 3928
6360 4824
6361 729
6361 1625
6361 3929
6361 4825
6362 730
6362 1626
6362 3930
6362 4826
6363 731
6363 1627
6363 3931
6363 4827
6364 732
6364 1628
6364 3932
6364 4828
6365 733
6365 1629
6365 3933
6365 4829
6366 734
6366 1630
6366 3934
6366 4830
6367 735
6367 1631
6367 3935
6367 4831
6368 736
6368 1632
6368 3936
6368 4832
6369 737
6369 1633
6369 3937
6369 4833
6370 738
6370 1634
6370 3938
6370 4834
6371 739
6371 1635
6371 3939
6371 4835
6372 740
6372 1636
6372 3940
6372 4836
6373 741
6373 1637
6373 3941
6373 4837
6374 742
6374 1638
6374 3942
6374 4838
6375 743
6375 1639
6375 3943
6375 4839
6376 744
6376 1640
6376 3944
6376 4840
6377 745
6377 1641
6377 3945
6377 4841
6378 746
6378 1642
6378 3946
6378 4842
6379 747
6379 1643
6379 3947
6379 4843
6380 748
6380 1644
6380 3948
6380 4844
6381 749
6381 1645
6381 3949
6381 4845
6382 750
6382 1646
6382 3950
6382 4846
6383 751
6383 1647
6383 3951
6383 4847
6384 752
6384 1648
6384 3952
6384 4848
6385 753
6385 1649
6385 3953
6385 4849
6386 754
6386 1650
6386 3954
6386 4850
6387 755
6387 1651
6387 3955
6387 4851
6388 756
6388 1652
6388 3956
6388 4852
6389 757
6389 1653
6389 3957
6389 4853
6390 758
6390 1654
6390 3958
6390 4854
6391 759
6391 1655
6391 3959
6391 4855
6392 760
6392 1656
6392 3960
6392 4856
6393 761
6393 1657
6393 3961
6393 4857
6394 762
6394 1658
6394 3962
6394 4858
6395 763
6395 1659
6395 3963
6395 4859
6396 764
6396 1660
6396 3964
6396 4860
6397 765
6397 1661
6397 3965
6397 4861
6398 766
6398 1662
6398 3966
6398 4862
6399 767
6399 1663
6399 3967
6399 4863
6400 768
6400 1664
6400 3968
6400 4864
6401 769
6401 1665
6401 3969
6401 4865
6402 770
6402 1666
6402 3970
6402 4866
6403 771
6403 1667
6403 3971
6403 4867
6404 772
6404 1668
6404 3972
6404 4868
6405 773
6405 1669
6405 3973
6405 4869
6406 774
6406 1670
6406 3974
6406 4870
6407 775
6407 1671
6407 3975
6407 4871
6408 776
6408 1672
6408 3976
6408 4872
6409 777
6409 1673
6409 3977
6409 4873
6410 778
6410 1674
6410 3978
6410 4874
6411 779
6411 1675
6411 3979
6411 4875
6412 780
6412 1676
6412 3980
6412 4876
6413 781
6413 1677
6413 3981
6413 4877
6414 782
6414 1678
6414 3982
6414 4878
6415 783
6415 1679
6415 3983
6415 4879
6416 784
6416 1680
6416 3984
6416 4880
6417 785
6417 1681
6417 3985
6417 4881
6418 786
6418 1682
6418 3986
6418 4882
6419 787
6419 1683
6419 3987
6419 4883
6420 788
6420 1684
6420 3988
6420 4884
6421 789
6421 1685
6421 3989
6421 4885
6422 790
6422 1686
6422 3990
6422 4886
6423 791
6423 1687
6423 3991
6423 4887
6424 792
6424 1688
6424 3992
6424 4888
6425 793
6425 1689
6425 3993
6425 4889
6426 794
6426 1690
6426 3994
6426 4890
6427 795
6427 1691
6427 3995
6427 4891
6428 796
6428 1692
6428 3996
6428 4892
6429 797
6429 1693
6429 3997
6429 4893
6430 798
6430 1694
6430 3998
6430 4894
6431 799
6431 1695
6431 3999
6431 4895
6432 800
6432 1696
6432 4000
6432 4896
6433 801
6433 1697
6433 4001
6433 4897
6434 802
6434 1698
6434 4002
6434 4898
6435 803
6435 1699
6435 4003
6435 4899
6436 804
6436 1700
6436 4004
6436 4900
6437 805
6437 1701
6437 4005
6437 4901
6438 806
6438 1702
6438 4006
6438 4902
6439 807
6439 1703
6439 4007
6439 4903
6440 808
6440 1704
6440 4008
6440 4904
6441 809
6441 1705
6441 4009
6441 4905
6442 810
6442 1706
6442 4010
6442 4906
6443 811
6443 1707
6443 4011
6443 4907
6444 812
6444 1708
6444 4012
6444 4908
6445 813
6445 1709
6445 4013
6445 4909
6446 814
6446 1710
6446 4014
6446 4910
6447 815
6447 1711
6447 4015
6447 4911
6448 816
6448 1712
6448 4016
6448 4912
6449 817
6449 1713
6449 4017
6449 4913
6450 818
6450 1714
6450 4018
6450 4914
6451 819
6451 1715
6451 4019
6451 4915
6452 820
6452 1716
6452 4020
6452 4916
6453 821
6453 1717
6453 4021
6453 4917
6454 822
6454 1718
6454 4022
6454 4918
6455 823
6455 1719
6455 4023
6455 4919
6456 824
6456 1720
6456 4024
6456 4920
6457 825
6457 1721
6457 4025
6457 4921
6458 826
6458 1722
6458 4026
6458 4922
6459 827
6459 1723
6459 4027
6459 4923
6460 828
6460 1724
6460 4028
6460 4924
6461 829
6461 1725
6461 4029
6461 4925
6462 830
6462 1726
6462 4030
6462 4926
6463 831
6463 1727
6463 4031
6463 4927
6464 832
6464 1728
6464 4032
6464 4928
6465 833
6465 1729
6465 4033
6465 4929
6466 834
6466 1730
6466 4034
6466 4930
6467 835
6467 1731
6467 4035
6467 4931
6468 836
6468 1732
6468 4036
6468 4932
6469 837
6469 1733
6469 4037
6469 4933
6470 838
6470 1734
6470 4038
6470 4934
6471 839
6471 1735
6471 4039
6471 4935
6472 840
6472 1736
6472 4040
6472 4936
6473 841
6473 1737
6473 4041
6473 4937
6474 842
6474 1738
6474 4042
6474 4938
6475 843
6475 1739
6475 4043
6475 4939
6476 844
6476 1740
6476 4044
6476 4940
6477 845
6477 1741
6477 4045
6477 4941
6478 846
6478 1742
6478 4046
6478 4942
6479 847
6479 1743
6479 4047
6479 4943
6480 848
6480 1744
6480 4048
6480 4944
6481 849
6481 1745
6481 4049
6481 4945
6482 850
6482 1746
6482 4050
6482 4946
6483 851
6483 1747
6483 4051
6483 4947
6484 852
6484 1748
6484 4052
6484 4948
6485 853
6485 1749
6485 4053
6485 4949
6486 854
6486 1750
6486 4054
6486 4950
6487 855
6487 1751
6487 4055
6487 4951
6488 856
6488 1752
6488 4056
6488 4952
6489 857
6489 1753
6489 4057
6489 4953
6490 858
6490 1754
6490 4058
6490 4954
6491 859
6491 1755
6491 4059
6491 4955
6492 860
6492 1756
6492 4060
6492 4956
6493 861
6493 1757
6493 4061
6493 4957
6494 862
6494 1758
6494 4062
6494 4958
6495 863
6495 1759
6495 4063
6495 4959
6496 864
6496 1760
6496 4064
6496 4960
6497 865
6497 1761
6497 4065
6497 4961
6498 866
6498 1762
6498 4066
6498 4962
6499 867
6499 1763
6499 4067
6499 4963
6500 868
6500 1764
6500 4068
6500 4964
6501 869
6501 1765
6501 4069
6501 4965
6502 870
6502 1766
6502 4070
6502 4966
6503 871
6503 1767
6503 4071
6503 4967
6504 872
6504 1768
6504 4072
6504 4968
6505 873
6505 1769
6505 4073
6505 4969
6506 874
6506 1770
6506 4074
6506 4970
6507 875
6507 1771
6507 4075
6507 4971
6508 876
6508 1772
6508 4076
6508 4972
6509 877
6509 1773
6509 4077
6509 4973
6510 878
6510 1774
6510 4078
6510 4974
6511 879
6511 1775
6511 4079
6511 4975
6512 880
6512 1776
6512 4080
6512 4976
6513 881
6513 1777
6513 4081
6513 4977
6514 882
6514 1778
6514 4082
6514 4978
6515 883
6515 1779
6515 4083
6515 4979
6516 884
6516 1780
6516 4084
6516 4980
6517 885
6517 1781
6517 4085
6517 4981
6518 886
6518 1782
6518 4086
6518 4982
6519 887
6519 1783
6519 4087
6519 4983
6520 888
6520 1784
6520 4088
6520 4984
6521 889
6521 1785
6521 4089
6521 4985
6522 890
6522 1786
6522 4090
6522 4986
6523 891
6523 1787
6523 4091
6523 4987
6524 892
6524 1788
6524 4092
6524 4988
6525 893
6525 1789
6525 4093
6525 4989
6526 894
6526 1790
6526 4094
6526 4990
6527 895
6527 1791
6527 4095
6527 4991
6528 896
6528 1792
6528 4096
6528 4992
6529 897
6529 1793
6529 4097
6529 4993
6530 898
6530 1794
6530 4098
6530 4994
6531 899
6531 1795
6531 4099
6531 4995
6532 900
6532 1796
6532 4100
6532 4996
6533 901
6533 1797
6533 4101
6533 4997
6534 902
6534 1798
6534 4102
6534 4998
6535 903
6535 1799
6535 4103
6535 4999
6536 904
6536 1800
6536 4104
6536 5000
6537 905
6537 1801
6537 4105
6537 5001
6538 906
6538 1802
6538 4106
6538 5002
6539 907
6539 1803
6539 4107
6539 5003
6540 908
6540 1804
6540 4108
6540 5004
6541 909
6541 1805
6541 4109
6541 5005
6542 910
6542 1806
6542 4110
6542 5006
6543 911
6543 1807
6543 4111
6543 5007
6544 912
6544 1808
6544 4112
6544 5008
6545 913
6545 1809
6545 4113
6545 5009
6546 914
6546 1810
6546 4114
6546 5010
6547 915
6547 1811
6547 4115
6547 5011
6548 916
6548 1812
6548 4116
6548 5012
6549 917
6549 1813
6549 4117
6549 5013
6550 918
6550 1814
6550 4118
6550 5014
6551 919
6551 1815
6551 4119
6551 5015
6552 920
6552 1816
6552 4120
6552 5016
6553 921
6553 1817
6553 4121
6553 5017
6554 922
6554 1818
6554 4122
6554 5018
6555 923
6555 1819
6555 4123
6555 5019
6556 924
6556 1820
6556 4124
6556 5020
6557 925
6557 1821
6557 4125
6557 5021
6558 926
6558 1822
6558 4126
6558 5022
6559 927
6559 1823
6559 4127
6559 5023
6560 928
6560 1824
6560 4128
6560 5024
6561 929
6561 1825
6561 4129
6561 5025
6562 930
6562 1826
6562 4130
6562 5026
6563 931
6563 1827
6563 4131
6563 5027
6564 932
6564 1828
6564 4132
6564 5028
6565 933
6565 1829
6565 4133
6565 5029
6566 934
6566 1830
6566 4134
6566 5030
6567 935
6567 1831
6567 4135
6567 5031
6568 936
6568 1832
6568 4136
6568 5032
6569 937
6569 1833
6569 4137
6569 5033
6570 938
6570 1834
6570 4138
6570 5034
6571 939
6571 1835
6571 4139
6571 5035
6572 940
6572 1836
6572 4140
6572 5036
6573 941
6573 1837
6573 4141
6573 5037
6574 942
6574 1838
6574 4142
6574 5038
6575 943
6575 1839
6575 4143
6575 5039
6576 944
6576 1840
6576 4144
6576 5040
6577 945
6577 1841
6577 4145
6577 5041
6578 946
6578 1842
6578 4146
6578 5042
6579 947
6579 1843
6579 4147
6579 5043
6580 948
6580 1844
6580 4148
6580 5044
6581 949
6581 1845
6581 4149
6581 5045
6582 950
6582 1846
6582 4150
6582 5046
6583 951
6583 1847
6583 4151
6583 5047
6584 952
6584 1848
6584 4152
6584 5048
6585 953
6585 1849
6585 4153
6585 5049
6586 954
6586 1850
6586 4154
6586 5050
6587 955
6587 1851
6587 4155
6587 5051
6588 956
6588 1852
6588 4156
6588 5052
6589 957
6589 1853
6589 4157
6589 5053
6590 958
6590 1854
6590 4158
6590 5054
6591 959
6591 1855
6591 4159
6591 5055
6592 960
6592 1856
6592 4160
6592 5056
6593 961
6593 1857
6593 4161
6593 5057
6594 962
6594 1858
6594 4162
6594 5058
6595 963
6595 1859
6595 4163
6595 5059
6596 964
6596 1860
6596 4164
6596 5060
6597 965
6597 1861
6597 4165
6597 5061
6598 966
6598 1862
6598 4166
6598 5062
6599 967
6599 1863
6599 4167
6599 5063
6600 968
6600 1864
6600 4168
6600 5064
6601 969
6601 1865
6601 4169
6601 5065
6602 970
6602 1866
6602 4170
6602 5066
6603 971
6603 1867
6603 4171
6603 5067
6604 972
6604 1868
6604 4172
6604 5068
6605 973
6605 1869
6605 4173
6605 5069
6606 974
6606 1870
6606 4174
6606 5070
6607 975
6607 1871
6607 4175
6607 5071
6608 976
6608 1872
6608 4176
6608 5072
6609 977
6609 1873
6609 4177
6609 5073
6610 978
6610 1874
6610 4178
6610 5074
6611 979
6611 1875
6611 4179
6611 5075
6612 980
6612 1876
6612 4180
6612 5076
6613 981
6613 1877
6613 4181
6613 5077
6614 982
6614 1878
6614 4182
6614 5078
6615 983
6615 1879
6615 4183
6615 5079
6616 984
6616 1880
6616 4184
6616 5080
6617 985
6617 1881
6617 4185
6617 5081
6618 986
6618 1882
6618 4186
6618 5082
6619 987
6619 1883
6619 4187
6619 5083
6620 988
6620 1884
6620 4188
6620 5084
6621 989
6621 1885
6621 4189
6621 5085
6622 990
6622 1886
6622 4190
6622 5086
6623 991
6623 1887
6623 4191
6623 5087
6624 992
6624 1888
6624 4192
6624 5088
6625 993
6625 1889
6625 4193
6625 5089
6626 994
6626 1890
6626 4194
6626 5090
6627 995
6627 1891
6627 4195
6627 5091
6628 996
6628 1892
6628 4196
6628 5092
6629 997
6629 1893
6629 4197
6629 5093
6630 998
6630 1894
6630 4198
6630 5094
6631 999
6631 1895
6631 4199
6631 5095
6632 1000
6632 1896
6632 4200
6632 5096
6633 1001
6633 1897
6633 4201
6633 5097
6634 1002
6634 1898
6634 4202
6634 5098
6635 1003
6635 1899
6635 4203
6635 5099
6636 1004
6636 1900
6636 4204
6636 5100
6637 1005
6637 1901
6637 4205
6637 5101
6638 1006
6638 1902
6638 4206
6638 5102
6639 1007
6639 1903
6639 4207
6639 5103
6640 1008
6640 1904
6640 4208
6640 5104
6641 1009
6641 1905
6641 4209
6641 5105
6642 1010
6642 1906
6642 4210
6642 5106
6643 1011
6643 1907
6643 4211
6643 5107
6644 1012
6644 1908
6644 4212
6644 5108
6645 1013
6645 1909
6645 4213
6645 5109
6646 1014
6646 1910
6646 4214
6646 5110
6647 1015
6647 1911
6647 4215
6647 5111
6648 1016
6648 1912
6648 4216
6648 5112
6649 1017
6649 1913
6649 4217
6649 5113
6650 1018
6650 1914
6650 4218
6650 5114
6651 1019
6651 1915
6651 4219
6651 5115
6652 1020
6652 1916
6652 4220
6652 5116
6653 1021
6653 1917
6653 4221
6653 5117
6654 1022
6654 1918
6654 4222
6654 5118
6655 1023
6655 1919
6655 4223
6655 5119
6656 1024
6656 1920
6656 2816
6656 5120
6657 1025
6657 1921
6657 2817
6657 5121
6658 1026
6658 1922
6658 2818
6658 5122
6659 1027
6659 1923
6659 2819
6659 5123
6660 1028
6660 1924
6660 2820
6660 5124
6661 1029
6661 1925
6661 2821
6661 5125
6662 1030
6662 1926
6662 2822
6662 5126
6663 1031
6663 1927
6663 2823
6663 5127
6664 1032
6664 1928
6664 2824
6664 5128
6665 1033
6665 1929
6665 2825
6665 5129
6666 1034
6666 1930
6666 2826
6666 5130
6667 1035
6667 1931
6667 2827
6667 5131
6668 1036
6668 1932
6668 2828
6668 5132
6669 1037
6669 1933
6669 2829
6669 5133
6670 1038
6670 1934
6670 2830
6670 5134
6671 1039
6671 1935
6671 2831
6671 5135
6672 1040
6672 1936
6672 2832
6672 5136
6673 1041
6673 1937
6673 2833
6673 5137
6674 1042
6674 1938
6674 2834
6674 5138
6675 1043
6675 1939
6675 2835
6675 5139
6676 1044
6676 1940
6676 2836
6676 5140
6677 1045
6677 1941
6677 2837
6677 5141
6678 1046
6678 1942
6678 2838
6678 5142
6679 1047
6679 1943
6679 2839
6679 5143
6680 1048
6680 1944
6680 2840
6680 5144
6681 1049
6681 1945
6681 2841
6681 5145
6682 1050
6682 1946
6682 2842
6682 5146
6683 1051
6683 1947
6683 2843
6683 5147
6684 1052
6684 1948
6684 2844
6684 5148
6685 1053
6685 1949
6685 2845
6685 5149
6686 1054
6686 1950
6686 2846
6686 5150
6687 1055
6687 1951
6687 2847
6687 5151
6688 1056
6688 1952
6688 2848
6688 5152
6689 1057
6689 1953
6689 2849
6689 5153
6690 1058
6690 1954
6690 2850
6690 5154
6691 1059
6691 1955
6691 2851
6691 5155
6692 1060
6692 1956
6692 2852
6692 5156
6693 1061
6693 1957
6693 2853
6693 5157
6694 1062
6694 1958
6694 2854
6694 5158
6695 1063
6695 1959
6695 2855
6695 5159
6696 1064
6696 1960
6696 2856
6696 5160
6697 1065
6697 1961
6697 2857
6697 5161
6698 1066
6698 1962
6698 2858
6698 5162
6699 1067
6699 1963
6699 2859
6699 5163
6700 1068
6700 1964
6700 2860
6700 5164
6701 1069
6701 1965
6701 2861
6701 5165
6702 1070
6702 1966
6702 2862
6702 5166
6703 1071
6703 1967
6703 2863
6703 5167
6704 1072
6704 1968
6704 2864
6704 5168
6705 1073
6705 1969
6705 2865
6705 5169
6706 1074
6706 1970
6706 2866
6706 5170
6707 1075
6707 1971
6707 2867
6707 5171
6708 1076
6708 1972
6708 2868
6708 5172
6709 1077
6709 1973
6709 2869
6709 5173
6710 1078
6710 1974
6710 2870
6710 5174
6711 1079
6711 1975
6711 2871
6711 5175
6712 1080
6712 1976
6712 2872
6712 5176
6713 1081
6713 1977
6713 2873
6713 5177
6714 1082
6714 1978
6714 2874
6714 5178
6715 1083
6715 1979
6715 2875
6715 5179
6716 1084
6716 1980
6716 2876
6716 5180
6717 1085
6717 1981
6717 2877
6717 5181
6718 1086
6718 1982
6718 2878
6718 5182
6719 1087
6719 1983
6719 2879
6719 5183
6720 1088
6720 1984
6720 2880
6720 5184
6721 1089
6721 1985
6721 2881
6721 5185
6722 1090
6722 1986
6722 2882
6722 5186
6723 1091
6723 1987
6723 2883
6723 5187
6724 1092
6724 1988
6724 2884
6724 5188
6725 1093
6725 1989
6725 2885
6725 5189
6726 1094
6726 1990
6726 2886
6726 5190
6727 1095
6727 1991
6727 2887
6727 5191
6728 1096
6728 1992
6728 2888
6728 5192
6729 1097
6729 1993
6729 2889
6729 5193
6730 1098
6730 1994
6730 2890
6730 5194
6731 1099
6731 1995
6731 2891
6731 5195
6732 1100
6732 1996
6732 2892
6732 5196
6733 1101
6733 1997
6733 2893
6733 5197
6734 1102
6734 1998
6734 2894
6734 5198
6735 1103
6735 1999
6735 2895
6735 5199
6736 1104
6736 2000
6736 2896
6736 5200
6737 1105
6737 2001
6737 2897
6737 5201
6738 1106
6738 2002
6738 2898
6738 5202
6739 1107
6739 2003
6739 2899
6739 5203
6740 1108
6740 2004
6740 2900
6740 5204
6741 1109
6741 2005
6741 2901
6741 5205
6742 1110
6742 2006
6742 2902
6742 5206
6743 1111
6743 2007
6743 2903
6743 5207
6744 1112
6744 2008
6744 2904
6744 5208
6745 1113
6745 2009
6745 2905
6745 5209
6746 1114
6746 2010
6746 2906
6746 5210
6747 1115
6747 2011
6747 2907
6747 5211
6748 1116
6748 2012
6748 2908
6748 5212
6749 1117
6749 2013
6749 2909
6749 5213
6750 1118
6750 2014
6750 2910
6750 5214
6751 1119
6751 2015
6751 2911
6751 5215
6752 1120
6752 2016
6752 2912
6752 5216
6753 1121
6753 2017
6753 2913
6753 5217
6754 1122
6754 2018
6754 2914
6754 5218
6755 1123
6755 2019
6755 2915
6755 5219
6756 1124
6756 2020
6756 2916
6756 5220
6757 1125
6757 2021
6757 2917
6757 5221
6758 1126
6758 2022
6758 2918
6758 5222
6759 1127
6759 2023
6759 2919
6759 5223
6760 1128
6760 2024
6760 2920
6760 5224
6761 1129
6761 2025
6761 2921
6761 5225
6762 1130
6762 2026
6762 2922
6762 5226
6763 1131
6763 2027
6763 2923
6763 5227
6764 1132
6764 2028
6764 2924
6764 5228
6765 1133
6765 2029
6765 2925
6765 5229
6766 1134
6766 2030
6766 2926
6766 5230
6767 1135
6767 2031
6767 2927
6767 5231
6768 1136
6768 2032
6768 2928
6768 5232
6769 1137
6769 2033
6769 2929
6769 5233
6770 1138
6770 2034
6770 2930
6770 5234
6771 1139
6771 2035
6771 2931
6771 5235
6772 1140
6772 2036
6772 2932
6772 5236
6773 1141
6773 2037
6773 2933
6773 5237
6774 1142
6774 2038
6774 2934
6774 5238
6775 1143
6775 2039
6775 2935
6775 5239
6776 1144
6776 2040
6776 2936
6776 5240
6777 1145
6777 2041
6777 2937
6777 5241
6778 1146
6778 2042
6778 2938
6778 5242
6779 1147
6779 2043
6779 2939
6779 5243
6780 1148
6780 2044
6780 2940
6780 5244
6781 1149
6781 2045
6781 2941
6781 5245
6782 1150
6782 2046
6782 2942
6782 5246
6783 1151
6783 2047
6783 2943
6783 5247
6784 1152
6784 2048
6784 2944
6784 5248
6785 1153
6785 2049
6785 2945
6785 5249
6786 1154
6786 2050
6786 2946
6786 5250
6787 1155
6787 2051
6787 2947
6787 5251
6788 1156
6788 2052
6788 2948
6788 5252
6789 1157
6789 2053
6789 2949
6789 5253
6790 1158
6790 2054
6790 2950
6790 5254
6791 1159
6791 2055
6791 2951
6791 5255
6792 1160
6792 2056
6792 2952
6792 5256
6793 1161
6793 2057
6793 2953
6793 5257
6794 1162
6794 2058
6794 2954
6794 5258
6795 1163
6795 2059
6795 2955
6795 5259
6796 1164
6796 2060
6796 2956
6796 5260
6797 1165
6797 2061
6797 2957
6797 5261
6798 1166
6798 2062
6798 2958
6798 5262
6799 1167
6799 2063
6799 2959
6799 5263
6800 1168
6800 2064
6800 2960
6800 5264
6801 1169
6801 2065
6801 2961
6801 5265
6802 1170
6802 2066
6802 2962
6802 5266
6803 1171
6803 2067
6803 2963
6803 5267
6804 1172
6804 2068
6804 2964
6804 5268
6805 1173
6805 2069
6805 2965
6805 5269
6806 1174
6806 2070
6806 2966
6806 5270
6807 1175
6807 2071
6807 2967
6807 5271
6808 1176
6808 2072
6808 2968
6808 5272
6809 1177
6809 2073
6809 2969
6809 5273
6810 1178
6810 2074
6810 2970
6810 5274
6811 1179
6811 2075
6811 2971
6811 5275
6812 1180
6812 2076
6812 2972
6812 5276
6813 1181
6813 2077
6813 2973
6813 5277
6814 1182
6814 2078
6814 2974
6814 5278
6815 1183
6815 2079
6815 2975
6815 5279
6816 1184
6816 2080
6816 2976
6816 5280
6817 1185
6817 2081
6817 2977
6817 5281
6818 1186
6818 2082
6818 2978
6818 5282
6819 1187
6819 2083
6819 2979
6819 5283
6820 1188
6820 2084
6820 2980
6820 5284
6821 1189
6821 2085
6821 2981
6821 5285
6822 1190
6822 2086
6822 2982
6822 5286
6823 1191
6823 2087
6823 2983
6823 5287
6824 1192
6824 2088
6824 2984
6824 5288
6825 1193
6825 2089
6825 2985
6825 5289
6826 1194
6826 2090
6826 2986
6826 5290
6827 1195
6827 2091
6827 2987
6827 5291
6828 1196
6828 2092
6828 2988
6828 5292
6829 1197
6829 2093
6829 2989
6829 5293
6830 1198
6830 2094
6830 2990
6830 5294
6831 1199
6831 2095
6831 2991
6831 5295
6832 1200
6832 2096
6832 2992
6832 5296
6833 1201
6833 2097
6833 2993
6833 5297
6834 1202
6834 2098
6834 2994
6834 5298
6835 1203
6835 2099
6835 2995
6835 5299
6836 1204
6836 2100
6836 2996
6836 5300
6837 1205
6837 2101
6837 2997
6837 5301
6838 1206
6838 2102
6838 2998
6838 5302
6839 1207
6839 2103
6839 2999
6839 5303
6840 1208
6840 2104
6840 3000
6840 5304
6841 1209
6841 2105
6841 3001
6841 5305
6842 1210
6842 2106
6842 3002
6842 5306
6843 1211
6843 2107
6843 3003
6843 5307
6844 1212
6844 2108
6844 3004
6844 5308
6845 1213
6845 2109
6845 3005
6845 5309
6846 1214
6846 2110
6846 3006
6846 5310
6847 1215
6847 2111
6847 3007
6847 5311
6848 1216
6848 2112
6848 3008
6848 5312
6849 1217
6849 2113
6849 3009
6849 5313
6850 1218
6850 2114
6850 3010
6850 5314
6851 1219
6851 2115
6851 3011
6851 5315
6852 1220
6852 2116
6852 3012
6852 5316
6853 1221
6853 2117
6853 3013
6853 5317
6854 1222
6854 2118
6854 3014
6854 5318
6855 1223
6855 2119
6855 3015
6855 5319
6856 1224
6856 2120
6856 3016
6856 5320
6857 1225
6857 2121
6857 3017
6857 5321
6858 1226
6858 2122
6858 3018
6858 5322
6859 1227
6859 2123
6859 3019
6859 5323
6860 1228
6860 2124
6860 3020
6860 5324
6861 1229
6861 2125
6861 3021
6861 5325
6862 1230
6862 2126
6862 3022
6862 5326
6863 1231
6863 2127
6863 3023
6863 5327
6864 1232
6864 2128
6864 3024
6864 5328
6865 1233
6865 2129
6865 3025
6865 5329
6866 1234
6866 2130
6866 3026
6866 5330
6867 1235
6867 2131
6867 3027
6867 5331
6868 1236
6868 2132
6868 3028
6868 5332
6869 1237
6869 2133
6869 3029
6869 5333
6870 1238
6870 2134
6870 3030
6870 5334
6871 1239
6871 2135
6871 3031
6871 5335
6872 1240
6872 2136
6872 3032
6872 5336
6873 1241
6873 2137
6873 3033
6873 5337
6874 1242
6874 2138
6874 3034
6874 5338
6875 1243
6875 2139
6875 3035
6875 5339
6876 1244
6876 2140
6876 3036
6876 5340
6877 1245
6877 2141
6877 3037
6877 5341
6878 1246
6878 2142
6878 3038
6878 5342
6879 1247
6879 2143
6879 3039
6879 5343
6880 1248
6880 2144
6880 3040
6880 5344
6881 1249
6881 2145
6881 3041
6881 5345
6882 1250
6882 2146
6882 3042
6882 5346
6883 1251
6883 2147
6883 3043
6883 5347
6884 1252
6884 2148
6884 3044
6884 5348
6885 1253
6885 2149
6885 3045
6885 5349
6886 1254
6886 2150
6886 3046
6886 5350
6887 1255
6887 2151
6887 3047
6887 5351
6888 1256
6888 2152
6888 3048
6888 5352
6889 1257
6889 2153
6889 3049
6889 5353
6890 1258
6890 2154
6890 3050
6890 5354
6891 1259
6891 2155
6891 3051
6891 5355
6892 1260
6892 2156
6892 3052
6892 5356
6893 1261
6893 2157
6893 3053
6893 5357
6894 1262
6894 2158
6894 3054
6894 5358
6895 1263
6895 2159
6895 3055
6895 5359
6896 1264
6896 2160
6896 3056
6896 5360
6897 1265
6897 2161
6897 3057
6897 5361
6898 1266
6898 2162
6898 3058
6898 5362
6899 1267
6899 2163
6899 3059
6899 5363
6900 1268
6900 2164
6900 3060
6900 5364
6901 1269
6901 2165
6901 3061
6901 5365
6902 1270
6902 2166
6902 3062
6902 5366
6903 1271
6903 2167
6903 3063
6903 5367
6904 1272
6904 2168
6904 3064
6904 5368
6905 1273
6905 2169
6905 3065
6905 5369
6906 1274
6906 2170
6906 3066
6906 5370
6907 1275
6907 2171
6907 3067
6907 5371
6908 1276
6908 2172
6908 3068
6908 5372
6909 1277
6909 2173
6909 3069
6909 5373
6910 1278
6910 2174
6910 3070
6910 5374
6911 1279
6911 2175
6911 3071
6911 5375
6912 1280
6912 2176
6912 3072
6912 5376
6913 1281
6913 2177
6913 3073
6913 5377
6914 1282
6914 2178
6914 3074
6914 5378
6915 1283
6915 2179
6915 3075
6915 5379
6916 1284
6916 2180
6916 3076
6916 5380
6917 1285
6917 2181
6917 3077
6917 5381
6918 1286
6918 2182
6918 3078
6918 5382
6919 1287
6919 2183
6919 3079
6919 5383
6920 1288
6920 2184
6920 3080
6920 5384
6921 1289
6921 2185
6921 3081
6921 5385
6922 1290
6922 2186
6922 3082
6922 5386
6923 1291
6923 2187
6923 3083
6923 5387
6924 1292
6924 2188
6924 3084
6924 5388
6925 1293
6925 2189
6925 3085
6925 5389
6926 1294
6926 2190
6926 3086
6926 5390
6927 1295
6927 2191
6927 3087
6927 5391
6928 1296
6928 2192
6928 3088
6928 5392
6929 1297
6929 2193
6929 3089
6929 5393
6930 1298
6930 2194
6930 3090
6930 5394
6931 1299
6931 2195
6931 3091
6931 5395
6932 1300
6932 2196
6932 3092
6932 5396
6933 1301
6933 2197
6933 3093
6933 5397
6934 1302
6934 2198
6934 3094
6934 5398
6935 1303
6935 2199
6935 3095
6935 5399
6936 1304
6936 2200
6936 3096
6936 5400
6937 1305
6937 2201
6937 3097
6937 5401
6938 1306
6938 2202
6938 3098
6938 5402
6939 1307
6939 2203
6939 3099
6939 5403
6940 1308
6940 2204
6940 3100
6940 5404
6941 1309
6941 2205
6941 3101
6941 5405
6942 1310
6942 2206
6942 3102
6942 5406
6943 1311
6943 2207
6943 3103
6943 5407
6944 1312
6944 2208
6944 3104
6944 5408
6945 1313
6945 2209
6945 3105
6945 5409
6946 1314
6946 2210
6946 3106
6946 5410
6947 1315
6947 2211
6947 3107
6947 5411
6948 1316
6948 2212
6948 3108
6948 5412
6949 1317
6949 2213
6949 3109
6949 5413
6950 1318
6950 2214
6950 3110
6950 5414
6951 1319
6951 2215
6951 3111
6951 5415
6952 1320
6952 2216
6952 3112
6952 5416
6953 1321
6953 2217
6953 3113
6953 5417
6954 1322
6954 2218
6954 3114
6954 5418
6955 1323
6955 2219
6955 3115
6955 5419
6956 1324
6956 2220
6956 3116
6956 5420
6957 1325
6957 2221
6957 3117
6957 5421
6958 1326
6958 2222
6958 3118
6958 5422
6959 1327
6959 2223
6959 3119
6959 5423
6960 1328
6960 2224
6960 3120
6960 5424
6961 1329
6961 2225
6961 3121
6961 5425
6962 1330
6962 2226
6962 3122
6962 5426
6963 1331
6963 2227
6963 3123
6963 5427
6964 1332
6964 2228
6964 3124
6964 5428
6965 1333
6965 2229
6965 3125
6965 5429
6966 1334
6966 2230
6966 3126
6966 5430
6967 1335
6967 2231
6967 3127
6967 5431
6968 1336
6968 2232
6968 3128
6968 5432
6969 1337
6969 2233
6969 3129
6969 5433
6970 1338
6970 2234
6970 3130
6970 5434
6971 1339
6971 2235
6971 3131
6971 5435
6972 1340
6972 2236
6972 3132
6972 5436
6973 1341
6973 2237
6973 3133
6973 5437
6974 1342
6974 2238
6974 3134
6974 5438
6975 1343
6975 2239
6975 3135
6975 5439
6976 1344
6976 2240
6976 3136
6976 5440
6977 1345
6977 2241
6977 3137
6977 5441
6978 1346
6978 2242
6978 3138
6978 5442
6979 1347
6979 2243
6979 3139
6979 5443
6980 1348
6980 2244
6980 3140
6980 5444
6981 1349
6981 2245
6981 3141
6981 5445
6982 1350
6982 2246
6982 3142
6982 5446
6983 1351
6983 2247
6983 3143
6983 5447
6984 1352
6984 2248
6984 3144
6984 5448
6985 1353
6985 2249
6985 3145
6985 5449
6986 1354
6986 2250
6986 3146
6986 5450
6987 1355
6987 2251
6987 3147
6987 5451
6988 1356
6988 2252
6988 3148
6988 5452
6989 1357
6989 2253
6989 3149
6989 5453
6990 1358
6990 2254
6990 3150
6990 5454
6991 1359
6991 2255
6991 3151
6991 5455
6992 1360
6992 2256
6992 3152
6992 5456
6993 1361
6993 2257
6993 3153
6993 5457
6994 1362
6994 2258
6994 3154
6994 5458
6995 1363
6995 2259
6995 3155
6995 5459
6996 1364
6996 2260
6996 3156
6996 5460
6997 1365
6997 2261
6997 3157
6997 5461
6998 1366
6998 2262
6998 3158
6998 5462
6999 1367
6999 2263
6999 3159
6999 5463
7000 1368
7000 2264
7000 3160
7000 5464
7001 1369
7001 2265
7001 3161
7001 5465
7002 1370
7002 2266
7002 3162
7002 5466
7003 1371
7003 2267
7003 3163
7003 5467
7004 1372
7004 2268
7004 3164
7004 5468
7005 1373
7005 2269
7005 3165
7005 5469
7006 1374
7006 2270
7006 3166
7006 5470
7007 1375
7007 2271
7007 3167
7007 5471
7008 1376
7008 2272
7008 3168
7008 5472
7009 1377
7009 2273
7009 3169
7009 5473
7010 1378
7010 2274
7010 3170
7010 5474
7011 1379
7011 2275
7011 3171
7011 5475
7012 1380
7012 2276
7012 3172
7012 5476
7013 1381
7013 2277
7013 3173
7013 5477
7014 1382
7014 2278
7014 3174
7014 5478
7015 1383
7015 2279
7015 3175
7015 5479
7016 1384
7016 2280
7016 3176
7016 5480
7017 1385
7017 2281
7017 3177
7017 5481
7018 1386
7018 2282
7018 3178
7018 5482
7019 1387
7019 2283
7019 3179
7019 5483
7020 1388
7020 2284
7020 3180
7020 5484
7021 1389
7021 2285
7021 3181
7021 5485
7022 1390
7022 2286
7022 3182
7022 5486
7023 1391
7023 2287
7023 3183
7023 5487
7024 1392
7024 2288
7024 3184
7024 5488
7025 1393
7025 2289
7025 3185
7025 5489
7026 1394
7026 2290
7026 3186
7026 5490
7027 1395
7027 2291
7027 3187
7027 5491
7028 1396
7028 2292
7028 3188
7028 5492
7029 1397
7029 2293
7029 3189
7029 5493
7030 1398
7030 2294
7030 3190
7030 5494
7031 1399
7031 2295
7031 3191
7031 5495
7032 1400
7032 2296
7032 3192
7032 5496
7033 1401
7033 2297
7033 3193
7033 5497
7034 1402
7034 2298
7034 3194
7034 5498
7035 1403
7035 2299
7035 3195
7035 5499
7036 1404
7036 2300
7036 3196
7036 5500
7037 1405
7037 2301
7037 3197
7037 5501
7038 1406
7038 2302
7038 3198
7038 5502
7039 1407
7039 2303
7039 3199
7039 5503
7040 0
7040 2176
7040 2944
7040 5120
7041 1
7041 2177
7041 2945
7041 5121
7042 2
7042 2178
7042 2946
7042 5122
7043 3
7043 2179
7043 2947
7043 5123
7044 4
7044 2180
7044 2948
7044 5124
7045 5
7045 2181
7045 2949
7045 5125
7046 6
7046 2182
7046 2950
7046 5126
7047 7
7047 2183
7047 2951
7047 5127
7048 8
7048 2184
7048 2952
7048 5128
7049 9
7049 2185
7049 2953
7049 5129
7050 10
7050 2186
7050 2954
7050 5130
7051 11
7051 2187
7051 2955
7051 5131
7052 12
7052 2188
7052 2956
7052 5132
7053 13
7053 2189
7053 2957
7053 5133
7054 14
7054 2190
7054 2958
7054 5134
7055 15
7055 2191
7055 2959
7055 5135
7056 16
7056 2192
7056 2960
7056 5136
7057 17
7057 2193
7057 2961
7057 5137
7058 18
7058 2194
7058 2962
7058 5138
7059 19
7059 2195
7059 2963
7059 5139
7060 20
7060 2196
7060 2964
7060 5140
7061 21
7061 2197
7061 2965
7061 5141
7062 22
7062 2198
7062 2966
7062 5142
7063 23
7063 2199
7063 2967
7063 5143
7064 24
7064 2200
7064 2968
7064 5144
7065 25
7065 2201
7065 2969
7065 5145
7066 26
7066 2202
7066 2970
7066 5146
7067 27
7067 2203
7067 2971
7067 5147
7068 28
7068 2204
7068 2972
7068 5148
7069 29
7069 2205
7069 2973
7069 5149
7070 30
7070 2206
7070 2974
7070 5150
7071 31
7071 2207
7071 2975
7071 5151
7072 32
7072 2208
7072 2976
7072 5152
7073 33
7073 2209
7073 2977
7073 5153
7074 34
7074 2210
7074 2978
7074 5154
7075 35
7075 2211
7075 2979
7075 5155
7076 36
7076 2212
7076 2980
7076 5156
7077 37
7077 2213
7077 2981
7077 5157
7078 38
7078 2214
7078 2982
7078 5158
7079 39
7079 2215
7079 2983
7079 5159
7080 40
7080 2216
7080 2984
7080 5160
7081 41
7081 2217
7081 2985
7081 5161
7082 42
7082 2218
7082 2986
7082 5162
7083 43
7083 2219
7083 2987
7083 5163
7084 44
7084 2220
7084 2988
7084 5164
7085 45
7085 2221
7085 2989
7085 5165
7086 46
7086 2222
7086 2990
7086 5166
7087 47
7087 2223
7087 2991
7087 5167
7088 48
7088 2224
7088 2992
7088 5168
7089 49
7089 2225
7089 2993
7089 5169
7090 50
7090 2226
7090 2994
7090 5170
7091 51
7091 2227
7091 2995
7091 5171
7092 52
7092 2228
7092 2996
7092 5172
7093 53
7093 2229
7093 2997
7093 5173
7094 54
7094 2230
7094 2998
7094 5174
7095 55
7095 2231
7095 2999
7095 5175
7096 56
7096 2232
7096 3000
7096 5176
7097 57
7097 2233
7097 3001
7097 5177
7098 58
7098 2234
7098 3002
7098 5178
7099 59
7099 2235
7099 3003
7099 5179
7100 60
7100 2236
7100 3004
7100 5180
7101 61
7101 2237
7101 3005
7101 5181
7102 62
7102 2238
7102 3006
7102 5182
7103 63
7103 2239
7103 3007
7103 5183
7104 64
7104 2240
7104 3008
7104 5184
7105 65
7105 2241
7105 3009
7105 5185
7106 66
7106 2242
7106 3010
7106 5186
7107 67
7107 2243
7107 3011
7107 5187
7108 68
7108 2244
7108 3012
7108 5188
7109 69
7109 2245
7109 3013
7109 5189
7110 70
7110 2246
7110 3014
7110 5190
7111 71
7111 2247
7111 3015
7111 5191
7112 72
7112 2248
7112 3016
7112 5192
7113 73
7113 2249
7113 3017
7113 5193
7114 74
7114 2250
7114 3018
7114 5194
7115 75
7115 2251
7115 3019
7115 5195
7116 76
7116 2252
7116 3020
7116 5196
7117 77
7117 2253
7117 3021
7117 5197
7118 78
7118 2254
7118 3022
7118 5198
7119 79
7119 2255
7119 3023
7119 5199
7120 80
7120 2256
7120 3024
7120 5200
7121 81
7121 2257
7121 3025
7121 5201
7122 82
7122 2258
7122 3026
7122 5202
7123 83
7123 2259
7123 3027
7123 5203
7124 84
7124 2260
7124 3028
7124 5204
7125 85
7125 2261
7125 3029
7125 5205
7126 86
7126 2262
7126 3030
7126 5206
7127 87
7127 2263
7127 3031
7127 5207
7128 88
7128 2264
7128 3032
7128 5208
7129 89
7129 2265
7129 3033
7129 5209
7130 90
7130 2266
7130 3034
7130 5210
7131 91
7131 2267
7131 3035
7131 5211
7132 92
7132 2268
7132 3036
7132 5212
7133 93
7133 2269
7133 3037
7133 5213
7134 94
7134 2270
7134 3038
7134 5214
7135 95
7135 2271
7135 3039
7135 5215
7136 96
7136 2272
7136 3040
7136 5216
7137 97
7137 2273
7137 3041
7137 5217
7138 98
7138 2274
7138 3042
7138 5218
7139 99
7139 2275
7139 3043
7139 5219
7140 100
7140 2276
7140 3044
7140 5220
7141 101
7141 2277
7141 3045
7141 5221
7142 102
7142 2278
7142 3046
7142 5222
7143 103
7143 2279
7143 3047
7143 5223
7144 104
7144 2280
7144 3048
7144 5224
7145 105
7145 2281
7145 3049
7145 5225
7146 106
7146 2282
7146 3050
7146 5226
7147 107
7147 2283
7147 3051
7147 5227
7148 108
7148 2284
7148 3052
7148 5228
7149 109
7149 2285
7149 3053
7149 5229
7150 110
7150 2286
7150 3054
7150 5230
7151 111
7151 2287
7151 3055
7151 5231
7152 112
7152 2288
7152 3056
7152 5232
7153 113
7153 2289
7153 3057
7153 5233
7154 114
7154 2290
7154 3058
7154 5234
7155 115
7155 2291
7155 3059
7155 5235
7156 116
7156 2292
7156 3060
7156 5236
7157 117
7157 2293
7157 3061
7157 5237
7158 118
7158 2294
7158 3062
7158 5238
7159 119
7159 2295
7159 3063
7159 5239
7160 120
7160 2296
7160 3064
7160 5240
7161 121
7161 2297
7161 3065
7161 5241
7162 122
7162 2298
7162 3066
7162 5242
7163 123
7163 2299
7163 3067
7163 5243
7164 124
7164 2300
7164 3068
7164 5244
7165 125
7165 2301
7165 3069
7165 5245
7166 126
7166 2302
7166 3070
7166 5246
7167 127
7167 2303
7167 3071
7167 5247
7168 128
7168 2304
7168 3072
7168 5248
7169 129
7169 2305
7169 3073
7169 5249
7170 130
7170 2306
7170 3074
7170 5250
7171 131
7171 2307
7171 3075
7171 5251
7172 132
7172 2308
7172 3076
7172 5252
7173 133
7173 2309
7173 3077
7173 5253
7174 134
7174 2310
7174 3078
7174 5254
7175 135
7175 2311
7175 3079
7175 5255
7176 136
7176 2312
7176 3080
7176 5256
7177 137
7177 2313
7177 3081
7177 5257
7178 138
7178 2314
7178 3082
7178 5258
7179 139
7179 2315
7179 3083
7179 5259
7180 140
7180 2316
7180 3084
7180 5260
7181 141
7181 2317
7181 3085
7181 5261
7182 142
7182 2318
7182 3086
7182 5262
7183 143
7183 2319
7183 3087
7183 5263
7184 144
7184 2320
7184 3088
7184 5264
7185 145
7185 2321
7185 3089
7185 5265
7186 146
7186 2322
7186 3090
7186 5266
7187 147
7187 2323
7187 3091
7187 5267
7188 148
7188 2324
7188 3092
7188 5268
7189 149
7189 2325
7189 3093
7189 5269
7190 150
7190 2326
7190 3094
7190 5270
7191 151
7191 2327
7191 3095
7191 5271
7192 152
7192 2328
7192 3096
7192 5272
7193 153
7193 2329
7193 3097
7193 5273
7194 154
7194 2330
7194 3098
7194 5274
7195 155
7195 2331
7195 3099
7195 5275
7196 156
7196 2332
7196 3100
7196 5276
7197 157
7197 2333
7197 3101
7197 5277
7198 158
7198 2334
7198 3102
7198 5278
7199 159
7199 2335
7199 3103
7199 5279
7200 160
7200 2336
7200 3104
7200 5280
7201 161
7201 2337
7201 3105
7201 5281
7202 162
7202 2338
7202 3106
7202 5282
7203 163
7203 2339
7203 3107
7203 5283
7204 164
7204 2340
7204 3108
7204 5284
7205 165
7205 2341
7205 3109
7205 5285
7206 166
7206 2342
7206 3110
7206 5286
7207 167
7207 2343
7207 3111
7207 5287
7208 168
7208 2344
7208 3112
7208 5288
7209 169
7209 2345
7209 3113
7209 5289
7210 170
7210 2346
7210 3114
7210 5290
7211 171
7211 2347
7211 3115
7211 5291
7212 172
7212 2348
7212 3116
7212 5292
7213 173
7213 2349
7213 3117
7213 5293
7214 174
7214 2350
7214 3118
7214 5294
7215 175
7215 2351
7215 3119
7215 5295
7216 176
7216 2352
7216 3120
7216 5296
7217 177
7217 2353
7217 3121
7217 5297
7218 178
7218 2354
7218 3122
7218 5298
7219 179
7219 2355
7219 3123
7219 5299
7220 180
7220 2356
7220 3124
7220 5300
7221 181
7221 2357
7221 3125
7221 5301
7222 182
7222 2358
7222 3126
7222 5302
7223 183
7223 2359
7223 3127
7223 5303
7224 184
7224 2360
7224 3128
7224 5304
7225 185
7225 2361
7225 3129
7225 5305
7226 186
7226 2362
7226 3130
7226 5306
7227 187
7227 2363
7227 3131
7227 5307
7228 188
7228 2364
7228 3132
7228 5308
7229 189
7229 2365
7229 3133
7229 5309
7230 190
7230 2366
7230 3134
7230 5310
7231 191
7231 2367
7231 3135
7231 5311
7232 192
7232 2368
7232 3136
7232 5312
7233 193
7233 2369
7233 3137
7233 5313
7234 194
7234 2370
7234 3138
7234 5314
7235 195
7235 2371
7235 3139
7235 5315
7236 196
7236 2372
7236 3140
7236 5316
7237 197
7237 2373
7237 3141
7237 5317
7238 198
7238 2374
7238 3142
7238 5318
7239 199
7239 2375
7239 3143
7239 5319
7240 200
7240 2376
7240 3144
7240 5320
7241 201
7241 2377
7241 3145
7241 5321
7242 202
7242 2378
7242 3146
7242 5322
7243 203
7243 2379
7243 3147
7243 5323
7244 204
7244 2380
7244 3148
7244 5324
7245 205
7245 2381
7245 3149
7245 5325
7246 206
7246 2382
7246 3150
7246 5326
7247 207
7247 2383
7247 3151
7247 5327
7248 208
7248 2384
7248 3152
7248 5328
7249 209
7249 2385
7249 3153
7249 5329
7250 210
7250 2386
7250 3154
7250 5330
7251 211
7251 2387
7251 3155
7251 5331
7252 212
7252 2388
7252 3156
7252 5332
7253 213
7253 2389
7253 3157
7253 5333
7254 214
7254 2390
7254 3158
7254 5334
7255 215
7255 2391
7255 3159
7255 5335
7256 216
7256 2392
7256 3160
7256 5336
7257 217
7257 2393
7257 3161
7257 5337
7258 218
7258 2394
7258 3162
7258 5338
7259 219
7259 2395
7259 3163
7259 5339
7260 220
7260 2396
7260 3164
7260 5340
7261 221
7261 2397
7261 3165
7261 5341
7262 222
7262 2398
7262 3166
7262 5342
7263 223
7263 2399
7263 3167
7263 5343
7264 224
7264 2400
7264 3168
7264 5344
7265 225
7265 2401
7265 3169
7265 5345
7266 226
7266 2402
7266 3170
7266 5346
7267 227
7267 2403
7267 3171
7267 5347
7268 228
7268 2404
7268 3172
7268 5348
7269 229
7269 2405
7269 3173
7269 5349
7270 230
7270 2406
7270 3174
7270 5350
7271 231
7271 2407
7271 3175
7271 5351
7272 232
7272 2408
7272 3176
7272 5352
7273 233
7273 2409
7273 3177
7273 5353
7274 234
7274 2410
7274 3178
7274 5354
7275 235
7275 2411
7275 3179
7275 5355
7276 236
7276 2412
7276 3180
7276 5356
7277 237
7277 2413
7277 3181
7277 5357
7278 238
7278 2414
7278 3182
7278 5358
7279 239
7279 2415
7279 3183
7279 5359
7280 240
7280 2416
7280 3184
7280 5360
7281 241
7281 2417
7281 3185
7281 5361
7282 242
7282 2418
7282 3186
7282 5362
7283 243
7283 2419
7283 3187
7283 5363
7284 244
7284 2420
7284 3188
7284 5364
7285 245
7285 2421
7285 3189
7285 5365
7286 246
7286 2422
7286 3190
7286 5366
7287 247
7287 2423
7287 3191
7287 5367
7288 248
7288 2424
7288 3192
7288 5368
7289 249
7289 2425
7289 3193
7289 5369
7290 250
7290 2426
7290 3194
7290 5370
7291 251
7291 2427
7291 3195
7291 5371
7292 252
7292 2428
7292 3196
7292 5372
7293 253
7293 2429
7293 3197
7293 5373
7294 254
7294 2430
7294 3198
7294 5374
7295 255
7295 2431
7295 3199
7295 5375
7296 256
7296 2432
7296 3200
7296 5376
7297 257
7297 2433
7297 3201
7297 5377
7298 258
7298 2434
7298 3202
7298 5378
7299 259
7299 2435
7299 3203
7299 5379
7300 260
7300 2436
7300 3204
7300 5380
7301 261
7301 2437
7301 3205
7301 5381
7302 262
7302 2438
7302 3206
7302 5382
7303 263
7303 2439
7303 3207
7303 5383
7304 264
7304 2440
7304 3208
7304 5384
7305 265
7305 2441
7305 3209
7305 5385
7306 266
7306 2442
7306 3210
7306 5386
7307 267
7307 2443
7307 3211
7307 5387
7308 268
7308 2444
7308 3212
7308 5388
7309 269
7309 2445
7309 3213
7309 5389
7310 270
7310 2446
7310 3214
7310 5390
7311 271
7311 2447
7311 3215
7311 5391
7312 272
7312 2448
7312 3216
7312 5392
7313 273
7313 2449
7313 3217
7313 5393
7314 274
7314 2450
7314 3218
7314 5394
7315 275
7315 2451
7315 3219
7315 5395
7316 276
7316 2452
7316 3220
7316 5396
7317 277
7317 2453
7317 3221
7317 5397
7318 278
7318 2454
7318 3222
7318 5398
7319 279
7319 2455
7319 3223
7319 5399
7320 280
7320 2456
7320 3224
7320 5400
7321 281
7321 2457
7321 3225
7321 5401
7322 282
7322 2458
7322 3226
7322 5402
7323 283
7323 2459
7323 3227
7323 5403
7324 284
7324 2460
7324 3228
7324 5404
7325 285
7325 2461
7325 3229
7325 5405
7326 286
7326 2462
7326 3230
7326 5406
7327 287
7327 2463
7327 3231
7327 5407
7328 288
7328 2464
7328 3232
7328 5408
7329 289
7329 2465
7329 3233
7329 5409
7330 290
7330 2466
7330 3234
7330 5410
7331 291
7331 2467
7331 3235
7331 5411
7332 292
7332 2468
7332 3236
7332 5412
7333 293
7333 2469
7333 3237
7333 5413
7334 294
7334 2470
7334 3238
7334 5414
7335 295
7335 2471
7335 3239
7335 5415
7336 296
7336 2472
7336 3240
7336 5416
7337 297
7337 2473
7337 3241
7337 5417
7338 298
7338 2474
7338 3242
7338 5418
7339 299
7339 2475
7339 3243
7339 5419
7340 300
7340 2476
7340 3244
7340 5420
7341 301
7341 2477
7341 3245
7341 5421
7342 302
7342 2478
7342 3246
7342 5422
7343 303
7343 2479
7343 3247
7343 5423
7344 304
7344 2480
7344 3248
7344 5424
7345 305
7345 2481
7345 3249
7345 5425
7346 306
7346 2482
7346 3250
7346 5426
7347 307
7347 2483
7347 3251
7347 5427
7348 308
7348 2484
7348 3252
7348 5428
7349 309
7349 2485
7349 3253
7349 5429
7350 310
7350 2486
7350 3254
7350 5430
7351 311
7351 2487
7351 3255
7351 5431
7352 312
7352 2488
7352 3256
7352 5432
7353 313
7353 2489
7353 3257
7353 5433
7354 314
7354 2490
7354 3258
7354 5434
7355 315
7355 2491
7355 3259
7355 5435
7356 316
7356 2492
7356 3260
7356 5436
7357 317
7357 2493
7357 3261
7357 5437
7358 318
7358 2494
7358 3262
7358 5438
7359 319
7359 2495
7359 3263
7359 5439
7360 320
7360 2496
7360 3264
7360 5440
7361 321
7361 2497
7361 3265
7361 5441
7362 322
7362 2498
7362 3266
7362 5442
7363 323
7363 2499
7363 3267
7363 5443
7364 324
7364 2500
7364 3268
7364 5444
7365 325
7365 2501
7365 3269
7365 5445
7366 326
7366 2502
7366 3270
7366 5446
7367 327
7367 2503
7367 3271
7367 5447
7368 328
7368 2504
7368 3272
7368 5448
7369 329
7369 2505
7369 3273
7369 5449
7370 330
7370 2506
7370 3274
7370 5450
7371 331
7371 2507
7371 3275
7371 5451
7372 332
7372 2508
7372 3276
7372 5452
7373 333
7373 2509
7373 3277
7373 5453
7374 334
7374 2510
7374 3278
7374 5454
7375 335
7375 2511
7375 3279
7375 5455
7376 336
7376 2512
7376 3280
7376 5456
7377 337
7377 2513
7377 3281
7377 5457
7378 338
7378 2514
7378 3282
7378 5458
7379 339
7379 2515
7379 3283
7379 5459
7380 340
7380 2516
7380 3284
7380 5460
7381 341
7381 2517
7381 3285
7381 5461
7382 342
7382 2518
7382 3286
7382 5462
7383 343
7383 2519
7383 3287
7383 5463
7384 344
7384 2520
7384 3288
7384 5464
7385 345
7385 2521
7385 3289
7385 5465
7386 346
7386 2522
7386 3290
7386 5466
7387 347
7387 2523
7387 3291
7387 5467
7388 348
7388 2524
7388 3292
7388 5468
7389 349
7389 2525
7389 3293
7389 5469
7390 350
7390 2526
7390 3294
7390 5470
7391 351
7391 2527
7391 3295
7391 5471
7392 352
7392 2528
7392 3296
7392 5472
7393 353
7393 2529
7393 3297
7393 5473
7394 354
7394 2530
7394 3298
7394 5474
7395 355
7395 2531
7395 3299
7395 5475
7396 356
7396 2532
7396 3300
7396 5476
7397 357
7397 2533
7397 3301
7397 5477
7398 358
7398 2534
7398 3302
7398 5478
7399 359
7399 2535
7399 3303
7399 5479
7400 360
7400 2536
7400 3304
7400 5480
7401 361
7401 2537
7401 3305
7401 5481
7402 362
7402 2538
7402 3306
7402 5482
7403 363
7403 2539
7403 3307
7403 5483
7404 364
7404 2540
7404 3308
7404 5484
7405 365
7405 2541
7405 3309
7405 5485
7406 366
7406 2542
7406 3310
7406 5486
7407 367
7407 2543
7407 3311
7407 5487
7408 368
7408 2544
7408 3312
7408 5488
7409 369
7409 2545
7409 3313
7409 5489
7410 370
7410 2546
7410 3314
7410 5490
7411 371
7411 2547
7411 3315
7411 5491
7412 372
7412 2548
7412 3316
7412 5492
7413 373
7413 2549
7413 3317
7413 5493
7414 374
7414 2550
7414 3318
7414 5494
7415 375
7415 2551
7415 3319
7415 5495
7416 376
7416 2552
7416 3320
7416 5496
7417 377
7417 2553
7417 3321
7417 5497
7418 378
7418 2554
7418 3322
7418 5498
7419 379
7419 2555
7419 3323
7419 5499
7420 380
7420 2556
7420 3324
7420 5500
7421 381
7421 2557
7421 3325
7421 5501
7422 382
7422 2558
7422 3326
7422 5502
7423 383
7423 2559
7423 3327
7423 5503
7424 384
7424 2560
7424 3328
7424 5504
7425 385
7425 2561
7425 3329
7425 5505
7426 386
7426 2562
7426 3330
7426 5506
7427 387
7427 2563
7427 3331
7427 5507
7428 388
7428 2564
7428 3332
7428 5508
7429 389
7429 2565
7429 3333
7429 5509
7430 390
7430 2566
7430 3334
7430 5510
7431 391
7431 2567
7431 3335
7431 5511
7432 392
7432 2568
7432 3336
7432 5512
7433 393
7433 2569
7433 3337
7433 5513
7434 394
7434 2570
7434 3338
7434 5514
7435 395
7435 2571
7435 3339
7435 5515
7436 396
7436 2572
7436 3340
7436 5516
7437 397
7437 2573
7437 3341
7437 5517
7438 398
7438 2574
7438 3342
7438 5518
7439 399
7439 2575
7439 3343
7439 5519
7440 400
7440 2576
7440 3344
7440 5520
7441 401
7441 2577
7441 3345
7441 5521
7442 402
7442 2578
7442 3346
7442 5522
7443 403
7443 2579
7443 3347
7443 5523
7444 404
7444 2580
7444 3348
7444 5524
7445 405
7445 2581
7445 3349
7445 5525
7446 406
7446 2582
7446 3350
7446 5526
7447 407
7447 2583
7447 3351
7447 5527
7448 408
7448 2584
7448 3352
7448 5528
7449 409
7449 2585
7449 3353
7449 5529
7450 410
7450 2586
7450 3354
7450 5530
7451 411
7451 2587
7451 3355
7451 5531
7452 412
7452 2588
7452 3356
7452 5532
7453 413
7453 2589
7453 3357
7453 5533
7454 414
7454 2590
7454 3358
7454 5534
7455 415
7455 2591
7455 3359
7455 5535
7456 416
7456 2592
7456 3360
7456 5536
7457 417
7457 2593
7457 3361
7457 5537
7458 418
7458 2594
7458 3362
7458 5538
7459 419
7459 2595
7459 3363
7459 5539
7460 420
7460 2596
7460 3364
7460 5540
7461 421
7461 2597
7461 3365
7461 5541
7462 422
7462 2598
7462 3366
7462 5542
7463 423
7463 2599
7463 3367
7463 5543
7464 424
7464 2600
7464 3368
7464 5544
7465 425
7465 2601
7465 3369
7465 5545
7466 426
7466 2602
7466 3370
7466 5546
7467 427
7467 2603
7467 3371
7467 5547
7468 428
7468 2604
7468 3372
7468 5548
7469 429
7469 2605
7469 3373
7469 5549
7470 430
7470 2606
7470 3374
7470 5550
7471 431
7471 2607
7471 3375
7471 5551
7472 432
7472 2608
7472 3376
7472 5552
7473 433
7473 2609
7473 3377
7473 5553
7474 434
7474 2610
7474 3378
7474 5554
7475 435
7475 2611
7475 3379
7475 5555
7476 436
7476 2612
7476 3380
7476 5556
7477 437
7477 2613
7477 3381
7477 5557
7478 438
7478 2614
7478 3382
7478 5558
7479 439
7479 2615
7479 3383
7479 5559
7480 440
7480 2616
7480 3384
7480 5560
7481 441
7481 2617
7481 3385
7481 5561
7482 442
7482 2618
7482 3386
7482 5562
7483 443
7483 2619
7483 3387
7483 5563
7484 444
7484 2620
7484 3388
7484 5564
7485 445
7485 2621
7485 3389
7485 5565
7486 446
7486 2622
7486 3390
7486 5566
7487 447
7487 2623
7487 3391
7487 5567
7488 448
7488 2624
7488 3392
7488 5568
7489 449
7489 2625
7489 3393
7489 5569
7490 450
7490 2626
7490 3394
7490 5570
7491 451
7491 2627
7491 3395
7491 5571
7492 452
7492 2628
7492 3396
7492 5572
7493 453
7493 2629
7493 3397
7493 5573
7494 454
7494 2630
7494 3398
7494 5574
7495 455
7495 2631
7495 3399
7495 5575
7496 456
7496 2632
7496 3400
7496 5576
7497 457
7497 2633
7497 3401
7497 5577
7498 458
7498 2634
7498 3402
7498 5578
7499 459
7499 2635
7499 3403
7499 5579
7500 460
7500 2636
7500 3404
7500 5580
7501 461
7501 2637
7501 3405
7501 5581
7502 462
7502 2638
7502 3406
7502 5582
7503 463
7503 2639
7503 3407
7503 5583
7504 464
7504 2640
7504 3408
7504 5584
7505 465
7505 2641
7505 3409
7505 5585
7506 466
7506 2642
7506 3410
7506 5586
7507 467
7507 2643
7507 3411
7507 5587
7508 468
7508 2644
7508 3412
7508 5588
7509 469
7509 2645
7509 3413
7509 5589
7510 470
7510 2646
7510 3414
7510 5590
7511 471
7511 2647
7511 3415
7511 5591
7512 472
7512 2648
7512 3416
7512 5592
7513 473
7513 2649
7513 3417
7513 5593
7514 474
7514 2650
7514 3418
7514 5594
7515 475
7515 2651
7515 3419
7515 5595
7516 476
7516 2652
7516 3420
7516 5596
7517 477
7517 2653
7517 3421
7517 5597
7518 478
7518 2654
7518 3422
7518 5598
7519 479
7519 2655
7519 3423
7519 5599
7520 480
7520 2656
7520 3424
7520 5600
7521 481
7521 2657
7521 3425
7521 5601
7522 482
7522 2658
7522 3426
7522 5602
7523 483
7523 2659
7523 3427
7523 5603
7524 484
7524 2660
7524 3428
7524 5604
7525 485
7525 2661
7525 3429
7525 5605
7526 486
7526 2662
7526 3430
7526 5606
7527 487
7527 2663
7527 3431
7527 5607
7528 488
7528 2664
7528 3432
7528 5608
7529 489
7529 2665
7529 3433
7529 5609
7530 490
7530 2666
7530 3434
7530 5610
7531 491
7531 2667
7531 3435
7531 5611
7532 492
7532 2668
7532 3436
7532 5612
7533 493
7533 2669
7533 3437
7533 5613
7534 494
7534 2670
7534 3438
7534 5614
7535 495
7535 2671
7535 3439
7535 5615
7536 496
7536 2672
7536 3440
7536 5616
7537 497
7537 2673
7537 3441
7537 5617
7538 498
7538 2674
7538 3442
7538 5618
7539 499
7539 2675
7539 3443
7539 5619
7540 500
7540 2676
7540 3444
7540 5620
7541 501
7541 2677
7541 3445
7541 5621
7542 502
7542 2678
7542 3446
7542 5622
7543 503
7543 2679
7543 3447
7543 5623
7544 504
7544 2680
7544 3448
7544 5624
7545 505
7545 2681
7545 3449
7545 5625
7546 506
7546 2682
7546 3450
7546 5626
7547 507
7547 2683
7547 3451
7547 5627
7548 508
7548 2684
7548 3452
7548 5628
7549 509
7549 2685
7549 3453
7549 5629
7550 510
7550 2686
7550 3454
7550 5630
7551 511
7551 2687
7551 3455
7551 5631
7552 512
7552 2688
7552 3456
7552 4224
7553 513
7553 2689
7553 3457
7553 4225
7554 514
7554 2690
7554 3458
7554 4226
7555 515
7555 2691
7555 3459
7555 4227
7556 516
7556 2692
7556 3460
7556 4228
7557 517
7557 2693
7557 3461
7557 4229
7558 518
7558 2694
7558 3462
7558 4230
7559 519
7559 2695
7559 3463
7559 4231
7560 520
7560 2696
7560 3464
7560 4232
7561 521
7561 2697
7561 3465
7561 4233
7562 522
7562 2698
7562 3466
7562 4234
7563 523
7563 2699
7563 3467
7563 4235
7564 524
7564 2700
7564 3468
7564 4236
7565 525
7565 2701
7565 3469
7565 4237
7566 526
7566 2702
7566 3470
7566 4238
7567 527
7567 2703
7567 3471
7567 4239
7568 528
7568 2704
7568 3472
7568 4240
7569 529
7569 2705
7569 3473
7569 4241
7570 530
7570 2706
7570 3474
7570 4242
7571 531
7571 2707
7571 3475
7571 4243
7572 532
7572 2708
7572 3476
7572 4244
7573 533
7573 2709
7573 3477
7573 4245
7574 534
7574 2710
7574 3478
7574 4246
7575 535
7575 2711
7575 3479
7575 4247
7576 536
7576 2712
7576 3480
7576 4248
7577 537
7577 2713
7577 3481
7577 4249
7578 538
7578 2714
7578 3482
7578 4250
7579 539
7579 2715
7579 3483
7579 4251
7580 540
7580 2716
7580 3484
7580 4252
7581 541
7581 2717
7581 3485
7581 4253
7582 542
7582 2718
7582 3486
7582 4254
7583 543
7583 2719
7583 3487
7583 4255
7584 544
7584 2720
7584 3488
7584 4256
7585 545
7585 2721
7585 3489
7585 4257
7586 546
7586 2722
7586 3490
7586 4258
7587 547
7587 2723
7587 3491
7587 4259
7588 548
7588 2724
7588 3492
7588 4260
7589 549
7589 2725
7589 3493
7589 4261
7590 550
7590 2726
7590 3494
7590 4262
7591 551
7591 2727
7591 3495
7591 4263
7592 552
7592 2728
7592 3496
7592 4264
7593 553
7593 2729
7593 3497
7593 4265
7594 554
7594 2730
7594 3498
7594 4266
7595 555
7595 2731
7595 3499
7595 4267
7596 556
7596 2732
7596 3500
7596 4268
7597 557
7597 2733
7597 3501
7597 4269
7598 558
7598 2734
7598 3502
7598 4270
7599 559
7599 2735
7599 3503
7599 4271
7600 560
7600 2736
7600 3504
7600 4272
7601 561
7601 2737
7601 3505
7601 4273
7602 562
7602 2738
7602 3506
7602 4274
7603 563
7603 2739
7603 3507
7603 4275
7604 564
7604 2740
7604 3508
7604 4276
7605 565
7605 2741
7605 3509
7605 4277
7606 566
7606 2742
7606 3510
7606 4278
7607 567
7607 2743
7607 3511
7607 4279
7608 568
7608 2744
7608 3512
7608 4280
7609 569
7609 2745
7609 3513
7609 4281
7610 570
7610 2746
7610 3514
7610 4282
7611 571
7611 2747
7611 3515
7611 4283
7612 572
7612 2748
7612 3516
7612 4284
7613 573
7613 2749
7613 3517
7613 4285
7614 574
7614 2750
7614 3518
7614 4286
7615 575
7615 2751
7615 3519
7615 4287
7616 576
7616 2752
7616 3520
7616 4288
7617 577
7617 2753
7617 3521
7617 4289
7618 578
7618 2754
7618 3522
7618 4290
7619 579
7619 2755
7619 3523
7619 4291
7620 580
7620 2756
7620 3524
7620 4292
7621 581
7621 2757
7621 3525
7621 4293
7622 582
7622 2758
7622 3526
7622 4294
7623 583
7623 2759
7623 3527
7623 4295
7624 584
7624 2760
7624 3528
7624 4296
7625 585
7625 2761
7625 3529
7625 4297
7626 586
7626 2762
7626 3530
7626 4298
7627 587
7627 2763
7627 3531
7627 4299
7628 588
7628 2764
7628 3532
7628 4300
7629 589
7629 2765
7629 3533
7629 4301
7630 590
7630 2766
7630 3534
7630 4302
7631 591
7631 2767
7631 3535
7631 4303
7632 592
7632 2768
7632 3536
7632 4304
7633 593
7633 2769
7633 3537
7633 4305
7634 594
7634 2770
7634 3538
7634 4306
7635 595
7635 2771
7635 3539
7635 4307
7636 596
7636 2772
7636 3540
7636 4308
7637 597
7637 2773
7637 3541
7637 4309
7638 598
7638 2774
7638 3542
7638 4310
7639 599
7639 2775
7639 3543
7639 4311
7640 600
7640 2776
7640 3544
7640 4312
7641 601
7641 2777
7641 3545
7641 4313
7642 602
7642 2778
7642 3546
7642 4314
7643 603
7643 2779
7643 3547
7643 4315
7644 604
7644 2780
7644 3548
7644 4316
7645 605
7645 2781
7645 3549
7645 4317
7646 606
7646 2782
7646 3550
7646 4318
7647 607
7647 2783
7647 3551
7647 4319
7648 608
7648 2784
7648 3552
7648 4320
7649 609
7649 2785
7649 3553
7649 4321
7650 610
7650 2786
7650 3554
7650 4322
7651 611
7651 2787
7651 3555
7651 4323
7652 612
7652 2788
7652 3556
7652 4324
7653 613
7653 2789
7653 3557
7653 4325
7654 614
7654 2790
7654 3558
7654 4326
7655 615
7655 2791
7655 3559
7655 4327
7656 616
7656 2792
7656 3560
7656 4328
7657 617
7657 2793
7657 3561
7657 4329
7658 618
7658 2794
7658 3562
7658 4330
7659 619
7659 2795
7659 3563
7659 4331
7660 620
7660 2796
7660 3564
7660 4332
7661 621
7661 2797
7661 3565
7661 4333
7662 622
7662 2798
7662 3566
7662 4334
7663 623
7663 2799
7663 3567
7663 4335
7664 624
7664 2800
7664 3568
7664 4336
7665 625
7665 2801
7665 3569
7665 4337
7666 626
7666 2802
7666 3570
7666 4338
7667 627
7667 2803
7667 3571
7667 4339
7668 628
7668 2804
7668 3572
7668 4340
7669 629
7669 2805
7669 3573
7669 4341
7670 630
7670 2806
7670 3574
7670 4342
7671 631
7671 2807
7671 3575
7671 4343
7672 632
7672 2808
7672 3576
7672 4344
7673 633
7673 2809
7673 3577
7673 4345
7674 634
7674 2810
7674 3578
7674 4346
7675 635
7675 2811
7675 3579
7675 4347
7676 636
7676 2812
7676 3580
7676 4348
7677 637
7677 2813
7677 3581
7677 4349
7678 638
7678 2814
7678 3582
7678 4350
7679 639
7679 2815
7679 3583
7679 4351
7680 640
7680 1408
7680 3584
7680 4352
7681 641
7681 1409
7681 3585
7681 4353
7682 642
7682 1410
7682 3586
7682 4354
7683 643
7683 1411
7683 3587
7683 4355
7684 644
7684 1412
7684 3588
7684 4356
7685 645
7685 1413
7685 3589
7685 4357
7686 646
7686 1414
7686 3590
7686 4358
7687 647
7687 1415
7687 3591
7687 4359
7688 648
7688 1416
7688 3592
7688 4360
7689 649
7689 1417
7689 3593
7689 4361
7690 650
7690 1418
7690 3594
7690 4362
7691 651
7691 1419
7691 3595
7691 4363
7692 652
7692 1420
7692 3596
7692 4364
7693 653
7693 1421
7693 3597
7693 4365
7694 654
7694 1422
7694 3598
7694 4366
7695 655
7695 1423
7695 3599
7695 4367
7696 656
7696 1424
7696 3600
7696 4368
7697 657
7697 1425
7697 3601
7697 4369
7698 658
7698 1426
7698 3602
7698 4370
7699 659
7699 1427
7699 3603
7699 4371
7700 660
7700 1428
7700 3604
7700 4372
7701 661
7701 1429
7701 3605
7701 4373
7702 662
7702 1430
7702 3606
7702 4374
7703 663
7703 1431
7703 3607
7703 4375
7704 664
7704 1432
7704 3608
7704 4376
7705 665
7705 1433
7705 3609
7705 4377
7706 666
7706 1434
7706 3610
7706 4378
7707 667
7707 1435
7707 3611
7707 4379
7708 668
7708 1436
7708 3612
7708 4380
7709 669
7709 1437
7709 3613
7709 4381
7710 670
7710 1438
7710 3614
7710 4382
7711 671
7711 1439
7711 3615
7711 4383
7712 672
7712 1440
7712 3616
7712 4384
7713 673
7713 1441
7713 3617
7713 4385
7714 674
7714 1442
7714 3618
7714 4386
7715 675
7715 1443
7715 3619
7715 4387
7716 676
7716 1444
7716 3620
7716 4388
7717 677
7717 1445
7717 3621
7717 4389
7718 678
7718 1446
7718 3622
7718 4390
7719 679
7719 1447
7719 3623
7719 4391
7720 680
7720 1448
7720 3624
7720 4392
7721 681
7721 1449
7721 3625
7721 4393
7722 682
7722 1450
7722 3626
7722 4394
7723 683
7723 1451
7723 3627
7723 4395
7724 684
7724 1452
7724 3628
7724 4396
7725 685
7725 1453
7725 3629
7725 4397
7726 686
7726 1454
7726 3630
7726 4398
7727 687
7727 1455
7727 3631
7727 4399
7728 688
7728 1456
7728 3632
7728 4400
7729 689
7729 1457
7729 3633
7729 4401
7730 690
7730 1458
7730 3634
7730 4402
7731 691
7731 1459
7731 3635
7731 4403
7732 692
7732 1460
7732 3636
7732 4404
7733 693
7733 1461
7733 3637
7733 4405
7734 694
7734 1462
7734 3638
7734 4406
7735 695
7735 1463
7735 3639
7735 4407
7736 696
7736 1464
7736 3640
7736 4408
7737 697
7737 1465
7737 3641
7737 4409
7738 698
7738 1466
7738 3642
7738 4410
7739 699
7739 1467
7739 3643
7739 4411
7740 700
7740 1468
7740 3644
7740 4412
7741 701
7741 1469
7741 3645
7741 4413
7742 702
7742 1470
7742 3646
7742 4414
7743 703
7743 1471
7743 3647
7743 4415
7744 704
7744 1472
7744 3648
7744 4416
7745 705
7745 1473
7745 3649
7745 4417
7746 706
7746 1474
7746 3650
7746 4418
7747 707
7747 1475
7747 3651
7747 4419
7748 708
7748 1476
7748 3652
7748 4420
7749 709
7749 1477
7749 3653
7749 4421
7750 710
7750 1478
7750 3654
7750 4422
7751 711
7751 1479
7751 3655
7751 4423
7752 712
7752 1480
7752 3656
7752 4424
7753 713
7753 1481
7753 3657
7753 4425
7754 714
7754 1482
7754 3658
7754 4426
7755 715
7755 1483
7755 3659
7755 4427
7756 716
7756 1484
7756 3660
7756 4428
7757 717
7757 1485
7757 3661
7757 4429
7758 718
7758 1486
7758 3662
7758 4430
7759 719
7759 1487
7759 3663
7759 4431
7760 720
7760 1488
7760 3664
7760 4432
7761 721
7761 1489
7761 3665
7761 4433
7762 722
7762 1490
7762 3666
7762 4434
7763 723
7763 1491
7763 3667
7763 4435
7764 724
7764 1492
7764 3668
7764 4436
7765 725
7765 1493
7765 3669
7765 4437
7766 726
7766 1494
7766 3670
7766 4438
7767 727
7767 1495
7767 3671
7767 4439
7768 728
7768 1496
7768 3672
7768 4440
7769 729
7769 1497
7769 3673
7769 4441
7770 730
7770 1498
7770 3674
7770 4442
7771 731
7771 1499
7771 3675
7771 4443
7772 732
7772 1500
7772 3676
7772 4444
7773 733
7773 1501
7773 3677
7773 4445
7774 734
7774 1502
7774 3678
7774 4446
7775 735
7775 1503
7775 3679
7775 4447
7776 736
7776 1504
7776 3680
7776 4448
7777 737
7777 1505
7777 3681
7777 4449
7778 738
7778 1506
7778 3682
7778 4450
7779 739
7779 1507
7779 3683
7779 4451
7780 740
7780 1508
7780 3684
7780 4452
7781 741
7781 1509
7781 3685
7781 4453
7782 742
7782 1510
7782 3686
7782 4454
7783 743
7783 1511
7783 3687
7783 4455
7784 744
7784 1512
7784 3688
7784 4456
7785 745
7785 1513
7785 3689
7785 4457
7786 746
7786 1514
7786 3690
7786 4458
7787 747
7787 1515
7787 3691
7787 4459
7788 748
7788 1516
7788 3692
7788 4460
7789 749
7789 1517
7789 3693
7789 4461
7790 750
7790 1518
7790 3694
7790 4462
7791 751
7791 1519
7791 3695
7791 4463
7792 752
7792 1520
7792 3696
7792 4464
7793 753
7793 1521
7793 3697
7793 4465
7794 754
7794 1522
7794 3698
7794 4466
7795 755
7795 1523
7795 3699
7795 4467
7796 756
7796 1524
7796 3700
7796 4468
7797 757
7797 1525
7797 3701
7797 4469
7798 758
7798 1526
7798 3702
7798 4470
7799 759
7799 1527
7799 3703
7799 4471
7800 760
7800 1528
7800 3704
7800 4472
7801 761
7801 1529
7801 3705
7801 4473
7802 762
7802 1530
7802 3706
7802 4474
7803 763
7803 1531
7803 3707
7803 4475
7804 764
7804 1532
7804 3708
7804 4476
7805 765
7805 1533
7805 3709
7805 4477
7806 766
7806 1534
7806 3710
7806 4478
7807 767
7807 1535
7807 3711
7807 4479
7808 768
7808 1536
7808 3712
7808 4480
7809 769
7809 1537
7809 3713
7809 4481
7810 770
7810 1538
7810 3714
7810 4482
7811 771
7811 1539
7811 3715
7811 4483
7812 772
7812 1540
7812 3716
7812 4484
7813 773
7813 1541
7813 3717
7813 4485
7814 774
7814 1542
7814 3718
7814 4486
7815 775
7815 1543
7815 3719
7815 4487
7816 776
7816 1544
7816 3720
7816 4488
7817 777
7817 1545
7817 3721
7817 4489
7818 778
7818 1546
7818 3722
7818 4490
7819 779
7819 1547
7819 3723
7819 4491
7820 780
7820 1548
7820 3724
7820 4492
7821 781
7821 1549
7821 3725
7821 4493
7822 782
7822 1550
7822 3726
7822 4494
7823 783
7823 1551
7823 3727
7823 4495
7824 784
7824 1552
7824 3728
7824 4496
7825 785
7825 1553
7825 3729
7825 4497
7826 786
7826 1554
7826 3730
7826 4498
7827 787
7827 1555
7827 3731
7827 4499
7828 788
7828 1556
7828 3732
7828 4500
7829 789
7829 1557
7829 3733
7829 4501
7830 790
7830 1558
7830 3734
7830 4502
7831 791
7831 1559
7831 3735
7831 4503
7832 792
7832 1560
7832 3736
7832 4504
7833 793
7833 1561
7833 3737
7833 4505
7834 794
7834 1562
7834 3738
7834 4506
7835 795
7835 1563
7835 3739
7835 4507
7836 796
7836 1564
7836 3740
7836 4508
7837 797
7837 1565
7837 3741
7837 4509
7838 798
7838 1566
7838 3742
7838 4510
7839 799
7839 1567
7839 3743
7839 4511
7840 800
7840 1568
7840 3744
7840 4512
7841 801
7841 1569
7841 3745
7841 4513
7842 802
7842 1570
7842 3746
7842 4514
7843 803
7843 1571
7843 3747
7843 4515
7844 804
7844 1572
7844 3748
7844 4516
7845 805
7845 1573
7845 3749
7845 4517
7846 806
7846 1574
7846 3750
7846 4518
7847 807
7847 1575
7847 3751
7847 4519
7848 808
7848 1576
7848 3752
7848 4520
7849 809
7849 1577
7849 3753
7849 4521
7850 810
7850 1578
7850 3754
7850 4522
7851 811
7851 1579
7851 3755
7851 4523
7852 812
7852 1580
7852 3756
7852 4524
7853 813
7853 1581
7853 3757
7853 4525
7854 814
7854 1582
7854 3758
7854 4526
7855 815
7855 1583
7855 3759
7855 4527
7856 816
7856 1584
7856 3760
7856 4528
7857 817
7857 1585
7857 3761
7857 4529
7858 818
7858 1586
7858 3762
7858 4530
7859 819
7859 1587
7859 3763
7859 4531
7860 820
7860 1588
7860 3764
7860 4532
7861 821
7861 1589
7861 3765
7861 4533
7862 822
7862 1590
7862 3766
7862 4534
7863 823
7863 1591
7863 3767
7863 4535
7864 824
7864 1592
7864 3768
7864 4536
7865 825
7865 1593
7865 3769
7865 4537
7866 826
7866 1594
7866 3770
7866 4538
7867 827
7867 1595
7867 3771
7867 4539
7868 828
7868 1596
7868 3772
7868 4540
7869 829
7869 1597
7869 3773
7869 4541
7870 830
7870 1598
7870 3774
7870 4542
7871 831
7871 1599
7871 3775
7871 4543
7872 832
7872 1600
7872 3776
7872 4544
7873 833
7873 1601
7873 3777
7873 4545
7874 834
7874 1602
7874 3778
7874 4546
7875 835
7875 1603
7875 3779
7875 4547
7876 836
7876 1604
7876 3780
7876 4548
7877 837
7877 1605
7877 3781
7877 4549
7878 838
7878 1606
7878 3782
7878 4550
7879 839
7879 1607
7879 3783
7879 4551
7880 840
7880 1608
7880 3784
7880 4552
7881 841
7881 1609
7881 3785
7881 4553
7882 842
7882 1610
7882 3786
7882 4554
7883 843
7883 1611
7883 3787
7883 4555
7884 844
7884 1612
7884 3788
7884 4556
7885 845
7885 1613
7885 3789
7885 4557
7886 846
7886 1614
7886 3790
7886 4558
7887 847
7887 1615
7887 3791
7887 4559
7888 848
7888 1616
7888 3792
7888 4560
7889 849
7889 1617
7889 3793
7889 4561
7890 850
7890 1618
7890 3794
7890 4562
7891 851
7891 1619
7891 3795
7891 4563
7892 852
7892 1620
7892 3796
7892 4564
7893 853
7893 1621
7893 3797
7893 4565
7894 854
7894 1622
7894 3798
7894 4566
7895 855
7895 1623
7895 3799
7895 4567
7896 856
7896 1624
7896 3800
7896 4568
7897 857
7897 1625
7897 3801
7897 4569
7898 858
7898 1626
7898 3802
7898 4570
7899 859
7899 1627
7899 3803
7899 4571
7900 860
7900 1628
7900 3804
7900 4572
7901 861
7901 1629
7901 3805
7901 4573
7902 862
7902 1630
7902 3806
7902 4574
7903 863
7903 1631
7903 3807
7903 4575
7904 864
7904 1632
7904 3808
7904 4576
7905 865
7905 1633
7905 3809
7905 4577
7906 866
7906 1634
7906 3810
7906 4578
7907 867
7907 1635
7907 3811
7907 4579
7908 868
7908 1636
7908 3812
7908 4580
7909 869
7909 1637
7909 3813
7909 4581
7910 870
7910 1638
7910 3814
7910 4582
7911 871
7911 1639
7911 3815
7911 4583
7912 872
7912 1640
7912 3816
7912 4584
7913 873
7913 1641
7913 3817
7913 4585
7914 874
7914 1642
7914 3818
7914 4586
7915 875
7915 1643
7915 3819
7915 4587
7916 876
7916 1644
7916 3820
7916 4588
7917 877
7917 1645
7917 3821
7917 4589
7918 878
7918 1646
7918 3822
7918 4590
7919 879
7919 1647
7919 3823
7919 4591
7920 880
7920 1648
7920 3824
7920 4592
7921 881
7921 1649
7921 3825
7921 4593
7922 882
7922 1650
7922 3826
7922 4594
7923 883
7923 1651
7923 3827
7923 4595
7924 884
7924 1652
7924 3828
7924 4596
7925 885
7925 1653
7925 3829
7925 4597
7926 886
7926 1654
7926 3830
7926 4598
7927 887
7927 1655
7927 3831
7927 4599
7928 888
7928 1656
7928 3832
7928 4600
7929 889
7929 1657
7929 3833
7929 4601
7930 890
7930 1658
7930 3834
7930 4602
7931 891
7931 1659
7931 3835
7931 4603
7932 892
7932 1660
7932 3836
7932 4604
7933 893
7933 1661
7933 3837
7933 4605
7934 894
7934 1662
7934 3838
7934 4606
7935 895
7935 1663
7935 3839
7935 4607
7936 896
7936 1664
7936 3840
7936 4608
7937 897
7937 1665
7937 3841
7937 4609
7938 898
7938 1666
7938 3842
7938 4610
7939 899
7939 1667
7939 3843
7939 4611
7940 900
7940 1668
7940 3844
7940 4612
7941 901
7941 1669
7941 3845
7941 4613
7942 902
7942 1670
7942 3846
7942 4614
7943 903
7943 1671
7943 3847
7943 4615
7944 904
7944 1672
7944 3848
7944 4616
7945 905
7945 1673
7945 3849
7945 4617
7946 906
7946 1674
7946 3850
7946 4618
7947 907
7947 1675
7947 3851
7947 4619
7948 908
7948 1676
7948 3852
7948 4620
7949 909
7949 1677
7949 3853
7949 4621
7950 910
7950 1678
7950 3854
7950 4622
7951 911
7951 1679
7951 3855
7951 4623
7952 912
7952 1680
7952 3856
7952 4624
7953 913
7953 1681
7953 3857
7953 4625
7954 914
7954 1682
7954 3858
7954 4626
7955 915
7955 1683
7955 3859
7955 4627
7956 916
7956 1684
7956 3860
7956 4628
7957 917
7957 1685
7957 3861
7957 4629
7958 918
7958 1686
7958 3862
7958 4630
7959 919
7959 1687
7959 3863
7959 4631
7960 920
7960 1688
7960 3864
7960 4632
7961 921
7961 1689
7961 3865
7961 4633
7962 922
7962 1690
7962 3866
7962 4634
7963 923
7963 1691
7963 3867
7963 4635
7964 924
7964 1692
7964 3868
7964 4636
7965 925
7965 1693
7965 3869
7965 4637
7966 926
7966 1694
7966 3870
7966 4638
7967 927
7967 1695
7967 3871
7967 4639
7968 928
7968 1696
7968 3872
7968 4640
7969 929
7969 1697
7969 3873
7969 4641
7970 930
7970 1698
7970 3874
7970 4642
7971 931
7971 1699
7971 3875
7971 4643
7972 932
7972 1700
7972 3876
7972 4644
7973 933
7973 1701
7973 3877
7973 4645
7974 934
7974 1702
7974 3878
7974 4646
7975 935
7975 1703
7975 3879
7975 4647
7976 936
7976 1704
7976 3880
7976 4648
7977 937
7977 1705
7977 3881
7977 4649
7978 938
7978 1706
7978 3882
7978 4650
7979 939
7979 1707
7979 3883
7979 4651
7980 940
7980 1708
7980 3884
7980 4652
7981 941
7981 1709
7981 3885
7981 4653
7982 942
7982 1710
7982 3886
7982 4654
7983 943
7983 1711
7983 3887
7983 4655
7984 944
7984 1712
7984 3888
7984 4656
7985 945
7985 1713
7985 3889
7985 4657
7986 946
7986 1714
7986 3890
7986 4658
7987 947
7987 1715
7987 3891
7987 4659
7988 948
7988 1716
7988 3892
7988 4660
7989 949
7989 1717
7989 3893
7989 4661
7990 950
7990 1718
7990 3894
7990 4662
7991 951
7991 1719
7991 3895
7991 4663
7992 952
7992 1720
7992 3896
7992 4664
7993 953
7993 1721
7993 3897
7993 4665
7994 954
7994 1722
7994 3898
7994 4666
7995 955
7995 1723
7995 3899
7995 4667
7996 956
7996 1724
7996 3900
7996 4668
7997 957
7997 1725
7997 3901
7997 4669
7998 958
7998 1726
7998 3902
7998 4670
7999 959
7999 1727
7999 3903
7999 4671
8000 960
8000 1728
8000 3904
8000 4672
8001 961
8001 1729
8001 3905
8001 4673
8002 962
8002 1730
8002 3906
8002 4674
8003 963
8003 1731
8003 3907
8003 4675
8004 964
8004 1732
8004 3908
8004 4676
8005 965
8005 1733
8005 3909
8005 4677
8006 966
8006 1734
8006 3910
8006 4678
8007 967
8007 1735
8007 3911
8007 4679
8008 968
8008 1736
8008 3912
8008 4680
8009 969
8009 1737
8009 3913
8009 4681
8010 970
8010 1738
8010 3914
8010 4682
8011 971
8011 1739
8011 3915
8011 4683
8012 972
8012 1740
8012 3916
8012 4684
8013 973
8013 1741
8013 3917
8013 4685
8014 974
8014 1742
8014 3918
8014 4686
8015 975
8015 1743
8015 3919
8015 4687
8016 976
8016 1744
8016 3920
8016 4688
8017 977
8017 1745
8017 3921
8017 4689
8018 978
8018 1746
8018 3922
8018 4690
8019 979
8019 1747
8019 3923
8019 4691
8020 980
8020 1748
8020 3924
8020 4692
8021 981
8021 1749
8021 3925
8021 4693
8022 982
8022 1750
8022 3926
8022 4694
8023 983
8023 1751
8023 3927
8023 4695
8024 984
8024 1752
8024 3928
8024 4696
8025 985
8025 1753
8025 3929
8025 4697
8026 986
8026 1754
8026 3930
8026 4698
8027 987
8027 1755
8027 3931
8027 4699
8028 988
8028 1756
8028 3932
8028 4700
8029 989
8029 1757
8029 3933
8029 4701
8030 990
8030 1758
8030 3934
8030 4702
8031 991
8031 1759
8031 3935
8031 4703
8032 992
8032 1760
8032 3936
8032 4704
8033 993
8033 1761
8033 3937
8033 4705
8034 994
8034 1762
8034 3938
8034 4706
8035 995
8035 1763
8035 3939
8035 4707
8036 996
8036 1764
8036 3940
8036 4708
8037 997
8037 1765
8037 3941
8037 4709
8038 998
8038 1766
8038 3942
8038 4710
8039 999
8039 1767
8039 3943
8039 4711
8040 1000
8040 1768
8040 3944
8040 4712
8041 1001
8041 1769
8041 3945
8041 4713
8042 1002
8042 1770
8042 3946
8042 4714
8043 1003
8043 1771
8043 3947
8043 4715
8044 1004
8044 1772
8044 3948
8044 4716
8045 1005
8045 1773
8045 3949
8045 4717
8046 1006
8046 1774
8046 3950
8046 4718
8047 1007
8047 1775
8047 3951
8047 4719
8048 1008
8048 1776
8048 3952
8048 4720
8049 1009
8049 1777
8049 3953
8049 4721
8050 1010
8050 1778
8050 3954
8050 4722
8051 1011
8051 1779
8051 3955
8051 4723
8052 1012
8052 1780
8052 3956
8052 4724
8053 1013
8053 1781
8053 3957
8053 4725
8054 1014
8054 1782
8054 3958
8054 4726
8055 1015
8055 1783
8055 3959
8055 4727
8056 1016
8056 1784
8056 3960
8056 4728
8057 1017
8057 1785
8057 3961
8057 4729
8058 1018
8058 1786
8058 3962
8058 4730
8059 1019
8059 1787
8059 3963
8059 4731
8060 1020
8060 1788
8060 3964
8060 4732
8061 1021
8061 1789
8061 3965
8061 4733
8062 1022
8062 1790
8062 3966
8062 4734
8063 1023
8063 1791
8063 3967
8063 4735
8064 1024
8064 1792
8064 3968
8064 4736
8065 1025
8065 1793
8065 3969
8065 4737
8066 1026
8066 1794
8066 3970
8066 4738
8067 1027
8067 1795
8067 3971
8067 4739
8068 1028
8068 1796
8068 3972
8068 4740
8069 1029
8069 1797
8069 3973
8069 4741
8070 1030
8070 1798
8070 3974
8070 4742
8071 1031
8071 1799
8071 3975
8071 4743
8072 1032
8072 1800
8072 3976
8072 4744
8073 1033
8073 1801
8073 3977
8073 4745
8074 1034
8074 1802
8074 3978
8074 4746
8075 1035
8075 1803
8075 3979
8075 4747
8076 1036
8076 1804
8076 3980
8076 4748
8077 1037
8077 1805
8077 3981
8077 4749
8078 1038
8078 1806
8078 3982
8078 4750
8079 1039
8079 1807
8079 3983
8079 4751
8080 1040
8080 1808
8080 3984
8080 4752
8081 1041
8081 1809
8081 3985
8081 4753
8082 1042
8082 1810
8082 3986
8082 4754
8083 1043
8083 1811
8083 3987
8083 4755
8084 1044
8084 1812
8084 3988
8084 4756
8085 1045
8085 1813
8085 3989
8085 4757
8086 1046
8086 1814
8086 3990
8086 4758
8087 1047
8087 1815
8087 3991
8087 4759
8088 1048
8088 1816
8088 3992
8088 4760
8089 1049
8089 1817
8089 3993
8089 4761
8090 1050
8090 1818
8090 3994
8090 4762
8091 1051
8091 1819
8091 3995
8091 4763
8092 1052
8092 1820
8092 3996
8092 4764
8093 1053
8093 1821
8093 3997
8093 4765
8094 1054
8094 1822
8094 3998
8094 4766
8095 1055
8095 1823
8095 3999
8095 4767
8096 1056
8096 1824
8096 4000
8096 4768
8097 1057
8097 1825
8097 4001
8097 4769
8098 1058
8098 1826
8098 4002
8098 4770
8099 1059
8099 1827
8099 4003
8099 4771
8100 1060
8100 1828
8100 4004
8100 4772
8101 1061
8101 1829
8101 4005
8101 4773
8102 1062
8102 1830
8102 4006
8102 4774
8103 1063
8103 1831
8103 4007
8103 4775
8104 1064
8104 1832
8104 4008
8104 4776
8105 1065
8105 1833
8105 4009
8105 4777
8106 1066
8106 1834
8106 4010
8106 4778
8107 1067
8107 1835
8107 4011
8107 4779
8108 1068
8108 1836
8108 4012
8108 4780
8109 1069
8109 1837
8109 4013
8109 4781
8110 1070
8110 1838
8110 4014
8110 4782
8111 1071
8111 1839
8111 4015
8111 4783
8112 1072
8112 1840
8112 4016
8112 4784
8113 1073
8113 1841
8113 4017
8113 4785
8114 1074
8114 1842
8114 4018
8114 4786
8115 1075
8115 1843
8115 4019
8115 4787
8116 1076
8116 1844
8116 4020
8116 4788
8117 1077
8117 1845
8117 4021
8117 4789
8118 1078
8118 1846
8118 4022
8118 4790
8119 1079
8119 1847
8119 4023
8119 4791
8120 1080
8120 1848
8120 4024
8120 4792
8121 1081
8121 1849
8121 4025
8121 4793
8122 1082
8122 1850
8122 4026
8122 4794
8123 1083
8123 1851
8123 4027
8123 4795
8124 1084
8124 1852
8124 4028
8124 4796
8125 1085
8125 1853
8125 4029
8125 4797
8126 1086
8126 1854
8126 4030
8126 4798
8127 1087
8127 1855
8127 4031
8127 4799
8128 1088
8128 1856
8128 4032
8128 4800
8129 1089
8129 1857
8129 4033
8129 4801
8130 1090
8130 1858
8130 4034
8130 4802
8131 1091
8131 1859
8131 4035
8131 4803
8132 1092
8132 1860
8132 4036
8132 4804
8133 1093
8133 1861
8133 4037
8133 4805
8134 1094
8134 1862
8134 4038
8134 4806
8135 1095
8135 1863
8135 4039
8135 4807
8136 1096
8136 1864
8136 4040
8136 4808
8137 1097
8137 1865
8137 4041
8137 4809
8138 1098
8138 1866
8138 4042
8138 4810
8139 1099
8139 1867
8139 4043
8139 4811
8140 1100
8140 1868
8140 4044
8140 4812
8141 1101
8141 1869
8141 4045
8141 4813
8142 1102
8142 1870
8142 4046
8142 4814
8143 1103
8143 1871
8143 4047
8143 4815
8144 1104
8144 1872
8144 4048
8144 4816
8145 1105
8145 1873
8145 4049
8145 4817
8146 1106
8146 1874
8146 4050
8146 4818
8147 1107
8147 1875
8147 4051
8147 4819
8148 1108
8148 1876
8148 4052
8148 4820
8149 1109
8149 1877
8149 4053
8149 4821
8150 1110
8150 1878
8150 4054
8150 4822
8151 1111
8151 1879
8151 4055
8151 4823
8152 1112
8152 1880
8152 4056
8152 4824
8153 1113
8153 1881
8153 4057
8153 4825
8154 1114
8154 1882
8154 4058
8154 4826
8155 1115
8155 1883
8155 4059
8155 4827
8156 1116
8156 1884
8156 4060
8156 4828
8157 1117
8157 1885
8157 4061
8157 4829
8158 1118
8158 1886
8158 4062
8158 4830
8159 1119
8159 1887
8159 4063
8159 4831
8160 1120
8160 1888
8160 4064
8160 4832
8161 1121
8161 1889
8161 4065
8161 4833
8162 1122
8162 1890
8162 4066
8162 4834
8163 1123
8163 1891
8163 4067
8163 4835
8164 1124
8164 1892
8164 4068
8164 4836
8165 1125
8165 1893
8165 4069
8165 4837
8166 1126
8166 1894
8166 4070
8166 4838
8167 1127
8167 1895
8167 4071
8167 4839
8168 1128
8168 1896
8168 4072
8168 4840
8169 1129
8169 1897
8169 4073
8169 4841
8170 1130
8170 1898
8170 4074
8170 4842
8171 1131
8171 1899
8171 4075
8171 4843
8172 1132
8172 1900
8172 4076
8172 4844
8173 1133
8173 1901
8173 4077
8173 4845
8174 1134
8174 1902
8174 4078
8174 4846
8175 1135
8175 1903
8175 4079
8175 4847
8176 1136
8176 1904
8176 4080
8176 4848
8177 1137
8177 1905
8177 4081
8177 4849
8178 1138
8178 1906
8178 4082
8178 4850
8179 1139
8179 1907
8179 4083
8179 4851
8180 1140
8180 1908
8180 4084
8180 4852
8181 1141
8181 1909
8181 4085
8181 4853
8182 1142
8182 1910
8182 4086
8182 4854
8183 1143
8183 1911
8183 4087
8183 4855
8184 1144
8184 1912
8184 4088
8184 4856
8185 1145
8185 1913
8185 4089
8185 4857
8186 1146
8186 1914
8186 4090
8186 4858
8187 1147
8187 1915
8187 4091
8187 4859
8188 1148
8188 1916
8188 4092
8188 4860
8189 1149
8189 1917
8189 4093
8189 4861
8190 1150
8190 1918
8190 4094
8190 4862
8191 1151
8191 1919
8191 4095
8191 4863
8192 1152
8192 1920
8192 4096
8192 4864
8193 1153
8193 1921
8193 4097
8193 4865
8194 1154
8194 1922
8194 4098
8194 4866
8195 1155
8195 1923
8195 4099
8195 4867
8196 1156
8196 1924
8196 4100
8196 4868
8197 1157
8197 1925
8197 4101
8197 4869
8198 1158
8198 1926
8198 4102
8198 4870
8199 1159
8199 1927
8199 4103
8199 4871
8200 1160
8200 1928
8200 4104
8200 4872
8201 1161
8201 1929
8201 4105
8201 4873
8202 1162
8202 1930
8202 4106
8202 4874
8203 1163
8203 1931
8203 4107
8203 4875
8204 1164
8204 1932
8204 4108
8204 4876
8205 1165
8205 1933
8205 4109
8205 4877
8206 1166
8206 1934
8206 4110
8206 4878
8207 1167
8207 1935
8207 4111
8207 4879
8208 1168
8208 1936
8208 4112
8208 4880
8209 1169
8209 1937
8209 4113
8209 4881
8210 1170
8210 1938
8210 4114
8210 4882
8211 1171
8211 1939
8211 4115
8211 4883
8212 1172
8212 1940
8212 4116
8212 4884
8213 1173
8213 1941
8213 4117
8213 4885
8214 1174
8214 1942
8214 4118
8214 4886
8215 1175
8215 1943
8215 4119
8215 4887
8216 1176
8216 1944
8216 4120
8216 4888
8217 1177
8217 1945
8217 4121
8217 4889
8218 1178
8218 1946
8218 4122
8218 4890
8219 1179
8219 1947
8219 4123
8219 4891
8220 1180
8220 1948
8220 4124
8220 4892
8221 1181
8221 1949
8221 4125
8221 4893
8222 1182
8222 1950
8222 4126
8222 4894
8223 1183
8223 1951
8223 4127
8223 4895
8224 1184
8224 1952
8224 4128
8224 4896
8225 1185
8225 1953
8225 4129
8225 4897
8226 1186
8226 1954
8226 4130
8226 4898
8227 1187
8227 1955
8227 4131
8227 4899
8228 1188
8228 1956
8228 4132
8228 4900
8229 1189
8229 1957
8229 4133
8229 4901
8230 1190
8230 1958
8230 4134
8230 4902
8231 1191
8231 1959
8231 4135
8231 4903
8232 1192
8232 1960
8232 4136
8232 4904
8233 1193
8233 1961
8233 4137
8233 4905
8234 1194
8234 1962
8234 4138
8234 4906
8235 1195
8235 1963
8235 4139
8235 4907
8236 1196
8236 1964
8236 4140
8236 4908
8237 1197
8237 1965
8237 4141
8237 4909
8238 1198
8238 1966
8238 4142
8238 4910
8239 1199
8239 1967
8239 4143
8239 4911
8240 1200
8240 1968
8240 4144
8240 4912
8241 1201
8241 1969
8241 4145
8241 4913
8242 1202
8242 1970
8242 4146
8242 4914
8243 1203
8243 1971
8243 4147
8243 4915
8244 1204
8244 1972
8244 4148
8244 4916
8245 1205
8245 1973
8245 4149
8245 4917
8246 1206
8246 1974
8246 4150
8246 4918
8247 1207
8247 1975
8247 4151
8247 4919
8248 1208
8248 1976
8248 4152
8248 4920
8249 1209
8249 1977
8249 4153
8249 4921
8250 1210
8250 1978
8250 4154
8250 4922
8251 1211
8251 1979
8251 4155
8251 4923
8252 1212
8252 1980
8252 4156
8252 4924
8253 1213
8253 1981
8253 4157
8253 4925
8254 1214
8254 1982
8254 4158
8254 4926
8255 1215
8255 1983
8255 4159
8255 4927
8256 1216
8256 1984
8256 4160
8256 4928
8257 1217
8257 1985
8257 4161
8257 4929
8258 1218
8258 1986
8258 4162
8258 4930
8259 1219
8259 1987
8259 4163
8259 4931
8260 1220
8260 1988
8260 4164
8260 4932
8261 1221
8261 1989
8261 4165
8261 4933
8262 1222
8262 1990
8262 4166
8262 4934
8263 1223
8263 1991
8263 4167
8263 4935
8264 1224
8264 1992
8264 4168
8264 4936
8265 1225
8265 1993
8265 4169
8265 4937
8266 1226
8266 1994
8266 4170
8266 4938
8267 1227
8267 1995
8267 4171
8267 4939
8268 1228
8268 1996
8268 4172
8268 4940
8269 1229
8269 1997
8269 4173
8269 4941
8270 1230
8270 1998
8270 4174
8270 4942
8271 1231
8271 1999
8271 4175
8271 4943
8272 1232
8272 2000
8272 4176
8272 4944
8273 1233
8273 2001
8273 4177
8273 4945
8274 1234
8274 2002
8274 4178
8274 4946
8275 1235
8275 2003
8275 4179
8275 4947
8276 1236
8276 2004
8276 4180
8276 4948
8277 1237
8277 2005
8277 4181
8277 4949
8278 1238
8278 2006
8278 4182
8278 4950
8279 1239
8279 2007
8279 4183
8279 4951
8280 1240
8280 2008
8280 4184
8280 4952
8281 1241
8281 2009
8281 4185
8281 4953
8282 1242
8282 2010
8282 4186
8282 4954
8283 1243
8283 2011
8283 4187
8283 4955
8284 1244
8284 2012
8284 4188
8284 4956
8285 1245
8285 2013
8285 4189
8285 4957
8286 1246
8286 2014
8286 4190
8286 4958
8287 1247
8287 2015
8287 4191
8287 4959
8288 1248
8288 2016
8288 4192
8288 4960
8289 1249
8289 2017
8289 4193
8289 4961
8290 1250
8290 2018
8290 4194
8290 4962
8291 1251
8291 2019
8291 4195
8291 4963
8292 1252
8292 2020
8292 4196
8292 4964
8293 1253
8293 2021
8293 4197
8293 4965
8294 1254
8294 2022
8294 4198
8294 4966
8295 1255
8295 2023
8295 4199
8295 4967
8296 1256
8296 2024
8296 4200
8296 4968
8297 1257
8297 2025
8297 4201
8297 4969
8298 1258
8298 2026
8298 4202
8298 4970
8299 1259
8299 2027
8299 4203
8299 4971
8300 1260
8300 2028
8300 4204
8300 4972
8301 1261
8301 2029
8301 4205
8301 4973
8302 1262
8302 2030
8302 4206
8302 4974
8303 1263
8303 2031
8303 4207
8303 4975
8304 1264
8304 2032
8304 4208
8304 4976
8305 1265
8305 2033
8305 4209
8305 4977
8306 1266
8306 2034
8306 4210
8306 4978
8307 1267
8307 2035
8307 4211
8307 4979
8308 1268
8308 2036
8308 4212
8308 4980
8309 1269
8309 2037
8309 4213
8309 4981
8310 1270
8310 2038
8310 4214
8310 4982
8311 1271
8311 2039
8311 4215
8311 4983
8312 1272
8312 2040
8312 4216
8312 4984
8313 1273
8313 2041
8313 4217
8313 4985
8314 1274
8314 2042
8314 4218
8314 4986
8315 1275
8315 2043
8315 4219
8315 4987
8316 1276
8316 2044
8316 4220
8316 4988
8317 1277
8317 2045
8317 4221
8317 4989
8318 1278
8318 2046
8318 4222
8318 4990
8319 1279
8319 2047
8319 4223
8319 4991
8320 1280
8320 2048
8320 2816
8320 4992
8321 1281
8321 2049
8321 2817
8321 4993
8322 1282
8322 2050
8322 2818
8322 4994
8323 1283
8323 2051
8323 2819
8323 4995
8324 1284
8324 2052
8324 2820
8324 4996
8325 1285
8325 2053
8325 2821
8325 4997
8326 1286
8326 2054
8326 2822
8326 4998
8327 1287
8327 2055
8327 2823
8327 4999
8328 1288
8328 2056
8328 2824
8328 5000
8329 1289
8329 2057
8329 2825
8329 5001
8330 1290
8330 2058
8330 2826
8330 5002
8331 1291
8331 2059
8331 2827
8331 5003
8332 1292
8332 2060
8332 2828
8332 5004
8333 1293
8333 2061
8333 2829
8333 5005
8334 1294
8334 2062
8334 2830
8334 5006
8335 1295
8335 2063
8335 2831
8335 5007
8336 1296
8336 2064
8336 2832
8336 5008
8337 1297
8337 2065
8337 2833
8337 5009
8338 1298
8338 2066
8338 2834
8338 5010
8339 1299
8339 2067
8339 2835
8339 5011
8340 1300
8340 2068
8340 2836
8340 5012
8341 1301
8341 2069
8341 2837
8341 5013
8342 1302
8342 2070
8342 2838
8342 5014
8343 1303
8343 2071
8343 2839
8343 5015
8344 1304
8344 2072
8344 2840
8344 5016
8345 1305
8345 2073
8345 2841
8345 5017
8346 1306
8346 2074
8346 2842
8346 5018
8347 1307
8347 2075
8347 2843
8347 5019
8348 1308
8348 2076
8348 2844
8348 5020
8349 1309
8349 2077
8349 2845
8349 5021
8350 1310
8350 2078
8350 2846
8350 5022
8351 1311
8351 2079
8351 2847
8351 5023
8352 1312
8352 2080
8352 2848
8352 5024
8353 1313
8353 2081
8353 2849
8353 5025
8354 1314
8354 2082
8354 2850
8354 5026
8355 1315
8355 2083
8355 2851
8355 5027
8356 1316
8356 2084
8356 2852
8356 5028
8357 1317
8357 2085
8357 2853
8357 5029
8358 1318
8358 2086
8358 2854
8358 5030
8359 1319
8359 2087
8359 2855
8359 5031
8360 1320
8360 2088
8360 2856
8360 5032
8361 1321
8361 2089
8361 2857
8361 5033
8362 1322
8362 2090
8362 2858
8362 5034
8363 1323
8363 2091
8363 2859
8363 5035
8364 1324
8364 2092
8364 2860
8364 5036
8365 1325
8365 2093
8365 2861
8365 5037
8366 1326
8366 2094
8366 2862
8366 5038
8367 1327
8367 2095
8367 2863
8367 5039
8368 1328
8368 2096
8368 2864
8368 5040
8369 1329
8369 2097
8369 2865
8369 5041
8370 1330
8370 2098
8370 2866
8370 5042
8371 1331
8371 2099
8371 2867
8371 5043
8372 1332
8372 2100
8372 2868
8372 5044
8373 1333
8373 2101
8373 2869
8373 5045
8374 1334
8374 2102
8374 2870
8374 5046
8375 1335
8375 2103
8375 2871
8375 5047
8376 1336
8376 2104
8376 2872
8376 5048
8377 1337
8377 2105
8377 2873
8377 5049
8378 1338
8378 2106
8378 2874
8378 5050
8379 1339
8379 2107
8379 2875
8379 5051
8380 1340
8380 2108
8380 2876
8380 5052
8381 1341
8381 2109
8381 2877
8381 5053
8382 1342
8382 2110
8382 2878
8382 5054
8383 1343
8383 2111
8383 2879
8383 5055
8384 1344
8384 2112
8384 2880
8384 5056
8385 1345
8385 2113
8385 2881
8385 5057
8386 1346
8386 2114
8386 2882
8386 5058
8387 1347
8387 2115
8387 2883
8387 5059
8388 1348
8388 2116
8388 2884
8388 5060
8389 1349
8389 2117
8389 2885
8389 5061
8390 1350
8390 2118
8390 2886
8390 5062
8391 1351
8391 2119
8391 2887
8391 5063
8392 1352
8392 2120
8392 2888
8392 5064
8393 1353
8393 2121
8393 2889
8393 5065
8394 1354
8394 2122
8394 2890
8394 5066
8395 1355
8395 2123
8395 2891
8395 5067
8396 1356
8396 2124
8396 2892
8396 5068
8397 1357
8397 2125
8397 2893
8397 5069
8398 1358
8398 2126
8398 2894
8398 5070
8399 1359
8399 2127
8399 2895
8399 5071
8400 1360
8400 2128
8400 2896
8400 5072
8401 1361
8401 2129
8401 2897
8401 5073
8402 1362
8402 2130
8402 2898
8402 5074
8403 1363
8403 2131
8403 2899
8403 5075
8404 1364
8404 2132
8404 2900
8404 5076
8405 1365
8405 2133
8405 2901
8405 5077
8406 1366
8406 2134
8406 2902
8406 5078
8407 1367
8407 2135
8407 2903
8407 5079
8408 1368
8408 2136
8408 2904
8408 5080
8409 1369
8409 2137
8409 2905
8409 5081
8410 1370
8410 2138
8410 2906
8410 5082
8411 1371
8411 2139
8411 2907
8411 5083
8412 1372
8412 2140
8412 2908
8412 5084
8413 1373
8413 2141
8413 2909
8413 5085
8414 1374
8414 2142
8414 2910
8414 5086
8415 1375
8415 2143
8415 2911
8415 5087
8416 1376
8416 2144
8416 2912
8416 5088
8417 1377
8417 2145
8417 2913
8417 5089
8418 1378
8418 2146
8418 2914
8418 5090
8419 1379
8419 2147
8419 2915
8419 5091
8420 1380
8420 2148
8420 2916
8420 5092
8421 1381
8421 2149
8421 2917
8421 5093
8422 1382
8422 2150
8422 2918
8422 5094
8423 1383
8423 2151
8423 2919
8423 5095
8424 1384
8424 2152
8424 2920
8424 5096
8425 1385
8425 2153
8425 2921
8425 5097
8426 1386
8426 2154
8426 2922
8426 5098
8427 1387
8427 2155
8427 2923
8427 5099
8428 1388
8428 2156
8428 2924
8428 5100
8429 1389
8429 2157
8429 2925
8429 5101
8430 1390
8430 2158
8430 2926
8430 5102
8431 1391
8431 2159
8431 2927
8431 5103
8432 1392
8432 2160
8432 2928
8432 5104
8433 1393
8433 2161
8433 2929
8433 5105
8434 1394
8434 2162
8434 2930
8434 5106
8435 1395
8435 2163
8435 2931
8435 5107
8436 1396
8436 2164
8436 2932
8436 5108
8437 1397
8437 2165
8437 2933
8437 5109
8438 1398
8438 2166
8438 2934
8438 5110
8439 1399
8439 2167
8439 2935
8439 5111
8440 1400
8440 2168
8440 2936
8440 5112
8441 1401
8441 2169
8441 2937
8441 5113
8442 1402
8442 2170
8442 2938
8442 5114
8443 1403
8443 2171
8443 2939
8443 5115
8444 1404
8444 2172
8444 2940
8444 5116
8445 1405
8445 2173
8445 2941
8445 5117
8446 1406
8446 2174
8446 2942
8446 5118
8447 1407
8447 2175
8447 2943
8447 5119
8448 0
8448 2048
8448 4096
8448 4736
8449 1
8449 2049
8449 4097
8449 4737
8450 2
8450 2050
8450 4098
8450 4738
8451 3
8451 2051
8451 4099
8451 4739
8452 4
8452 2052
8452 4100
8452 4740
8453 5
8453 2053
8453 4101
8453 4741
8454 6
8454 2054
8454 4102
8454 4742
8455 7
8455 2055
8455 4103
8455 4743
8456 8
8456 2056
8456 4104
8456 4744
8457 9
8457 2057
8457 4105
8457 4745
8458 10
8458 2058
8458 4106
8458 4746
8459 11
8459 2059
8459 4107
8459 4747
8460 12
8460 2060
8460 4108
8460 4748
8461 13
8461 2061
8461 4109
8461 4749
8462 14
8462 2062
8462 4110
8462 4750
8463 15
8463 2063
8463 4111
8463 4751
8464 16
8464 2064
8464 4112
8464 4752
8465 17
8465 2065
8465 4113
8465 4753
8466 18
8466 2066
8466 4114
8466 4754
8467 19
8467 2067
8467 4115
8467 4755
8468 20
8468 2068
8468 4116
8468 4756
8469 21
8469 2069
8469 4117
8469 4757
8470 22
8470 2070
8470 4118
8470 4758
8471 23
8471 2071
8471 4119
8471 4759
8472 24
8472 2072
8472 4120
8472 4760
8473 25
8473 2073
8473 4121
8473 4761
8474 26
8474 2074
8474 4122
8474 4762
8475 27
8475 2075
8475 4123
8475 4763
8476 28
8476 2076
8476 4124
8476 4764
8477 29
8477 2077
8477 4125
8477 4765
8478 30
8478 2078
8478 4126
8478 4766
8479 31
8479 2079
8479 4127
8479 4767
8480 32
8480 2080
8480 4128
8480 4768
8481 33
8481 2081
8481 4129
8481 4769
8482 34
8482 2082
8482 4130
8482 4770
8483 35
8483 2083
8483 4131
8483 4771
8484 36
8484 2084
8484 4132
8484 4772
8485 37
8485 2085
8485 4133
8485 4773
8486 38
8486 2086
8486 4134
8486 4774
8487 39
8487 2087
8487 4135
8487 4775
8488 40
8488 2088
8488 4136
8488 4776
8489 41
8489 2089
8489 4137
8489 4777
8490 42
8490 2090
8490 4138
8490 4778
8491 43
8491 2091
8491 4139
8491 4779
8492 44
8492 2092
8492 4140
8492 4780
8493 45
8493 2093
8493 4141
8493 4781
8494 46
8494 2094
8494 4142
8494 4782
8495 47
8495 2095
8495 4143
8495 4783
8496 48
8496 2096
8496 4144
8496 4784
8497 49
8497 2097
8497 4145
8497 4785
8498 50
8498 2098
8498 4146
8498 4786
8499 51
8499 2099
8499 4147
8499 4787
8500 52
8500 2100
8500 4148
8500 4788
8501 53
8501 2101
8501 4149
8501 4789
8502 54
8502 2102
8502 4150
8502 4790
8503 55
8503 2103
8503 4151
8503 4791
8504 56
8504 2104
8504 4152
8504 4792
8505 57
8505 2105
8505 4153
8505 4793
8506 58
8506 2106
8506 4154
8506 4794
8507 59
8507 2107
8507 4155
8507 4795
8508 60
8508 2108
8508 4156
8508 4796
8509 61
8509 2109
8509 4157
8509 4797
8510 62
8510 2110
8510 4158
8510 4798
8511 63
8511 2111
8511 4159
8511 4799
8512 64
8512 2112
8512 4160
8512 4800
8513 65
8513 2113
8513 4161
8513 4801
8514 66
8514 2114
8514 4162
8514 4802
8515 67
8515 2115
8515 4163
8515 4803
8516 68
8516 2116
8516 4164
8516 4804
8517 69
8517 2117
8517 4165
8517 4805
8518 70
8518 2118
8518 4166
8518 4806
8519 71
8519 2119
8519 4167
8519 4807
8520 72
8520 2120
8520 4168
8520 4808
8521 73
8521 2121
8521 4169
8521 4809
8522 74
8522 2122
8522 4170
8522 4810
8523 75
8523 2123
8523 4171
8523 4811
8524 76
8524 2124
8524 4172
8524 4812
8525 77
8525 2125
8525 4173
8525 4813
8526 78
8526 2126
8526 4174
8526 4814
8527 79
8527 2127
8527 4175
8527 4815
8528 80
8528 2128
8528 4176
8528 4816
8529 81
8529 2129
8529 4177
8529 4817
8530 82
8530 2130
8530 4178
8530 4818
8531 83
8531 2131
8531 4179
8531 4819
8532 84
8532 2132
8532 4180
8532 4820
8533 85
8533 2133
8533 4181
8533 4821
8534 86
8534 2134
8534 4182
8534 4822
8535 87
8535 2135
8535 4183
8535 4823
8536 88
8536 2136
8536 4184
8536 4824
8537 89
8537 2137
8537 4185
8537 4825
8538 90
8538 2138
8538 4186
8538 4826
8539 91
8539 2139
8539 4187
8539 4827
8540 92
8540 2140
8540 4188
8540 4828
8541 93
8541 2141
8541 4189
8541 4829
8542 94
8542 2142
8542 4190
8542 4830
8543 95
8543 2143
8543 4191
8543 4831
8544 96
8544 2144
8544 4192
8544 4832
8545 97
8545 2145
8545 4193
8545 4833
8546 98
8546 2146
8546 4194
8546 4834
8547 99
8547 2147
8547 4195
8547 4835
8548 100
8548 2148
8548 4196
8548 4836
8549 101
8549 2149
8549 4197
8549 4837
8550 102
8550 2150
8550 4198
8550 4838
8551 103
8551 2151
8551 4199
8551 4839
8552 104
8552 2152
8552 4200
8552 4840
8553 105
8553 2153
8553 4201
8553 4841
8554 106
8554 2154
8554 4202
8554 4842
8555 107
8555 2155
8555 4203
8555 4843
8556 108
8556 2156
8556 4204
8556 4844
8557 109
8557 2157
8557 4205
8557 4845
8558 110
8558 2158
8558 4206
8558 4846
8559 111
8559 2159
8559 4207
8559 4847
8560 112
8560 2160
8560 4208
8560 4848
8561 113
8561 2161
8561 4209
8561 4849
8562 114
8562 2162
8562 4210
8562 4850
8563 115
8563 2163
8563 4211
8563 4851
8564 116
8564 2164
8564 4212
8564 4852
8565 117
8565 2165
8565 4213
8565 4853
8566 118
8566 2166
8566 4214
8566 4854
8567 119
8567 2167
8567 4215
8567 4855
8568 120
8568 2168
8568 4216
8568 4856
8569 121
8569 2169
8569 4217
8569 4857
8570 122
8570 2170
8570 4218
8570 4858
8571 123
8571 2171
8571 4219
8571 4859
8572 124
8572 2172
8572 4220
8572 4860
8573 125
8573 2173
8573 4221
8573 4861
8574 126
8574 2174
8574 4222
8574 4862
8575 127
8575 2175
8575 4223
8575 4863
8576 128
8576 2176
8576 2816
8576 4864
8577 129
8577 2177
8577 2817
8577 4865
8578 130
8578 2178
8578 2818
8578 4866
8579 131
8579 2179
8579 2819
8579 4867
8580 132
8580 2180
8580 2820
8580 4868
8581 133
8581 2181
8581 2821
8581 4869
8582 134
8582 2182
8582 2822
8582 4870
8583 135
8583 2183
8583 2823
8583 4871
8584 136
8584 2184
8584 2824
8584 4872
8585 137
8585 2185
8585 2825
8585 4873
8586 138
8586 2186
8586 2826
8586 4874
8587 139
8587 2187
8587 2827
8587 4875
8588 140
8588 2188
8588 2828
8588 4876
8589 141
8589 2189
8589 2829
8589 4877
8590 142
8590 2190
8590 2830
8590 4878
8591 143
8591 2191
8591 2831
8591 4879
8592 144
8592 2192
8592 2832
8592 4880
8593 145
8593 2193
8593 2833
8593 4881
8594 146
8594 2194
8594 2834
8594 4882
8595 147
8595 2195
8595 2835
8595 4883
8596 148
8596 2196
8596 2836
8596 4884
8597 149
8597 2197
8597 2837
8597 4885
8598 150
8598 2198
8598 2838
8598 4886
8599 151
8599 2199
8599 2839
8599 4887
8600 152
8600 2200
8600 2840
8600 4888
8601 153
8601 2201
8601 2841
8601 4889
8602 154
8602 2202
8602 2842
8602 4890
8603 155
8603 2203
8603 2843
8603 4891
8604 156
8604 2204
8604 2844
8604 4892
8605 157
8605 2205
8605 2845
8605 4893
8606 158
8606 2206
8606 2846
8606 4894
8607 159
8607 2207
8607 2847
8607 4895
8608 160
8608 2208
8608 2848
8608 4896
8609 161
8609 2209
8609 2849
8609 4897
8610 162
8610 2210
8610 2850
8610 4898
8611 163
8611 2211
8611 2851
8611 4899
8612 164
8612 2212
8612 2852
8612 4900
8613 165
8613 2213
8613 2853
8613 4901
8614 166
8614 2214
8614 2854
8614 4902
8615 167
8615 2215
8615 2855
8615 4903
8616 168
8616 2216
8616 2856
8616 4904
8617 169
8617 2217
8617 2857
8617 4905
8618 170
8618 2218
8618 2858
8618 4906
8619 171
8619 2219
8619 2859
8619 4907
8620 172
8620 2220
8620 2860
8620 4908
8621 173
8621 2221
8621 2861
8621 4909
8622 174
8622 2222
8622 2862
8622 4910
8623 175
8623 2223
8623 2863
8623 4911
8624 176
8624 2224
8624 2864
8624 4912
8625 177
8625 2225
8625 2865
8625 4913
8626 178
8626 2226
8626 2866
8626 4914
8627 179
8627 2227
8627 2867
8627 4915
8628 180
8628 2228
8628 2868
8628 4916
8629 181
8629 2229
8629 2869
8629 4917
8630 182
8630 2230
8630 2870
8630 4918
8631 183
8631 2231
8631 2871
8631 4919
8632 184
8632 2232
8632 2872
8632 4920
8633 185
8633 2233
8633 2873
8633 4921
8634 186
8634 2234
8634 2874
8634 4922
8635 187
8635 2235
8635 2875
8635 4923
8636 188
8636 2236
8636 2876
8636 4924
8637 189
8637 2237
8637 2877
8637 4925
8638 190
8638 2238
8638 2878
8638 4926
8639 191
8639 2239
8639 2879
8639 4927
8640 192
8640 2240
8640 2880
8640 4928
8641 193
8641 2241
8641 2881
8641 4929
8642 194
8642 2242
8642 2882
8642 4930
8643 195
8643 2243
8643 2883
8643 4931
8644 196
8644 2244
8644 2884
8644 4932
8645 197
8645 2245
8645 2885
8645 4933
8646 198
8646 2246
8646 2886
8646 4934
8647 199
8647 2247
8647 2887
8647 4935
8648 200
8648 2248
8648 2888
8648 4936
8649 201
8649 2249
8649 2889
8649 4937
8650 202
8650 2250
8650 2890
8650 4938
8651 203
8651 2251
8651 2891
8651 4939
8652 204
8652 2252
8652 2892
8652 4940
8653 205
8653 2253
8653 2893
8653 4941
8654 206
8654 2254
8654 2894
8654 4942
8655 207
8655 2255
8655 2895
8655 4943
8656 208
8656 2256
8656 2896
8656 4944
8657 209
8657 2257
8657 2897
8657 4945
8658 210
8658 2258
8658 2898
8658 4946
8659 211
8659 2259
8659 2899
8659 4947
8660 212
8660 2260
8660 2900
8660 4948
8661 213
8661 2261
8661 2901
8661 4949
8662 214
8662 2262
8662 2902
8662 4950
8663 215
8663 2263
8663 2903
8663 4951
8664 216
8664 2264
8664 2904
8664 4952
8665 217
8665 2265
8665 2905
8665 4953
8666 218
8666 2266
8666 2906
8666 4954
8667 219
8667 2267
8667 2907
8667 4955
8668 220
8668 2268
8668 2908
8668 4956
8669 221
8669 2269
8669 2909
8669 4957
8670 222
8670 2270
8670 2910
8670 4958
8671 223
8671 2271
8671 2911
8671 4959
8672 224
8672 2272
8672 2912
8672 4960
8673 225
8673 2273
8673 2913
8673 4961
8674 226
8674 2274
8674 2914
8674 4962
8675 227
8675 2275
8675 2915
8675 4963
8676 228
8676 2276
8676 2916
8676 4964
8677 229
8677 2277
8677 2917
8677 4965
8678 230
8678 2278
8678 2918
8678 4966
8679 231
8679 2279
8679 2919
8679 4967
8680 232
8680 2280
8680 2920
8680 4968
8681 233
8681 2281
8681 2921
8681 4969
8682 234
8682 2282
8682 2922
8682 4970
8683 235
8683 2283
8683 2923
8683 4971
8684 236
8684 2284
8684 2924
8684 4972
8685 237
8685 2285
8685 2925
8685 4973
8686 238
8686 2286
8686 2926
8686 4974
8687 239
8687 2287
8687 2927
8687 4975
8688 240
8688 2288
8688 2928
8688 4976
8689 241
8689 2289
8689 2929
8689 4977
8690 242
8690 2290
8690 2930
8690 4978
8691 243
8691 2291
8691 2931
8691 4979
8692 244
8692 2292
8692 2932
8692 4980
8693 245
8693 2293
8693 2933
8693 4981
8694 246
8694 2294
8694 2934
8694 4982
8695 247
8695 2295
8695 2935
8695 4983
8696 248
8696 2296
8696 2936
8696 4984
8697 249
8697 2297
8697 2937
8697 4985
8698 250
8698 2298
8698 2938
8698 4986
8699 251
8699 2299
8699 2939
8699 4987
8700 252
8700 2300
8700 2940
8700 4988
8701 253
8701 2301
8701 2941
8701 4989
8702 254
8702 2302
8702 2942
8702 4990
8703 255
8703 2303
8703 2943
8703 4991
8704 256
8704 2304
8704 2944
8704 4992
8705 257
8705 2305
8705 2945
8705 4993
8706 258
8706 2306
8706 2946
8706 4994
8707 259
8707 2307
8707 2947
8707 4995
8708 260
8708 2308
8708 2948
8708 4996
8709 261
8709 2309
8709 2949
8709 4997
8710 262
8710 2310
8710 2950
8710 4998
8711 263
8711 2311
8711 2951
8711 4999
8712 264
8712 2312
8712 2952
8712 5000
8713 265
8713 2313
8713 2953
8713 5001
8714 266
8714 2314
8714 2954
8714 5002
8715 267
8715 2315
8715 2955
8715 5003
8716 268
8716 2316
8716 2956
8716 5004
8717 269
8717 2317
8717 2957
8717 5005
8718 270
8718 2318
8718 2958
8718 5006
8719 271
8719 2319
8719 2959
8719 5007
8720 272
8720 2320
8720 2960
8720 5008
8721 273
8721 2321
8721 2961
8721 5009
8722 274
8722 2322
8722 2962
8722 5010
8723 275
8723 2323
8723 2963
8723 5011
8724 276
8724 2324
8724 2964
8724 5012
8725 277
8725 2325
8725 2965
8725 5013
8726 278
8726 2326
8726 2966
8726 5014
8727 279
8727 2327
8727 2967
8727 5015
8728 280
8728 2328
8728 2968
8728 5016
8729 281
8729 2329
8729 2969
8729 5017
8730 282
8730 2330
8730 2970
8730 5018
8731 283
8731 2331
8731 2971
8731 5019
8732 284
8732 2332
8732 2972
8732 5020
8733 285
8733 2333
8733 2973
8733 5021
8734 286
8734 2334
8734 2974
8734 5022
8735 287
8735 2335
8735 2975
8735 5023
8736 288
8736 2336
8736 2976
8736 5024
8737 289
8737 2337
8737 2977
8737 5025
8738 290
8738 2338
8738 2978
8738 5026
8739 291
8739 2339
8739 2979
8739 5027
8740 292
8740 2340
8740 2980
8740 5028
8741 293
8741 2341
8741 2981
8741 5029
8742 294
8742 2342
8742 2982
8742 5030
8743 295
8743 2343
8743 2983
8743 5031
8744 296
8744 2344
8744 2984
8744 5032
8745 297
8745 2345
8745 2985
8745 5033
8746 298
8746 2346
8746 2986
8746 5034
8747 299
8747 2347
8747 2987
8747 5035
8748 300
8748 2348
8748 2988
8748 5036
8749 301
8749 2349
8749 2989
8749 5037
8750 302
8750 2350
8750 2990
8750 5038
8751 303
8751 2351
8751 2991
8751 5039
8752 304
8752 2352
8752 2992
8752 5040
8753 305
8753 2353
8753 2993
8753 5041
8754 306
8754 2354
8754 2994
8754 5042
8755 307
8755 2355
8755 2995
8755 5043
8756 308
8756 2356
8756 2996
8756 5044
8757 309
8757 2357
8757 2997
8757 5045
8758 310
8758 2358
8758 2998
8758 5046
8759 311
8759 2359
8759 2999
8759 5047
8760 312
8760 2360
8760 3000
8760 5048
8761 313
8761 2361
8761 3001
8761 5049
8762 314
8762 2362
8762 3002
8762 5050
8763 315
8763 2363
8763 3003
8763 5051
8764 316
8764 2364
8764 3004
8764 5052
8765 317
8765 2365
8765 3005
8765 5053
8766 318
8766 2366
8766 3006
8766 5054
8767 319
8767 2367
8767 3007
8767 5055
8768 320
8768 2368
8768 3008
8768 5056
8769 321
8769 2369
8769 3009
8769 5057
8770 322
8770 2370
8770 3010
8770 5058
8771 323
8771 2371
8771 3011
8771 5059
8772 324
8772 2372
8772 3012
8772 5060
8773 325
8773 2373
8773 3013
8773 5061
8774 326
8774 2374
8774 3014
8774 5062
8775 327
8775 2375
8775 3015
8775 5063
8776 328
8776 2376
8776 3016
8776 5064
8777 329
8777 2377
8777 3017
8777 5065
8778 330
8778 2378
8778 3018
8778 5066
8779 331
8779 2379
8779 3019
8779 5067
8780 332
8780 2380
8780 3020
8780 5068
8781 333
8781 2381
8781 3021
8781 5069
8782 334
8782 2382
8782 3022
8782 5070
8783 335
8783 2383
8783 3023
8783 5071
8784 336
8784 2384
8784 3024
8784 5072
8785 337
8785 2385
8785 3025
8785 5073
8786 338
8786 2386
8786 3026
8786 5074
8787 339
8787 2387
8787 3027
8787 5075
8788 340
8788 2388
8788 3028
8788 5076
8789 341
8789 2389
8789 3029
8789 5077
8790 342
8790 2390
8790 3030
8790 5078
8791 343
8791 2391
8791 3031
8791 5079
8792 344
8792 2392
8792 3032
8792 5080
8793 345
8793 2393
8793 3033
8793 5081
8794 346
8794 2394
8794 3034
8794 5082
8795 347
8795 2395
8795 3035
8795 5083
8796 348
8796 2396
8796 3036
8796 5084
8797 349
8797 2397
8797 3037
8797 5085
8798 350
8798 2398
8798 3038
8798 5086
8799 351
8799 2399
8799 3039
8799 5087
8800 352
8800 2400
8800 3040
8800 5088
8801 353
8801 2401
8801 3041
8801 5089
8802 354
8802 2402
8802 3042
8802 5090
8803 355
8803 2403
8803 3043
8803 5091
8804 356
8804 2404
8804 3044
8804 5092
8805 357
8805 2405
8805 3045
8805 5093
8806 358
8806 2406
8806 3046
8806 5094
8807 359
8807 2407
8807 3047
8807 5095
8808 360
8808 2408
8808 3048
8808 5096
8809 361
8809 2409
8809 3049
8809 5097
8810 362
8810 2410
8810 3050
8810 5098
8811 363
8811 2411
8811 3051
8811 5099
8812 364
8812 2412
8812 3052
8812 5100
8813 365
8813 2413
8813 3053
8813 5101
8814 366
8814 2414
8814 3054
8814 5102
8815 367
8815 2415
8815 3055
8815 5103
8816 368
8816 2416
8816 3056
8816 5104
8817 369
8817 2417
8817 3057
8817 5105
8818 370
8818 2418
8818 3058
8818 5106
8819 371
8819 2419
8819 3059
8819 5107
8820 372
8820 2420
8820 3060
8820 5108
8821 373
8821 2421
8821 3061
8821 5109
8822 374
8822 2422
8822 3062
8822 5110
8823 375
8823 2423
8823 3063
8823 5111
8824 376
8824 2424
8824 3064
8824 5112
8825 377
8825 2425
8825 3065
8825 5113
8826 378
8826 2426
8826 3066
8826 5114
8827 379
8827 2427
8827 3067
8827 5115
8828 380
8828 2428
8828 3068
8828 5116
8829 381
8829 2429
8829 3069
8829 5117
8830 382
8830 2430
8830 3070
8830 5118
8831 383
8831 2431
8831 3071
8831 5119
8832 384
8832 2432
8832 3072
8832 5120
8833 385
8833 2433
8833 3073
8833 5121
8834 386
8834 2434
8834 3074
8834 5122
8835 387
8835 2435
8835 3075
8835 5123
8836 388
8836 2436
8836 3076
8836 5124
8837 389
8837 2437
8837 3077
8837 5125
8838 390
8838 2438
8838 3078
8838 5126
8839 391
8839 2439
8839 3079
8839 5127
8840 392
8840 2440
8840 3080
8840 5128
8841 393
8841 2441
8841 3081
8841 5129
8842 394
8842 2442
8842 3082
8842 5130
8843 395
8843 2443
8843 3083
8843 5131
8844 396
8844 2444
8844 3084
8844 5132
8845 397
8845 2445
8845 3085
8845 5133
8846 398
8846 2446
8846 3086
8846 5134
8847 399
8847 2447
8847 3087
8847 5135
8848 400
8848 2448
8848 3088
8848 5136
8849 401
8849 2449
8849 3089
8849 5137
8850 402
8850 2450
8850 3090
8850 5138
8851 403
8851 2451
8851 3091
8851 5139
8852 404
8852 2452
8852 3092
8852 5140
8853 405
8853 2453
8853 3093
8853 5141
8854 406
8854 2454
8854 3094
8854 5142
8855 407
8855 2455
8855 3095
8855 5143
8856 408
8856 2456
8856 3096
8856 5144
8857 409
8857 2457
8857 3097
8857 5145
8858 410
8858 2458
8858 3098
8858 5146
8859 411
8859 2459
8859 3099
8859 5147
8860 412
8860 2460
8860 3100
8860 5148
8861 413
8861 2461
8861 3101
8861 5149
8862 414
8862 2462
8862 3102
8862 5150
8863 415
8863 2463
8863 3103
8863 5151
8864 416
8864 2464
8864 3104
8864 5152
8865 417
8865 2465
8865 3105
8865 5153
8866 418
8866 2466
8866 3106
8866 5154
8867 419
8867 2467
8867 3107
8867 5155
8868 420
8868 2468
8868 3108
8868 5156
8869 421
8869 2469
8869 3109
8869 5157
8870 422
8870 2470
8870 3110
8870 5158
8871 423
8871 2471
8871 3111
8871 5159
8872 424
8872 2472
8872 3112
8872 5160
8873 425
8873 2473
8873 3113
8873 5161
8874 426
8874 2474
8874 3114
8874 5162
8875 427
8875 2475
8875 3115
8875 5163
8876 428
8876 2476
8876 3116
8876 5164
8877 429
8877 2477
8877 3117
8877 5165
8878 430
8878 2478
8878 3118
8878 5166
8879 431
8879 2479
8879 3119
8879 5167
8880 432
8880 2480
8880 3120
8880 5168
8881 433
8881 2481
8881 3121
8881 5169
8882 434
8882 2482
8882 3122
8882 5170
8883 435
8883 2483
8883 3123
8883 5171
8884 436
8884 2484
8884 3124
8884 5172
8885 437
8885 2485
8885 3125
8885 5173
8886 438
8886 2486
8886 3126
8886 5174
8887 439
8887 2487
8887 3127
8887 5175
8888 440
8888 2488
8888 3128
8888 5176
8889 441
8889 2489
8889 3129
8889 5177
8890 442
8890 2490
8890 3130
8890 5178
8891 443
8891 2491
8891 3131
8891 5179
8892 444
8892 2492
8892 3132
8892 5180
8893 445
8893 2493
8893 3133
8893 5181
8894 446
8894 2494
8894 3134
8894 5182
8895 447
8895 2495
8895 3135
8895 5183
8896 448
8896 2496
8896 3136
8896 5184
8897 449
8897 2497
8897 3137
8897 5185
8898 450
8898 2498
8898 3138
8898 5186
8899 451
8899 2499
8899 3139
8899 5187
8900 452
8900 2500
8900 3140
8900 5188
8901 453
8901 2501
8901 3141
8901 5189
8902 454
8902 2502
8902 3142
8902 5190
8903 455
8903 2503
8903 3143
8903 5191
8904 456
8904 2504
8904 3144
8904 5192
8905 457
8905 2505
8905 3145
8905 5193
8906 458
8906 2506
8906 3146
8906 5194
8907 459
8907 2507
8907 3147
8907 5195
8908 460
8908 2508
8908 3148
8908 5196
8909 461
8909 2509
8909 3149
8909 5197
8910 462
8910 2510
8910 3150
8910 5198
8911 463
8911 2511
8911 3151
8911 5199
8912 464
8912 2512
8912 3152
8912 5200
8913 465
8913 2513
8913 3153
8913 5201
8914 466
8914 2514
8914 3154
8914 5202
8915 467
8915 2515
8915 3155
8915 5203
8916 468
8916 2516
8916 3156
8916 5204
8917 469
8917 2517
8917 3157
8917 5205
8918 470
8918 2518
8918 3158
8918 5206
8919 471
8919 2519
8919 3159
8919 5207
8920 472
8920 2520
8920 3160
8920 5208
8921 473
8921 2521
8921 3161
8921 5209
8922 474
8922 2522
8922 3162
8922 5210
8923 475
8923 2523
8923 3163
8923 5211
8924 476
8924 2524
8924 3164
8924 5212
8925 477
8925 2525
8925 3165
8925 5213
8926 478
8926 2526
8926 3166
8926 5214
8927 479
8927 2527
8927 3167
8927 5215
8928 480
8928 2528
8928 3168
8928 5216
8929 481
8929 2529
8929 3169
8929 5217
8930 482
8930 2530
8930 3170
8930 5218
8931 483
8931 2531
8931 3171
8931 5219
8932 484
8932 2532
8932 3172
8932 5220
8933 485
8933 2533
8933 3173
8933 5221
8934 486
8934 2534
8934 3174
8934 5222
8935 487
8935 2535
8935 3175
8935 5223
8936 488
8936 2536
8936 3176
8936 5224
8937 489
8937 2537
8937 3177
8937 5225
8938 490
8938 2538
8938 3178
8938 5226
8939 491
8939 2539
8939 3179
8939 5227
8940 492
8940 2540
8940 3180
8940 5228
8941 493
8941 2541
8941 3181
8941 5229
8942 494
8942 2542
8942 3182
8942 5230
8943 495
8943 2543
8943 3183
8943 5231
8944 496
8944 2544
8944 3184
8944 5232
8945 497
8945 2545
8945 3185
8945 5233
8946 498
8946 2546
8946 3186
8946 5234
8947 499
8947 2547
8947 3187
8947 5235
8948 500
8948 2548
8948 3188
8948 5236
8949 501
8949 2549
8949 3189
8949 5237
8950 502
8950 2550
8950 3190
8950 5238
8951 503
8951 2551
8951 3191
8951 5239
8952 504
8952 2552
8952 3192
8952 5240
8953 505
8953 2553
8953 3193
8953 5241
8954 506
8954 2554
8954 3194
8954 5242
8955 507
8955 2555
8955 3195
8955 5243
8956 508
8956 2556
8956 3196
8956 5244
8957 509
8957 2557
8957 3197
8957 5245
8958 510
8958 2558
8958 3198
8958 5246
8959 511
8959 2559
8959 3199
8959 5247
8960 512
8960 2560
8960 3200
8960 5248
8961 513
8961 2561
8961 3201
8961 5249
8962 514
8962 2562
8962 3202
8962 5250
8963 515
8963 2563
8963 3203
8963 5251
8964 516
8964 2564
8964 3204
8964 5252
8965 517
8965 2565
8965 3205
8965 5253
8966 518
8966 2566
8966 3206
8966 5254
8967 519
8967 2567
8967 3207
8967 5255
8968 520
8968 2568
8968 3208
8968 5256
8969 521
8969 2569
8969 3209
8969 5257
8970 522
8970 2570
8970 3210
8970 5258
8971 523
8971 2571
8971 3211
8971 5259
8972 524
8972 2572
8972 3212
8972 5260
8973 525
8973 2573
8973 3213
8973 5261
8974 526
8974 2574
8974 3214
8974 5262
8975 527
8975 2575
8975 3215
8975 5263
8976 528
8976 2576
8976 3216
8976 5264
8977 529
8977 2577
8977 3217
8977 5265
8978 530
8978 2578
8978 3218
8978 5266
8979 531
8979 2579
8979 3219
8979 5267
8980 532
8980 2580
8980 3220
8980 5268
8981 533
8981 2581
8981 3221
8981 5269
8982 534
8982 2582
8982 3222
8982 5270
8983 535
8983 2583
8983 3223
8983 5271
8984 536
8984 2584
8984 3224
8984 5272
8985 537
8985 2585
8985 3225
8985 5273
8986 538
8986 2586
8986 3226
8986 5274
8987 539
8987 2587
8987 3227
8987 5275
8988 540
8988 2588
8988 3228
8988 5276
8989 541
8989 2589
8989 3229
8989 5277
8990 542
8990 2590
8990 3230
8990 5278
8991 543
8991 2591
8991 3231
8991 5279
8992 544
8992 2592
8992 3232
8992 5280
8993 545
8993 2593
8993 3233
8993 5281
8994 546
8994 2594
8994 3234
8994 5282
8995 547
8995 2595
8995 3235
8995 5283
8996 548
8996 2596
8996 3236
8996 5284
8997 549
8997 2597
8997 3237
8997 5285
8998 550
8998 2598
8998 3238
8998 5286
8999 551
8999 2599
8999 3239
8999 5287
9000 552
9000 2600
9000 3240
9000 5288
9001 553
9001 2601
9001 3241
9001 5289
9002 554
9002 2602
9002 3242
9002 5290
9003 555
9003 2603
9003 3243
9003 5291
9004 556
9004 2604
9004 3244
9004 5292
9005 557
9005 2605
9005 3245
9005 5293
9006 558
9006 2606
9006 3246
9006 5294
9007 559
9007 2607
9007 3247
9007 5295
9008 560
9008 2608
9008 3248
9008 5296
9009 561
9009 2609
9009 3249
9009 5297
9010 562
9010 2610
9010 3250
9010 5298
9011 563
9011 2611
9011 3251
9011 5299
9012 564
9012 2612
9012 3252
9012 5300
9013 565
9013 2613
9013 3253
9013 5301
9014 566
9014 2614
9014 3254
9014 5302
9015 567
9015 2615
9015 3255
9015 5303
9016 568
9016 2616
9016 3256
9016 5304
9017 569
9017 2617
9017 3257
9017 5305
9018 570
9018 2618
9018 3258
9018 5306
9019 571
9019 2619
9019 3259
9019 5307
9020 572
9020 2620
9020 3260
9020 5308
9021 573
9021 2621
9021 3261
9021 5309
9022 574
9022 2622
9022 3262
9022 5310
9023 575
9023 2623
9023 3263
9023 5311
9024 576
9024 2624
9024 3264
9024 5312
9025 577
9025 2625
9025 3265
9025 5313
9026 578
9026 2626
9026 3266
9026 5314
9027 579
9027 2627
9027 3267
9027 5315
9028 580
9028 2628
9028 3268
9028 5316
9029 581
9029 2629
9029 3269
9029 5317
9030 582
9030 2630
9030 3270
9030 5318
9031 583
9031 2631
9031 3271
9031 5319
9032 584
9032 2632
9032 3272
9032 5320
9033 585
9033 2633
9033 3273
9033 5321
9034 586
9034 2634
9034 3274
9034 5322
9035 587
9035 2635
9035 3275
9035 5323
9036 588
9036 2636
9036 3276
9036 5324
9037 589
9037 2637
9037 3277
9037 5325
9038 590
9038 2638
9038 3278
9038 5326
9039 591
9039 2639
9039 3279
9039 5327
9040 592
9040 2640
9040 3280
9040 5328
9041 593
9041 2641
9041 3281
9041 5329
9042 594
9042 2642
9042 3282
9042 5330
9043 595
9043 2643
9043 3283
9043 5331
9044 596
9044 2644
9044 3284
9044 5332
9045 597
9045 2645
9045 3285
9045 5333
9046 598
9046 2646
9046 3286
9046 5334
9047 599
9047 2647
9047 3287
9047 5335
9048 600
9048 2648
9048 3288
9048 5336
9049 601
9049 2649
9049 3289
9049 5337
9050 602
9050 2650
9050 3290
9050 5338
9051 603
9051 2651
9051 3291
9051 5339
9052 604
9052 2652
9052 3292
9052 5340
9053 605
9053 2653
9053 3293
9053 5341
9054 606
9054 2654
9054 3294
9054 5342
9055 607
9055 2655
9055 3295
9055 5343
9056 608
9056 2656
9056 3296
9056 5344
9057 609
9057 2657
9057 3297
9057 5345
9058 610
9058 2658
9058 3298
9058 5346
9059 611
9059 2659
9059 3299
9059 5347
9060 612
9060 2660
9060 3300
9060 5348
9061 613
9061 2661
9061 3301
9061 5349
9062 614
9062 2662
9062 3302
9062 5350
9063 615
9063 2663
9063 3303
9063 5351
9064 616
9064 2664
9064 3304
9064 5352
9065 617
9065 2665
9065 3305
9065 5353
9066 618
9066 2666
9066 3306
9066 5354
9067 619
9067 2667
9067 3307
9067 5355
9068 620
9068 2668
9068 3308
9068 5356
9069 621
9069 2669
9069 3309
9069 5357
9070 622
9070 2670
9070 3310
9070 5358
9071 623
9071 2671
9071 3311
9071 5359
9072 624
9072 2672
9072 3312
9072 5360
9073 625
9073 2673
9073 3313
9073 5361
9074 626
9074 2674
9074 3314
9074 5362
9075 627
9075 2675
9075 3315
9075 5363
9076 628
9076 2676
9076 3316
9076 5364
9077 629
9077 2677
9077 3317
9077 5365
9078 630
9078 2678
9078 3318
9078 5366
9079 631
9079 2679
9079 3319
9079 5367
9080 632
9080 2680
9080 3320
9080 5368
9081 633
9081 2681
9081 3321
9081 5369
9082 634
9082 2682
9082 3322
9082 5370
9083 635
9083 2683
9083 3323
9083 5371
9084 636
9084 2684
9084 3324
9084 5372
9085 637
9085 2685
9085 3325
9085 5373
9086 638
9086 2686
9086 3326
9086 5374
9087 639
9087 2687
9087 3327
9087 5375
9088 640
9088 2688
9088 3328
9088 5376
9089 641
9089 2689
9089 3329
9089 5377
9090 642
9090 2690
9090 3330
9090 5378
9091 643
9091 2691
9091 3331
9091 5379
9092 644
9092 2692
9092 3332
9092 5380
9093 645
9093 2693
9093 3333
9093 5381
9094 646
9094 2694
9094 3334
9094 5382
9095 647
9095 2695
9095 3335
9095 5383
9096 648
9096 2696
9096 3336
9096 5384
9097 649
9097 2697
9097 3337
9097 5385
9098 650
9098 2698
9098 3338
9098 5386
9099 651
9099 2699
9099 3339
9099 5387
9100 652
9100 2700
9100 3340
9100 5388
9101 653
9101 2701
9101 3341
9101 5389
9102 654
9102 2702
9102 3342
9102 5390
9103 655
9103 2703
9103 3343
9103 5391
9104 656
9104 2704
9104 3344
9104 5392
9105 657
9105 2705
9105 3345
9105 5393
9106 658
9106 2706
9106 3346
9106 5394
9107 659
9107 2707
9107 3347
9107 5395
9108 660
9108 2708
9108 3348
9108 5396
9109 661
9109 2709
9109 3349
9109 5397
9110 662
9110 2710
9110 3350
9110 5398
9111 663
9111 2711
9111 3351
9111 5399
9112 664
9112 2712
9112 3352
9112 5400
9113 665
9113 2713
9113 3353
9113 5401
9114 666
9114 2714
9114 3354
9114 5402
9115 667
9115 2715
9115 3355
9115 5403
9116 668
9116 2716
9116 3356
9116 5404
9117 669
9117 2717
9117 3357
9117 5405
9118 670
9118 2718
9118 3358
9118 5406
9119 671
9119 2719
9119 3359
9119 5407
9120 672
9120 2720
9120 3360
9120 5408
9121 673
9121 2721
9121 3361
9121 5409
9122 674
9122 2722
9122 3362
9122 5410
9123 675
9123 2723
9123 3363
9123 5411
9124 676
9124 2724
9124 3364
9124 5412
9125 677
9125 2725
9125 3365
9125 5413
9126 678
9126 2726
9126 3366
9126 5414
9127 679
9127 2727
9127 3367
9127 5415
9128 680
9128 2728
9128 3368
9128 5416
9129 681
9129 2729
9129 3369
9129 5417
9130 682
9130 2730
9130 3370
9130 5418
9131 683
9131 2731
9131 3371
9131 5419
9132 684
9132 2732
9132 3372
9132 5420
9133 685
9133 2733
9133 3373
9133 5421
9134 686
9134 2734
9134 3374
9134 5422
9135 687
9135 2735
9135 3375
9135 5423
9136 688
9136 2736
9136 3376
9136 5424
9137 689
9137 2737
9137 3377
9137 5425
9138 690
9138 2738
9138 3378
9138 5426
9139 691
9139 2739
9139 3379
9139 5427
9140 692
9140 2740
9140 3380
9140 5428
9141 693
9141 2741
9141 3381
9141 5429
9142 694
9142 2742
9142 3382
9142 5430
9143 695
9143 2743
9143 3383
9143 5431
9144 696
9144 2744
9144 3384
9144 5432
9145 697
9145 2745
9145 3385
9145 5433
9146 698
9146 2746
9146 3386
9146 5434
9147 699
9147 2747
9147 3387
9147 5435
9148 700
9148 2748
9148 3388
9148 5436
9149 701
9149 2749
9149 3389
9149 5437
9150 702
9150 2750
9150 3390
9150 5438
9151 703
9151 2751
9151 3391
9151 5439
9152 704
9152 2752
9152 3392
9152 5440
9153 705
9153 2753
9153 3393
9153 5441
9154 706
9154 2754
9154 3394
9154 5442
9155 707
9155 2755
9155 3395
9155 5443
9156 708
9156 2756
9156 3396
9156 5444
9157 709
9157 2757
9157 3397
9157 5445
9158 710
9158 2758
9158 3398
9158 5446
9159 711
9159 2759
9159 3399
9159 5447
9160 712
9160 2760
9160 3400
9160 5448
9161 713
9161 2761
9161 3401
9161 5449
9162 714
9162 2762
9162 3402
9162 5450
9163 715
9163 2763
9163 3403
9163 5451
9164 716
9164 2764
9164 3404
9164 5452
9165 717
9165 2765
9165 3405
9165 5453
9166 718
9166 2766
9166 3406
9166 5454
9167 719
9167 2767
9167 3407
9167 5455
9168 720
9168 2768
9168 3408
9168 5456
9169 721
9169 2769
9169 3409
9169 5457
9170 722
9170 2770
9170 3410
9170 5458
9171 723
9171 2771
9171 3411
9171 5459
9172 724
9172 2772
9172 3412
9172 5460
9173 725
9173 2773
9173 3413
9173 5461
9174 726
9174 2774
9174 3414
9174 5462
9175 727
9175 2775
9175 3415
9175 5463
9176 728
9176 2776
9176 3416
9176 5464
9177 729
9177 2777
9177 3417
9177 5465
9178 730
9178 2778
9178 3418
9178 5466
9179 731
9179 2779
9179 3419
9179 5467
9180 732
9180 2780
9180 3420
9180 5468
9181 733
9181 2781
9181 3421
9181 5469
9182 734
9182 2782
9182 3422
9182 5470
9183 735
9183 2783
9183 3423
9183 5471
9184 736
9184 2784
9184 3424
9184 5472
9185 737
9185 2785
9185 3425
9185 5473
9186 738
9186 2786
9186 3426
9186 5474
9187 739
9187 2787
9187 3427
9187 5475
9188 740
9188 2788
9188 3428
9188 5476
9189 741
9189 2789
9189 3429
9189 5477
9190 742
9190 2790
9190 3430
9190 5478
9191 743
9191 2791
9191 3431
9191 5479
9192 744
9192 2792
9192 3432
9192 5480
9193 745
9193 2793
9193 3433
9193 5481
9194 746
9194 2794
9194 3434
9194 5482
9195 747
9195 2795
9195 3435
9195 5483
9196 748
9196 2796
9196 3436
9196 5484
9197 749
9197 2797
9197 3437
9197 5485
9198 750
9198 2798
9198 3438
9198 5486
9199 751
9199 2799
9199 3439
9199 5487
9200 752
9200 2800
9200 3440
9200 5488
9201 753
9201 2801
9201 3441
9201 5489
9202 754
9202 2802
9202 3442
9202 5490
9203 755
9203 2803
9203 3443
9203 5491
9204 756
9204 2804
9204 3444
9204 5492
9205 757
9205 2805
9205 3445
9205 5493
9206 758
9206 2806
9206 3446
9206 5494
9207 759
9207 2807
9207 3447
9207 5495
9208 760
9208 2808
9208 3448
9208 5496
9209 761
9209 2809
9209 3449
9209 5497
9210 762
9210 2810
9210 3450
9210 5498
9211 763
9211 2811
9211 3451
9211 5499
9212 764
9212 2812
9212 3452
9212 5500
9213 765
9213 2813
9213 3453
9213 5501
9214 766
9214 2814
9214 3454
9214 5502
9215 767
9215 2815
9215 3455
9215 5503
9216 768
9216 1408
9216 3456
9216 5504
9217 769
9217 1409
9217 3457
9217 5505
9218 770
9218 1410
9218 3458
9218 5506
9219 771
9219 1411
9219 3459
9219 5507
9220 772
9220 1412
9220 3460
9220 5508
9221 773
9221 1413
9221 3461
9221 5509
9222 774
9222 1414
9222 3462
9222 5510
9223 775
9223 1415
9223 3463
9223 5511
9224 776
9224 1416
9224 3464
9224 5512
9225 777
9225 1417
9225 3465
9225 5513
9226 778
9226 1418
9226 3466
9226 5514
9227 779
9227 1419
9227 3467
9227 5515
9228 780
9228 1420
9228 3468
9228 5516
9229 781
9229 1421
9229 3469
9229 5517
9230 782
9230 1422
9230 3470
9230 5518
9231 783
9231 1423
9231 3471
9231 5519
9232 784
9232 1424
9232 3472
9232 5520
9233 785
9233 1425
9233 3473
9233 5521
9234 786
9234 1426
9234 3474
9234 5522
9235 787
9235 1427
9235 3475
9235 5523
9236 788
9236 1428
9236 3476
9236 5524
9237 789
9237 1429
9237 3477
9237 5525
9238 790
9238 1430
9238 3478
9238 5526
9239 791
9239 1431
9239 3479
9239 5527
9240 792
9240 1432
9240 3480
9240 5528
9241 793
9241 1433
9241 3481
9241 5529
9242 794
9242 1434
9242 3482
9242 5530
9243 795
9243 1435
9243 3483
9243 5531
9244 796
9244 1436
9244 3484
9244 5532
9245 797
9245 1437
9245 3485
9245 5533
9246 798
9246 1438
9246 3486
9246 5534
9247 799
9247 1439
9247 3487
9247 5535
9248 800
9248 1440
9248 3488
9248 5536
9249 801
9249 1441
9249 3489
9249 5537
9250 802
9250 1442
9250 3490
9250 5538
9251 803
9251 1443
9251 3491
9251 5539
9252 804
9252 1444
9252 3492
9252 5540
9253 805
9253 1445
9253 3493
9253 5541
9254 806
9254 1446
9254 3494
9254 5542
9255 807
9255 1447
9255 3495
9255 5543
9256 808
9256 1448
9256 3496
9256 5544
9257 809
9257 1449
9257 3497
9257 5545
9258 810
9258 1450
9258 3498
9258 5546
9259 811
9259 1451
9259 3499
9259 5547
9260 812
9260 1452
9260 3500
9260 5548
9261 813
9261 1453
9261 3501
9261 5549
9262 814
9262 1454
9262 3502
9262 5550
9263 815
9263 1455
9263 3503
9263 5551
9264 816
9264 1456
9264 3504
9264 5552
9265 817
9265 1457
9265 3505
9265 5553
9266 818
9266 1458
9266 3506
9266 5554
9267 819
9267 1459
9267 3507
9267 5555
9268 820
9268 1460
9268 3508
9268 5556
9269 821
9269 1461
9269 3509
9269 5557
9270 822
9270 1462
9270 3510
9270 5558
9271 823
9271 1463
9271 3511
9271 5559
9272 824
9272 1464
9272 3512
9272 5560
9273 825
9273 1465
9273 3513
9273 5561
9274 826
9274 1466
9274 3514
9274 5562
9275 827
9275 1467
9275 3515
9275 5563
9276 828
9276 1468
9276 3516
9276 5564
9277 829
9277 1469
9277 3517
9277 5565
9278 830
9278 1470
9278 3518
9278 5566
9279 831
9279 1471
9279 3519
9279 5567
9280 832
9280 1472
9280 3520
9280 5568
9281 833
9281 1473
9281 3521
9281 5569
9282 834
9282 1474
9282 3522
9282 5570
9283 835
9283 1475
9283 3523
9283 5571
9284 836
9284 1476
9284 3524
9284 5572
9285 837
9285 1477
9285 3525
9285 5573
9286 838
9286 1478
9286 3526
9286 5574
9287 839
9287 1479
9287 3527
9287 5575
9288 840
9288 1480
9288 3528
9288 5576
9289 841
9289 1481
9289 3529
9289 5577
9290 842
9290 1482
9290 3530
9290 5578
9291 843
9291 1483
9291 3531
9291 5579
9292 844
9292 1484
9292 3532
9292 5580
9293 845
9293 1485
9293 3533
9293 5581
9294 846
9294 1486
9294 3534
9294 5582
9295 847
9295 1487
9295 3535
9295 5583
9296 848
9296 1488
9296 3536
9296 5584
9297 849
9297 1489
9297 3537
9297 5585
9298 850
9298 1490
9298 3538
9298 5586
9299 851
9299 1491
9299 3539
9299 5587
9300 852
9300 1492
9300 3540
9300 5588
9301 853
9301 1493
9301 3541
9301 5589
9302 854
9302 1494
9302 3542
9302 5590
9303 855
9303 1495
9303 3543
9303 5591
9304 856
9304 1496
9304 3544
9304 5592
9305 857
9305 1497
9305 3545
9305 5593
9306 858
9306 1498
9306 3546
9306 5594
9307 859
9307 1499
9307 3547
9307 5595
9308 860
9308 1500
9308 3548
9308 5596
9309 861
9309 1501
9309 3549
9309 5597
9310 862
9310 1502
9310 3550
9310 5598
9311 863
9311 1503
9311 3551
9311 5599
9312 864
9312 1504
9312 3552
9312 5600
9313 865
9313 1505
9313 3553
9313 5601
9314 866
9314 1506
9314 3554
9314 5602
9315 867
9315 1507
9315 3555
9315 5603
9316 868
9316 1508
9316 3556
9316 5604
9317 869
9317 1509
9317 3557
9317 5605
9318 870
9318 1510
9318 3558
9318 5606
9319 871
9319 1511
9319 3559
9319 5607
9320 872
9320 1512
9320 3560
9320 5608
9321 873
9321 1513
9321 3561
9321 5609
9322 874
9322 1514
9322 3562
9322 5610
9323 875
9323 1515
9323 3563
9323 5611
9324 876
9324 1516
9324 3564
9324 5612
9325 877
9325 1517
9325 3565
9325 5613
9326 878
9326 1518
9326 3566
9326 5614
9327 879
9327 1519
9327 3567
9327 5615
9328 880
9328 1520
9328 3568
9328 5616
9329 881
9329 1521
9329 3569
9329 5617
9330 882
9330 1522
9330 3570
9330 5618
9331 883
9331 1523
9331 3571
9331 5619
9332 884
9332 1524
9332 3572
9332 5620
9333 885
9333 1525
9333 3573
9333 5621
9334 886
9334 1526
9334 3574
9334 5622
9335 887
9335 1527
9335 3575
9335 5623
9336 888
9336 1528
9336 3576
9336 5624
9337 889
9337 1529
9337 3577
9337 5625
9338 890
9338 1530
9338 3578
9338 5626
9339 891
9339 1531
9339 3579
9339 5627
9340 892
9340 1532
9340 3580
9340 5628
9341 893
9341 1533
9341 3581
9341 5629
9342 894
9342 1534
9342 3582
9342 5630
9343 895
9343 1535
9343 3583
9343 5631
9344 896
9344 1536
9344 3584
9344 4224
9345 897
9345 1537
9345 3585
9345 4225
9346 898
9346 1538
9346 3586
9346 4226
9347 899
9347 1539
9347 3587
9347 4227
9348 900
9348 1540
9348 3588
9348 4228
9349 901
9349 1541
9349 3589
9349 4229
9350 902
9350 1542
9350 3590
9350 4230
9351 903
9351 1543
9351 3591
9351 4231
9352 904
9352 1544
9352 3592
9352 4232
9353 905
9353 1545
9353 3593
9353 4233
9354 906
9354 1546
9354 3594
9354 4234
9355 907
9355 1547
9355 3595
9355 4235
9356 908
9356 1548
9356 3596
9356 4236
9357 909
9357 1549
9357 3597
9357 4237
9358 910
9358 1550
9358 3598
9358 4238
9359 911
9359 1551
9359 3599
9359 4239
9360 912
9360 1552
9360 3600
9360 4240
9361 913
9361 1553
9361 3601
9361 4241
9362 914
9362 1554
9362 3602
9362 4242
9363 915
9363 1555
9363 3603
9363 4243
9364 916
9364 1556
9364 3604
9364 4244
9365 917
9365 1557
9365 3605
9365 4245
9366 918
9366 1558
9366 3606
9366 4246
9367 919
9367 1559
9367 3607
9367 4247
9368 920
9368 1560
9368 3608
9368 4248
9369 921
9369 1561
9369 3609
9369 4249
9370 922
9370 1562
9370 3610
9370 4250
9371 923
9371 1563
9371 3611
9371 4251
9372 924
9372 1564
9372 3612
9372 4252
9373 925
9373 1565
9373 3613
9373 4253
9374 926
9374 1566
9374 3614
9374 4254
9375 927
9375 1567
9375 3615
9375 4255
9376 928
9376 1568
9376 3616
9376 4256
9377 929
9377 1569
9377 3617
9377 4257
9378 930
9378 1570
9378 3618
9378 4258
9379 931
9379 1571
9379 3619
9379 4259
9380 932
9380 1572
9380 3620
9380 4260
9381 933
9381 1573
9381 3621
9381 4261
9382 934
9382 1574
9382 3622
9382 4262
9383 935
9383 1575
9383 3623
9383 4263
9384 936
9384 1576
9384 3624
9384 4264
9385 937
9385 1577
9385 3625
9385 4265
9386 938
9386 1578
9386 3626
9386 4266
9387 939
9387 1579
9387 3627
9387 4267
9388 940
9388 1580
9388 3628
9388 4268
9389 941
9389 1581
9389 3629
9389 4269
9390 942
9390 1582
9390 3630
9390 4270
9391 943
9391 1583
9391 3631
9391 4271
9392 944
9392 1584
9392 3632
9392 4272
9393 945
9393 1585
9393 3633
9393 4273
9394 946
9394 1586
9394 3634
9394 4274
9395 947
9395 1587
9395 3635
9395 4275
9396 948
9396 1588
9396 3636
9396 4276
9397 949
9397 1589
9397 3637
9397 4277
9398 950
9398 1590
9398 3638
9398 4278
9399 951
9399 1591
9399 3639
9399 4279
9400 952
9400 1592
9400 3640
9400 4280
9401 953
9401 1593
9401 3641
9401 4281
9402 954
9402 1594
9402 3642
9402 4282
9403 955
9403 1595
9403 3643
9403 4283
9404 956
9404 1596
9404 3644
9404 4284
9405 957
9405 1597
9405 3645
9405 4285
9406 958
9406 1598
9406 3646
9406 4286
9407 959
9407 1599
9407 3647
9407 4287
9408 960
9408 1600
9408 3648
9408 4288
9409 961
9409 1601
9409 3649
9409 4289
9410 962
9410 1602
9410 3650
9410 4290
9411 963
9411 1603
9411 3651
9411 4291
9412 964
9412 1604
9412 3652
9412 4292
9413 965
9413 1605
9413 3653
9413 4293
9414 966
9414 1606
9414 3654
9414 4294
9415 967
9415 1607
9415 3655
9415 4295
9416 968
9416 1608
9416 3656
9416 4296
9417 969
9417 1609
9417 3657
9417 4297
9418 970
9418 1610
9418 3658
9418 4298
9419 971
9419 1611
9419 3659
9419 4299
9420 972
9420 1612
9420 3660
9420 4300
9421 973
9421 1613
9421 3661
9421 4301
9422 974
9422 1614
9422 3662
9422 4302
9423 975
9423 1615
9423 3663
9423 4303
9424 976
9424 1616
9424 3664
9424 4304
9425 977
9425 1617
9425 3665
9425 4305
9426 978
9426 1618
9426 3666
9426 4306
9427 979
9427 1619
9427 3667
9427 4307
9428 980
9428 1620
9428 3668
9428 4308
9429 981
9429 1621
9429 3669
9429 4309
9430 982
9430 1622
9430 3670
9430 4310
9431 983
9431 1623
9431 3671
9431 4311
9432 984
9432 1624
9432 3672
9432 4312
9433 985
9433 1625
9433 3673
9433 4313
9434 986
9434 1626
9434 3674
9434 4314
9435 987
9435 1627
9435 3675
9435 4315
9436 988
9436 1628
9436 3676
9436 4316
9437 989
9437 1629
9437 3677
9437 4317
9438 990
9438 1630
9438 3678
9438 4318
9439 991
9439 1631
9439 3679
9439 4319
9440 992
9440 1632
9440 3680
9440 4320
9441 993
9441 1633
9441 3681
9441 4321
9442 994
9442 1634
9442 3682
9442 4322
9443 995
9443 1635
9443 3683
9443 4323
9444 996
9444 1636
9444 3684
9444 4324
9445 997
9445 1637
9445 3685
9445 4325
9446 998
9446 1638
9446 3686
9446 4326
9447 999
9447 1639
9447 3687
9447 4327
9448 1000
9448 1640
9448 3688
9448 4328
9449 1001
9449 1641
9449 3689
9449 4329
9450 1002
9450 1642
9450 3690
9450 4330
9451 1003
9451 1643
9451 3691
9451 4331
9452 1004
9452 1644
9452 3692
9452 4332
9453 1005
9453 1645
9453 3693
9453 4333
9454 1006
9454 1646
9454 3694
9454 4334
9455 1007
9455 1647
9455 3695
9455 4335
9456 1008
9456 1648
9456 3696
9456 4336
9457 1009
9457 1649
9457 3697
9457 4337
9458 1010
9458 1650
9458 3698
9458 4338
9459 1011
9459 1651
9459 3699
9459 4339
9460 1012
9460 1652
9460 3700
9460 4340
9461 1013
9461 1653
9461 3701
9461 4341
9462 1014
9462 1654
9462 3702
9462 4342
9463 1015
9463 1655
9463 3703
9463 4343
9464 1016
9464 1656
9464 3704
9464 4344
9465 1017
9465 1657
9465 3705
9465 4345
9466 1018
9466 1658
9466 3706
9466 4346
9467 1019
9467 1659
9467 3707
9467 4347
9468 1020
9468 1660
9468 3708
9468 4348
9469 1021
9469 1661
9469 3709
9469 4349
9470 1022
9470 1662
9470 3710
9470 4350
9471 1023
9471 1663
9471 3711
9471 4351
9472 1024
9472 1664
9472 3712
9472 4352
9473 1025
9473 1665
9473 3713
9473 4353
9474 1026
9474 1666
9474 3714
9474 4354
9475 1027
9475 1667
9475 3715
9475 4355
9476 1028
9476 1668
9476 3716
9476 4356
9477 1029
9477 1669
9477 3717
9477 4357
9478 1030
9478 1670
9478 3718
9478 4358
9479 1031
9479 1671
9479 3719
9479 4359
9480 1032
9480 1672
9480 3720
9480 4360
9481 1033
9481 1673
9481 3721
9481 4361
9482 1034
9482 1674
9482 3722
9482 4362
9483 1035
9483 1675
9483 3723
9483 4363
9484 1036
9484 1676
9484 3724
9484 4364
9485 1037
9485 1677
9485 3725
9485 4365
9486 1038
9486 1678
9486 3726
9486 4366
9487 1039
9487 1679
9487 3727
9487 4367
9488 1040
9488 1680
9488 3728
9488 4368
9489 1041
9489 1681
9489 3729
9489 4369
9490 1042
9490 1682
9490 3730
9490 4370
9491 1043
9491 1683
9491 3731
9491 4371
9492 1044
9492 1684
9492 3732
9492 4372
9493 1045
9493 1685
9493 3733
9493 4373
9494 1046
9494 1686
9494 3734
9494 4374
9495 1047
9495 1687
9495 3735
9495 4375
9496 1048
9496 1688
9496 3736
9496 4376
9497 1049
9497 1689
9497 3737
9497 4377
9498 1050
9498 1690
9498 3738
9498 4378
9499 1051
9499 1691
9499 3739
9499 4379
9500 1052
9500 1692
9500 3740
9500 4380
9501 1053
9501 1693
9501 3741
9501 4381
9502 1054
9502 1694
9502 3742
9502 4382
9503 1055
9503 1695
9503 3743
9503 4383
9504 1056
9504 1696
9504 3744
9504 4384
9505 1057
9505 1697
9505 3745
9505 4385
9506 1058
9506 1698
9506 3746
9506 4386
9507 1059
9507 1699
9507 3747
9507 4387
9508 1060
9508 1700
9508 3748
9508 4388
9509 1061
9509 1701
9509 3749
9509 4389
9510 1062
9510 1702
9510 3750
9510 4390
9511 1063
9511 1703
9511 3751
9511 4391
9512 1064
9512 1704
9512 3752
9512 4392
9513 1065
9513 1705
9513 3753
9513 4393
9514 1066
9514 1706
9514 3754
9514 4394
9515 1067
9515 1707
9515 3755
9515 4395
9516 1068
9516 1708
9516 3756
9516 4396
9517 1069
9517 1709
9517 3757
9517 4397
9518 1070
9518 1710
9518 3758
9518 4398
9519 1071
9519 1711
9519 3759
9519 4399
9520 1072
9520 1712
9520 3760
9520 4400
9521 1073
9521 1713
9521 3761
9521 4401
9522 1074
9522 1714
9522 3762
9522 4402
9523 1075
9523 1715
9523 3763
9523 4403
9524 1076
9524 1716
9524 3764
9524 4404
9525 1077
9525 1717
9525 3765
9525 4405
9526 1078
9526 1718
9526 3766
9526 4406
9527 1079
9527 1719
9527 3767
9527 4407
9528 1080
9528 1720
9528 3768
9528 4408
9529 1081
9529 1721
9529 3769
9529 4409
9530 1082
9530 1722
9530 3770
9530 4410
9531 1083
9531 1723
9531 3771
9531 4411
9532 1084
9532 1724
9532 3772
9532 4412
9533 1085
9533 1725
9533 3773
9533 4413
9534 1086
9534 1726
9534 3774
9534 4414
9535 1087
9535 1727
9535 3775
9535 4415
9536 1088
9536 1728
9536 3776
9536 4416
9537 1089
9537 1729
9537 3777
9537 4417
9538 1090
9538 1730
9538 3778
9538 4418
9539 1091
9539 1731
9539 3779
9539 4419
9540 1092
9540 1732
9540 3780
9540 4420
9541 1093
9541 1733
9541 3781
9541 4421
9542 1094
9542 1734
9542 3782
9542 4422
9543 1095
9543 1735
9543 3783
9543 4423
9544 1096
9544 1736
9544 3784
9544 4424
9545 1097
9545 1737
9545 3785
9545 4425
9546 1098
9546 1738
9546 3786
9546 4426
9547 1099
9547 1739
9547 3787
9547 4427
9548 1100
9548 1740
9548 3788
9548 4428
9549 1101
9549 1741
9549 3789
9549 4429
9550 1102
9550 1742
9550 3790
9550 4430
9551 1103
9551 1743
9551 3791
9551 4431
9552 1104
9552 1744
9552 3792
9552 4432
9553 1105
9553 1745
9553 3793
9553 4433
9554 1106
9554 1746
9554 3794
9554 4434
9555 1107
9555 1747
9555 3795
9555 4435
9556 1108
9556 1748
9556 3796
9556 4436
9557 1109
9557 1749
9557 3797
9557 4437
9558 1110
9558 1750
9558 3798
9558 4438
9559 1111
9559 1751
9559 3799
9559 4439
9560 1112
9560 1752
9560 3800
9560 4440
9561 1113
9561 1753
9561 3801
9561 4441
9562 1114
9562 1754
9562 3802
9562 4442
9563 1115
9563 1755
9563 3803
9563 4443
9564 1116
9564 1756
9564 3804
9564 4444
9565 1117
9565 1757
9565 3805
9565 4445
9566 1118
9566 1758
9566 3806
9566 4446
9567 1119
9567 1759
9567 3807
9567 4447
9568 1120
9568 1760
9568 3808
9568 4448
9569 1121
9569 1761
9569 3809
9569 4449
9570 1122
9570 1762
9570 3810
9570 4450
9571 1123
9571 1763
9571 3811
9571 4451
9572 1124
9572 1764
9572 3812
9572 4452
9573 1125
9573 1765
9573 3813
9573 4453
9574 1126
9574 1766
9574 3814
9574 4454
9575 1127
9575 1767
9575 3815
9575 4455
9576 1128
9576 1768
9576 3816
9576 4456
9577 1129
9577 1769
9577 3817
9577 4457
9578 1130
9578 1770
9578 3818
9578 4458
9579 1131
9579 1771
9579 3819
9579 4459
9580 1132
9580 1772
9580 3820
9580 4460
9581 1133
9581 1773
9581 3821
9581 4461
9582 1134
9582 1774
9582 3822
9582 4462
9583 1135
9583 1775
9583 3823
9583 4463
9584 1136
9584 1776
9584 3824
9584 4464
9585 1137
9585 1777
9585 3825
9585 4465
9586 1138
9586 1778
9586 3826
9586 4466
9587 1139
9587 1779
9587 3827
9587 4467
9588 1140
9588 1780
9588 3828
9588 4468
9589 1141
9589 1781
9589 3829
9589 4469
9590 1142
9590 1782
9590 3830
9590 4470
9591 1143
9591 1783
9591 3831
9591 4471
9592 1144
9592 1784
9592 3832
9592 4472
9593 1145
9593 1785
9593 3833
9593 4473
9594 1146
9594 1786
9594 3834
9594 4474
9595 1147
9595 1787
9595 3835
9595 4475
9596 1148
9596 1788
9596 3836
9596 4476
9597 1149
9597 1789
9597 3837
9597 4477
9598 1150
9598 1790
9598 3838
9598 4478
9599 1151
9599 1791
9599 3839
9599 4479
9600 1152
9600 1792
9600 3840
9600 4480
9601 1153
9601 1793
9601 3841
9601 4481
9602 1154
9602 1794
9602 3842
9602 4482
9603 1155
9603 1795
9603 3843
9603 4483
9604 1156
9604 1796
9604 3844
9604 4484
9605 1157
9605 1797
9605 3845
9605 4485
9606 1158
9606 1798
9606 3846
9606 4486
9607 1159
9607 1799
9607 3847
9607 4487
9608 1160
9608 1800
9608 3848
9608 4488
9609 1161
9609 1801
9609 3849
9609 4489
9610 1162
9610 1802
9610 3850
9610 4490
9611 1163
9611 1803
9611 3851
9611 4491
9612 1164
9612 1804
9612 3852
9612 4492
9613 1165
9613 1805
9613 3853
9613 4493
9614 1166
9614 1806
9614 3854
9614 4494
9615 1167
9615 1807
9615 3855
9615 4495
9616 1168
9616 1808
9616 3856
9616 4496
9617 1169
9617 1809
9617 3857
9617 4497
9618 1170
9618 1810
9618 3858
9618 4498
9619 1171
9619 1811
9619 3859
9619 4499
9620 1172
9620 1812
9620 3860
9620 4500
9621 1173
9621 1813
9621 3861
9621 4501
9622 1174
9622 1814
9622 3862
9622 4502
9623 1175
9623 1815
9623 3863
9623 4503
9624 1176
9624 1816
9624 3864
9624 4504
9625 1177
9625 1817
9625 3865
9625 4505
9626 1178
9626 1818
9626 3866
9626 4506
9627 1179
9627 1819
9627 3867
9627 4507
9628 1180
9628 1820
9628 3868
9628 4508
9629 1181
9629 1821
9629 3869
9629 4509
9630 1182
9630 1822
9630 3870
9630 4510
9631 1183
9631 1823
9631 3871
9631 4511
9632 1184
9632 1824
9632 3872
9632 4512
9633 1185
9633 1825
9633 3873
9633 4513
9634 1186
9634 1826
9634 3874
9634 4514
9635 1187
9635 1827
9635 3875
9635 4515
9636 1188
9636 1828
9636 3876
9636 4516
9637 1189
9637 1829
9637 3877
9637 4517
9638 1190
9638 1830
9638 3878
9638 4518
9639 1191
9639 1831
9639 3879
9639 4519
9640 1192
9640 1832
9640 3880
9640 4520
9641 1193
9641 1833
9641 3881
9641 4521
9642 1194
9642 1834
9642 3882
9642 4522
9643 1195
9643 1835
9643 3883
9643 4523
9644 1196
9644 1836
9644 3884
9644 4524
9645 1197
9645 1837
9645 3885
9645 4525
9646 1198
9646 1838
9646 3886
9646 4526
9647 1199
9647 1839
9647 3887
9647 4527
9648 1200
9648 1840
9648 3888
9648 4528
9649 1201
9649 1841
9649 3889
9649 4529
9650 1202
9650 1842
9650 3890
9650 4530
9651 1203
9651 1843
9651 3891
9651 4531
9652 1204
9652 1844
9652 3892
9652 4532
9653 1205
9653 1845
9653 3893
9653 4533
9654 1206
9654 1846
9654 3894
9654 4534
9655 1207
9655 1847
9655 3895
9655 4535
9656 1208
9656 1848
9656 3896
9656 4536
9657 1209
9657 1849
9657 3897
9657 4537
9658 1210
9658 1850
9658 3898
9658 4538
9659 1211
9659 1851
9659 3899
9659 4539
9660 1212
9660 1852
9660 3900
9660 4540
9661 1213
9661 1853
9661 3901
9661 4541
9662 1214
9662 1854
9662 3902
9662 4542
9663 1215
9663 1855
9663 3903
9663 4543
9664 1216
9664 1856
9664 3904
9664 4544
9665 1217
9665 1857
9665 3905
9665 4545
9666 1218
9666 1858
9666 3906
9666 4546
9667 1219
9667 1859
9667 3907
9667 4547
9668 1220
9668 1860
9668 3908
9668 4548
9669 1221
9669 1861
9669 3909
9669 4549
9670 1222
9670 1862
9670 3910
9670 4550
9671 1223
9671 1863
9671 3911
9671 4551
9672 1224
9672 1864
9672 3912
9672 4552
9673 1225
9673 1865
9673 3913
9673 4553
9674 1226
9674 1866
9674 3914
9674 4554
9675 1227
9675 1867
9675 3915
9675 4555
9676 1228
9676 1868
9676 3916
9676 4556
9677 1229
9677 1869
9677 3917
9677 4557
9678 1230
9678 1870
9678 3918
9678 4558
9679 1231
9679 1871
9679 3919
9679 4559
9680 1232
9680 1872
9680 3920
9680 4560
9681 1233
9681 1873
9681 3921
9681 4561
9682 1234
9682 1874
9682 3922
9682 4562
9683 1235
9683 1875
9683 3923
9683 4563
9684 1236
9684 1876
9684 3924
9684 4564
9685 1237
9685 1877
9685 3925
9685 4565
9686 1238
9686 1878
9686 3926
9686 4566
9687 1239
9687 1879
9687 3927
9687 4567
9688 1240
9688 1880
9688 3928
9688 4568
9689 1241
9689 1881
9689 3929
9689 4569
9690 1242
9690 1882
9690 3930
9690 4570
9691 1243
9691 1883
9691 3931
9691 4571
9692 1244
9692 1884
9692 3932
9692 4572
9693 1245
9693 1885
9693 3933
9693 4573
9694 1246
9694 1886
9694 3934
9694 4574
9695 1247
9695 1887
9695 3935
9695 4575
9696 1248
9696 1888
9696 3936
9696 4576
9697 1249
9697 1889
9697 3937
9697 4577
9698 1250
9698 1890
9698 3938
9698 4578
9699 1251
9699 1891
9699 3939
9699 4579
9700 1252
9700 1892
9700 3940
9700 4580
9701 1253
9701 1893
9701 3941
9701 4581
9702 1254
9702 1894
9702 3942
9702 4582
9703 1255
9703 1895
9703 3943
9703 4583
9704 1256
9704 1896
9704 3944
9704 4584
9705 1257
9705 1897
9705 3945
9705 4585
9706 1258
9706 1898
9706 3946
9706 4586
9707 1259
9707 1899
9707 3947
9707 4587
9708 1260
9708 1900
9708 3948
9708 4588
9709 1261
9709 1901
9709 3949
9709 4589
9710 1262
9710 1902
9710 3950
9710 4590
9711 1263
9711 1903
9711 3951
9711 4591
9712 1264
9712 1904
9712 3952
9712 4592
9713 1265
9713 1905
9713 3953
9713 4593
9714 1266
9714 1906
9714 3954
9714 4594
9715 1267
9715 1907
9715 3955
9715 4595
9716 1268
9716 1908
9716 3956
9716 4596
9717 1269
9717 1909
9717 3957
9717 4597
9718 1270
9718 1910
9718 3958
9718 4598
9719 1271
9719 1911
9719 3959
9719 4599
9720 1272
9720 1912
9720 3960
9720 4600
9721 1273
9721 1913
9721 3961
9721 4601
9722 1274
9722 1914
9722 3962
9722 4602
9723 1275
9723 1915
9723 3963
9723 4603
9724 1276
9724 1916
9724 3964
9724 4604
9725 1277
9725 1917
9725 3965
9725 4605
9726 1278
9726 1918
9726 3966
9726 4606
9727 1279
9727 1919
9727 3967
9727 4607
9728 1280
9728 1920
9728 3968
9728 4608
9729 1281
9729 1921
9729 3969
9729 4609
9730 1282
9730 1922
9730 3970
9730 4610
9731 1283
9731 1923
9731 3971
9731 4611
9732 1284
9732 1924
9732 3972
9732 4612
9733 1285
9733 1925
9733 3973
9733 4613
9734 1286
9734 1926
9734 3974
9734 4614
9735 1287
9735 1927
9735 3975
9735 4615
9736 1288
9736 1928
9736 3976
9736 4616
9737 1289
9737 1929
9737 3977
9737 4617
9738 1290
9738 1930
9738 3978
9738 4618
9739 1291
9739 1931
9739 3979
9739 4619
9740 1292
9740 1932
9740 3980
9740 4620
9741 1293
9741 1933
9741 3981
9741 4621
9742 1294
9742 1934
9742 3982
9742 4622
9743 1295
9743 1935
9743 3983
9743 4623
9744 1296
9744 1936
9744 3984
9744 4624
9745 1297
9745 1937
9745 3985
9745 4625
9746 1298
9746 1938
9746 3986
9746 4626
9747 1299
9747 1939
9747 3987
9747 4627
9748 1300
9748 1940
9748 3988
9748 4628
9749 1301
9749 1941
9749 3989
9749 4629
9750 1302
9750 1942
9750 3990
9750 4630
9751 1303
9751 1943
9751 3991
9751 4631
9752 1304
9752 1944
9752 3992
9752 4632
9753 1305
9753 1945
9753 3993
9753 4633
9754 1306
9754 1946
9754 3994
9754 4634
9755 1307
9755 1947
9755 3995
9755 4635
9756 1308
9756 1948
9756 3996
9756 4636
9757 1309
9757 1949
9757 3997
9757 4637
9758 1310
9758 1950
9758 3998
9758 4638
9759 1311
9759 1951
9759 3999
9759 4639
9760 1312
9760 1952
9760 4000
9760 4640
9761 1313
9761 1953
9761 4001
9761 4641
9762 1314
9762 1954
9762 4002
9762 4642
9763 1315
9763 1955
9763 4003
9763 4643
9764 1316
9764 1956
9764 4004
9764 4644
9765 1317
9765 1957
9765 4005
9765 4645
9766 1318
9766 1958
9766 4006
9766 4646
9767 1319
9767 1959
9767 4007
9767 4647
9768 1320
9768 1960
9768 4008
9768 4648
9769 1321
9769 1961
9769 4009
9769 4649
9770 1322
9770 1962
9770 4010
9770 4650
9771 1323
9771 1963
9771 4011
9771 4651
9772 1324
9772 1964
9772 4012
9772 4652
9773 1325
9773 1965
9773 4013
9773 4653
9774 1326
9774 1966
9774 4014
9774 4654
9775 1327
9775 1967
9775 4015
9775 4655
9776 1328
9776 1968
9776 4016
9776 4656
9777 1329
9777 1969
9777 4017
9777 4657
9778 1330
9778 1970
9778 4018
9778 4658
9779 1331
9779 1971
9779 4019
9779 4659
9780 1332
9780 1972
9780 4020
9780 4660
9781 1333
9781 1973
9781 4021
9781 4661
9782 1334
9782 1974
9782 4022
9782 4662
9783 1335
9783 1975
9783 4023
9783 4663
9784 1336
9784 1976
9784 4024
9784 4664
9785 1337
9785 1977
9785 4025
9785 4665
9786 1338
9786 1978
9786 4026
9786 4666
9787 1339
9787 1979
9787 4027
9787 4667
9788 1340
9788 1980
9788 4028
9788 4668
9789 1341
9789 1981
9789 4029
9789 4669
9790 1342
9790 1982
9790 4030
9790 4670
9791 1343
9791 1983
9791 4031
9791 4671
9792 1344
9792 1984
9792 4032
9792 4672
9793 1345
9793 1985
9793 4033
9793 4673
9794 1346
9794 1986
9794 4034
9794 4674
9795 1347
9795 1987
9795 4035
9795 4675
9796 1348
9796 1988
9796 4036
9796 4676
9797 1349
9797 1989
9797 4037
9797 4677
9798 1350
9798 1990
9798 4038
9798 4678
9799 1351
9799 1991
9799 4039
9799 4679
9800 1352
9800 1992
9800 4040
9800 4680
9801 1353
9801 1993
9801 4041
9801 4681
9802 1354
9802 1994
9802 4042
9802 4682
9803 1355
9803 1995
9803 4043
9803 4683
9804 1356
9804 1996
9804 4044
9804 4684
9805 1357
9805 1997
9805 4045
9805 4685
9806 1358
9806 1998
9806 4046
9806 4686
9807 1359
9807 1999
9807 4047
9807 4687
9808 1360
9808 2000
9808 4048
9808 4688
9809 1361
9809 2001
9809 4049
9809 4689
9810 1362
9810 2002
9810 4050
9810 4690
9811 1363
9811 2003
9811 4051
9811 4691
9812 1364
9812 2004
9812 4052
9812 4692
9813 1365
9813 2005
9813 4053
9813 4693
9814 1366
9814 2006
9814 4054
9814 4694
9815 1367
9815 2007
9815 4055
9815 4695
9816 1368
9816 2008
9816 4056
9816 4696
9817 1369
9817 2009
9817 4057
9817 4697
9818 1370
9818 2010
9818 4058
9818 4698
9819 1371
9819 2011
9819 4059
9819 4699
9820 1372
9820 2012
9820 4060
9820 4700
9821 1373
9821 2013
9821 4061
9821 4701
9822 1374
9822 2014
9822 4062
9822 4702
9823 1375
9823 2015
9823 4063
9823 4703
9824 1376
9824 2016
9824 4064
9824 4704
9825 1377
9825 2017
9825 4065
9825 4705
9826 1378
9826 2018
9826 4066
9826 4706
9827 1379
9827 2019
9827 4067
9827 4707
9828 1380
9828 2020
9828 4068
9828 4708
9829 1381
9829 2021
9829 4069
9829 4709
9830 1382
9830 2022
9830 4070
9830 4710
9831 1383
9831 2023
9831 4071
9831 4711
9832 1384
9832 2024
9832 4072
9832 4712
9833 1385
9833 2025
9833 4073
9833 4713
9834 1386
9834 2026
9834 4074
9834 4714
9835 1387
9835 2027
9835 4075
9835 4715
9836 1388
9836 2028
9836 4076
9836 4716
9837 1389
9837 2029
9837 4077
9837 4717
9838 1390
9838 2030
9838 4078
9838 4718
9839 1391
9839 2031
9839 4079
9839 4719
9840 1392
9840 2032
9840 4080
9840 4720
9841 1393
9841 2033
9841 4081
9841 4721
9842 1394
9842 2034
9842 4082
9842 4722
9843 1395
9843 2035
9843 4083
9843 4723
9844 1396
9844 2036
9844 4084
9844 4724
9845 1397
9845 2037
9845 4085
9845 4725
9846 1398
9846 2038
9846 4086
9846 4726
9847 1399
9847 2039
9847 4087
9847 4727
9848 1400
9848 2040
9848 4088
9848 4728
9849 1401
9849 2041
9849 4089
9849 4729
9850 1402
9850 2042
9850 4090
9850 4730
9851 1403
9851 2043
9851 4091
9851 4731
9852 1404
9852 2044
9852 4092
9852 4732
9853 1405
9853 2045
9853 4093
9853 4733
9854 1406
9854 2046
9854 4094
9854 4734
9855 1407
9855 2047
9855 4095
9855 4735
9856 0
9856 1920
9856 3840
9856 4352
9857 1
9857 1921
9857 3841
9857 4353
9858 2
9858 1922
9858 3842
9858 4354
9859 3
9859 1923
9859 3843
9859 4355
9860 4
9860 1924
9860 3844
9860 4356
9861 5
9861 1925
9861 3845
9861 4357
9862 6
9862 1926
9862 3846
9862 4358
9863 7
9863 1927
9863 3847
9863 4359
9864 8
9864 1928
9864 3848
9864 4360
9865 9
9865 1929
9865 3849
9865 4361
9866 10
9866 1930
9866 3850
9866 4362
9867 11
9867 1931
9867 3851
9867 4363
9868 12
9868 1932
9868 3852
9868 4364
9869 13
9869 1933
9869 3853
9869 4365
9870 14
9870 1934
9870 3854
9870 4366
9871 15
9871 1935
9871 3855
9871 4367
9872 16
9872 1936
9872 3856
9872 4368
9873 17
9873 1937
9873 3857
9873 4369
9874 18
9874 1938
9874 3858
9874 4370
9875 19
9875 1939
9875 3859
9875 4371
9876 20
9876 1940
9876 3860
9876 4372
9877 21
9877 1941
9877 3861
9877 4373
9878 22
9878 1942
9878 3862
9878 4374
9879 23
9879 1943
9879 3863
9879 4375
9880 24
9880 1944
9880 3864
9880 4376
9881 25
9881 1945
9881 3865
9881 4377
9882 26
9882 1946
9882 3866
9882 4378
9883 27
9883 1947
9883 3867
9883 4379
9884 28
9884 1948
9884 3868
9884 4380
9885 29
9885 1949
9885 3869
9885 4381
9886 30
9886 1950
9886 3870
9886 4382
9887 31
9887 1951
9887 3871
9887 4383
9888 32
9888 1952
9888 3872
9888 4384
9889 33
9889 1953
9889 3873
9889 4385
9890 34
9890 1954
9890 3874
9890 4386
9891 35
9891 1955
9891 3875
9891 4387
9892 36
9892 1956
9892 3876
9892 4388
9893 37
9893 1957
9893 3877
9893 4389
9894 38
9894 1958
9894 3878
9894 4390
9895 39
9895 1959
9895 3879
9895 4391
9896 40
9896 1960
9896 3880
9896 4392
9897 41
9897 1961
9897 3881
9897 4393
9898 42
9898 1962
9898 3882
9898 4394
9899 43
9899 1963
9899 3883
9899 4395
9900 44
9900 1964
9900 3884
9900 4396
9901 45
9901 1965
9901 3885
9901 4397
9902 46
9902 1966
9902 3886
9902 4398
9903 47
9903 1967
9903 3887
9903 4399
9904 48
9904 1968
9904 3888
9904 4400
9905 49
9905 1969
9905 3889
9905 4401
9906 50
9906 1970
9906 3890
9906 4402
9907 51
9907 1971
9907 3891
9907 4403
9908 52
9908 1972
9908 3892
9908 4404
9909 53
9909 1973
9909 3893
9909 4405
9910 54
9910 1974
9910 3894
9910 4406
9911 55
9911 1975
9911 3895
9911 4407
9912 56
9912 1976
9912 3896
9912 4408
9913 57
9913 1977
9913 3897
9913 4409
9914 58
9914 1978
9914 3898
9914 4410
9915 59
9915 1979
9915 3899
9915 4411
9916 60
9916 1980
9916 3900
9916 4412
9917 61
9917 1981
9917 3901
9917 4413
9918 62
9918 1982
9918 3902
9918 4414
9919 63
9919 1983
9919 3903
9919 4415
9920 64
9920 1984
9920 3904
9920 4416
9921 65
9921 1985
9921 3905
9921 4417
9922 66
9922 1986
9922 3906
9922 4418
9923 67
9923 1987
9923 3907
9923 4419
9924 68
9924 1988
9924 3908
9924 4420
9925 69
9925 1989
9925 3909
9925 4421
9926 70
9926 1990
9926 3910
9926 4422
9927 71
9927 1991
9927 3911
9927 4423
9928 72
9928 1992
9928 3912
9928 4424
9929 73
9929 1993
9929 3913
9929 4425
9930 74
9930 1994
9930 3914
9930 4426
9931 75
9931 1995
9931 3915
9931 4427
9932 76
9932 1996
9932 3916
9932 4428
9933 77
9933 1997
9933 3917
9933 4429
9934 78
9934 1998
9934 3918
9934 4430
9935 79
9935 1999
9935 3919
9935 4431
9936 80
9936 2000
9936 3920
9936 4432
9937 81
9937 2001
9937 3921
9937 4433
9938 82
9938 2002
9938 3922
9938 4434
9939 83
9939 2003
9939 3923
9939 4435
9940 84
9940 2004
9940 3924
9940 4436
9941 85
9941 2005
9941 3925
9941 4437
9942 86
9942 2006
9942 3926
9942 4438
9943 87
9943 2007
9943 3927
9943 4439
9944 88
9944 2008
9944 3928
9944 4440
9945 89
9945 2009
9945 3929
9945 4441
9946 90
9946 2010
9946 3930
9946 4442
9947 91
9947 2011
9947 3931
9947 4443
9948 92
9948 2012
9948 3932
9948 4444
9949 93
9949 2013
9949 3933
9949 4445
9950 94
9950 2014
9950 3934
9950 4446
9951 95
9951 2015
9951 3935
9951 4447
9952 96
9952 2016
9952 3936
9952 4448
9953 97
9953 2017
9953 3937
9953 4449
9954 98
9954 2018
9954 3938
9954 4450
9955 99
9955 2019
9955 3939
9955 4451
9956 100
9956 2020
9956 3940
9956 4452
9957 101
9957 2021
9957 3941
9957 4453
9958 102
9958 2022
9958 3942
9958 4454
9959 103
9959 2023
9959 3943
9959 4455
9960 104
9960 2024
9960 3944
9960 4456
9961 105
9961 2025
9961 3945
9961 4457
9962 106
9962 2026
9962 3946
9962 4458
9963 107
9963 2027
9963 3947
9963 4459
9964 108
9964 2028
9964 3948
9964 4460
9965 109
9965 2029
9965 3949
9965 4461
9966 110
9966 2030
9966 3950
9966 4462
9967 111
9967 2031
9967 3951
9967 4463
9968 112
9968 2032
9968 3952
9968 4464
9969 113
9969 2033
9969 3953
9969 4465
9970 114
9970 2034
9970 3954
9970 4466
9971 115
9971 2035
9971 3955
9971 4467
9972 116
9972 2036
9972 3956
9972 4468
9973 117
9973 2037
9973 3957
9973 4469
9974 118
9974 2038
9974 3958
9974 4470
9975 119
9975 2039
9975 3959
9975 4471
9976 120
9976 2040
9976 3960
9976 4472
9977 121
9977 2041
9977 3961
9977 4473
9978 122
9978 2042
9978 3962
9978 4474
9979 123
9979 2043
9979 3963
9979 4475
9980 124
9980 2044
9980 3964
9980 4476
9981 125
9981 2045
9981 3965
9981 4477
9982 126
9982 2046
9982 3966
9982 4478
9983 127
9983 2047
9983 3967
9983 4479
9984 128
9984 2048
9984 3968
9984 4480
9985 129
9985 2049
9985 3969
9985 4481
9986 130
9986 2050
9986 3970
9986 4482
9987 131
9987 2051
9987 3971
9987 4483
9988 132
9988 2052
9988 3972
9988 4484
9989 133
9989 2053
9989 3973
9989 4485
9990 134
9990 2054
9990 3974
9990 4486
9991 135
9991 2055
9991 3975
9991 4487
9992 136
9992 2056
9992 3976
9992 4488
9993 137
9993 2057
9993 3977
9993 4489
9994 138
9994 2058
9994 3978
9994 4490
9995 139
9995 2059
9995 3979
9995 4491
9996 140
9996 2060
9996 3980
9996 4492
9997 141
9997 2061
9997 3981
9997 4493
9998 142
9998 2062
9998 3982
9998 4494
9999 143
9999 2063
9999 3983
9999 4495
10000 144
10000 2064
10000 3984
10000 4496
10001 145
10001 2065
10001 3985
10001 4497
10002 146
10002 2066
10002 3986
10002 4498
10003 147
10003 2067
10003 3987
10003 4499
10004 148
10004 2068
10004 3988
10004 4500
10005 149
10005 2069
10005 3989
10005 4501
10006 150
10006 2070
10006 3990
10006 4502
10007 151
10007 2071
10007 3991
10007 4503
10008 152
10008 2072
10008 3992
10008 4504
10009 153
10009 2073
10009 3993
10009 4505
10010 154
10010 2074
10010 3994
10010 4506
10011 155
10011 2075
10011 3995
10011 4507
10012 156
10012 2076
10012 3996
10012 4508
10013 157
10013 2077
10013 3997
10013 4509
10014 158
10014 2078
10014 3998
10014 4510
10015 159
10015 2079
10015 3999
10015 4511
10016 160
10016 2080
10016 4000
10016 4512
10017 161
10017 2081
10017 4001
10017 4513
10018 162
10018 2082
10018 4002
10018 4514
10019 163
10019 2083
10019 4003
10019 4515
10020 164
10020 2084
10020 4004
10020 4516
10021 165
10021 2085
10021 4005
10021 4517
10022 166
10022 2086
10022 4006
10022 4518
10023 167
10023 2087
10023 4007
10023 4519
10024 168
10024 2088
10024 4008
10024 4520
10025 169
10025 2089
10025 4009
10025 4521
10026 170
10026 2090
10026 4010
10026 4522
10027 171
10027 2091
10027 4011
10027 4523
10028 172
10028 2092
10028 4012
10028 4524
10029 173
10029 2093
10029 4013
10029 4525
10030 174
10030 2094
10030 4014
10030 4526
10031 175
10031 2095
10031 4015
10031 4527
10032 176
10032 2096
10032 4016
10032 4528
10033 177
10033 2097
10033 4017
10033 4529
10034 178
10034 2098
10034 4018
10034 4530
10035 179
10035 2099
10035 4019
10035 4531
10036 180
10036 2100
10036 4020
10036 4532
10037 181
10037 2101
10037 4021
10037 4533
10038 182
10038 2102
10038 4022
10038 4534
10039 183
10039 2103
10039 4023
10039 4535
10040 184
10040 2104
10040 4024
10040 4536
10041 185
10041 2105
10041 4025
10041 4537
10042 186
10042 2106
10042 4026
10042 4538
10043 187
10043 2107
10043 4027
10043 4539
10044 188
10044 2108
10044 4028
10044 4540
10045 189
10045 2109
10045 4029
10045 4541
10046 190
10046 2110
10046 4030
10046 4542
10047 191
10047 2111
10047 4031
10047 4543
10048 192
10048 2112
10048 4032
10048 4544
10049 193
10049 2113
10049 4033
10049 4545
10050 194
10050 2114
10050 4034
10050 4546
10051 195
10051 2115
10051 4035
10051 4547
10052 196
10052 2116
10052 4036
10052 4548
10053 197
10053 2117
10053 4037
10053 4549
10054 198
10054 2118
10054 4038
10054 4550
10055 199
10055 2119
10055 4039
10055 4551
10056 200
10056 2120
10056 4040
10056 4552
10057 201
10057 2121
10057 4041
10057 4553
10058 202
10058 2122
10058 4042
10058 4554
10059 203
10059 2123
10059 4043
10059 4555
10060 204
10060 2124
10060 4044
10060 4556
10061 205
10061 2125
10061 4045
10061 4557
10062 206
10062 2126
10062 4046
10062 4558
10063 207
10063 2127
10063 4047
10063 4559
10064 208
10064 2128
10064 4048
10064 4560
10065 209
10065 2129
10065 4049
10065 4561
10066 210
10066 2130
10066 4050
10066 4562
10067 211
10067 2131
10067 4051
10067 4563
10068 212
10068 2132
10068 4052
10068 4564
10069 213
10069 2133
10069 4053
10069 4565
10070 214
10070 2134
10070 4054
10070 4566
10071 215
10071 2135
10071 4055
10071 4567
10072 216
10072 2136
10072 4056
10072 4568
10073 217
10073 2137
10073 4057
10073 4569
10074 218
10074 2138
10074 4058
10074 4570
10075 219
10075 2139
10075 4059
10075 4571
10076 220
10076 2140
10076 4060
10076 4572
10077 221
10077 2141
10077 4061
10077 4573
10078 222
10078 2142
10078 4062
10078 4574
10079 223
10079 2143
10079 4063
10079 4575
10080 224
10080 2144
10080 4064
10080 4576
10081 225
10081 2145
10081 4065
10081 4577
10082 226
10082 2146
10082 4066
10082 4578
10083 227
10083 2147
10083 4067
10083 4579
10084 228
10084 2148
10084 4068
10084 4580
10085 229
10085 2149
10085 4069
10085 4581
10086 230
10086 2150
10086 4070
10086 4582
10087 231
10087 2151
10087 4071
10087 4583
10088 232
10088 2152
10088 4072
10088 4584
10089 233
10089 2153
10089 4073
10089 4585
10090 234
10090 2154
10090 4074
10090 4586
10091 235
10091 2155
10091 4075
10091 4587
10092 236
10092 2156
10092 4076
10092 4588
10093 237
10093 2157
10093 4077
10093 4589
10094 238
10094 2158
10094 4078
10094 4590
10095 239
10095 2159
10095 4079
10095 4591
10096 240
10096 2160
10096 4080
10096 4592
10097 241
10097 2161
10097 4081
10097 4593
10098 242
10098 2162
10098 4082
10098 4594
10099 243
10099 2163
10099 4083
10099 4595
10100 244
10100 2164
10100 4084
10100 4596
10101 245
10101 2165
10101 4085
10101 4597
10102 246
10102 2166
10102 4086
10102 4598
10103 247
10103 2167
10103 4087
10103 4599
10104 248
10104 2168
10104 4088
10104 4600
10105 249
10105 2169
10105 4089
10105 4601
10106 250
10106 2170
10106 4090
10106 4602
10107 251
10107 2171
10107 4091
10107 4603
10108 252
10108 2172
10108 4092
10108 4604
10109 253
10109 2173
10109 4093
10109 4605
10110 254
10110 2174
10110 4094
10110 4606
10111 255
10111 2175
10111 4095
10111 4607
10112 256
10112 2176
10112 4096
10112 4608
10113 257
10113 2177
10113 4097
10113 4609
10114 258
10114 2178
10114 4098
10114 4610
10115 259
10115 2179
10115 4099
10115 4611
10116 260
10116 2180
10116 4100
10116 4612
10117 261
10117 2181
10117 4101
10117 4613
10118 262
10118 2182
10118 4102
10118 4614
10119 263
10119 2183
10119 4103
10119 4615
10120 264
10120 2184
10120 4104
10120 4616
10121 265
10121 2185
10121 4105
10121 4617
10122 266
10122 2186
10122 4106
10122 4618
10123 267
10123 2187
10123 4107
10123 4619
10124 268
10124 2188
10124 4108
10124 4620
10125 269
10125 2189
10125 4109
10125 4621
10126 270
10126 2190
10126 4110
10126 4622
10127 271
10127 2191
10127 4111
10127 4623
10128 272
10128 2192
10128 4112
10128 4624
10129 273
10129 2193
10129 4113
10129 4625
10130 274
10130 2194
10130 4114
10130 4626
10131 275
10131 2195
10131 4115
10131 4627
10132 276
10132 2196
10132 4116
10132 4628
10133 277
10133 2197
10133 4117
10133 4629
10134 278
10134 2198
10134 4118
10134 4630
10135 279
10135 2199
10135 4119
10135 4631
10136 280
10136 2200
10136 4120
10136 4632
10137 281
10137 2201
10137 4121
10137 4633
10138 282
10138 2202
10138 4122
10138 4634
10139 283
10139 2203
10139 4123
10139 4635
10140 284
10140 2204
10140 4124
10140 4636
10141 285
10141 2205
10141 4125
10141 4637
10142 286
10142 2206
10142 4126
10142 4638
10143 287
10143 2207
10143 4127
10143 4639
10144 288
10144 2208
10144 4128
10144 4640
10145 289
10145 2209
10145 4129
10145 4641
10146 290
10146 2210
10146 4130
10146 4642
10147 291
10147 2211
10147 4131
10147 4643
10148 292
10148 2212
10148 4132
10148 4644
10149 293
10149 2213
10149 4133
10149 4645
10150 294
10150 2214
10150 4134
10150 4646
10151 295
10151 2215
10151 4135
10151 4647
10152 296
10152 2216
10152 4136
10152 4648
10153 297
10153 2217
10153 4137
10153 4649
10154 298
10154 2218
10154 4138
10154 4650
10155 299
10155 2219
10155 4139
10155 4651
10156 300
10156 2220
10156 4140
10156 4652
10157 301
10157 2221
10157 4141
10157 4653
10158 302
10158 2222
10158 4142
10158 4654
10159 303
10159 2223
10159 4143
10159 4655
10160 304
10160 2224
10160 4144
10160 4656
10161 305
10161 2225
10161 4145
10161 4657
10162 306
10162 2226
10162 4146
10162 4658
10163 307
10163 2227
10163 4147
10163 4659
10164 308
10164 2228
10164 4148
10164 4660
10165 309
10165 2229
10165 4149
10165 4661
10166 310
10166 2230
10166 4150
10166 4662
10167 311
10167 2231
10167 4151
10167 4663
10168 312
10168 2232
10168 4152
10168 4664
10169 313
10169 2233
10169 4153
10169 4665
10170 314
10170 2234
10170 4154
10170 4666
10171 315
10171 2235
10171 4155
10171 4667
10172 316
10172 2236
10172 4156
10172 4668
10173 317
10173 2237
10173 4157
10173 4669
10174 318
10174 2238
10174 4158
10174 4670
10175 319
10175 2239
10175 4159
10175 4671
10176 320
10176 2240
10176 4160
10176 4672
10177 321
10177 2241
10177 4161
10177 4673
10178 322
10178 2242
10178 4162
10178 4674
10179 323
10179 2243
10179 4163
10179 4675
10180 324
10180 2244
10180 4164
10180 4676
10181 325
10181 2245
10181 4165
10181 4677
10182 326
10182 2246
10182 4166
10182 4678
10183 327
10183 2247
10183 4167
10183 4679
10184 328
10184 2248
10184 4168
10184 4680
10185 329
10185 2249
10185 4169
10185 4681
10186 330
10186 2250
10186 4170
10186 4682
10187 331
10187 2251
10187 4171
10187 4683
10188 332
10188 2252
10188 4172
10188 4684
10189 333
10189 2253
10189 4173
10189 4685
10190 334
10190 2254
10190 4174
10190 4686
10191 335
10191 2255
10191 4175
10191 4687
10192 336
10192 2256
10192 4176
10192 4688
10193 337
10193 2257
10193 4177
10193 4689
10194 338
10194 2258
10194 4178
10194 4690
10195 339
10195 2259
10195 4179
10195 4691
10196 340
10196 2260
10196 4180
10196 4692
10197 341
10197 2261
10197 4181
10197 4693
10198 342
10198 2262
10198 4182
10198 4694
10199 343
10199 2263
10199 4183
10199 4695
10200 344
10200 2264
10200 4184
10200 4696
10201 345
10201 2265
10201 4185
10201 4697
10202 346
10202 2266
10202 4186
10202 4698
10203 347
10203 2267
10203 4187
10203 4699
10204 348
10204 2268
10204 4188
10204 4700
10205 349
10205 2269
10205 4189
10205 4701
10206 350
10206 2270
10206 4190
10206 4702
10207 351
10207 2271
10207 4191
10207 4703
10208 352
10208 2272
10208 4192
10208 4704
10209 353
10209 2273
10209 4193
10209 4705
10210 354
10210 2274
10210 4194
10210 4706
10211 355
10211 2275
10211 4195
10211 4707
10212 356
10212 2276
10212 4196
10212 4708
10213 357
10213 2277
10213 4197
10213 4709
10214 358
10214 2278
10214 4198
10214 4710
10215 359
10215 2279
10215 4199
10215 4711
10216 360
10216 2280
10216 4200
10216 4712
10217 361
10217 2281
10217 4201
10217 4713
10218 362
10218 2282
10218 4202
10218 4714
10219 363
10219 2283
10219 4203
10219 4715
10220 364
10220 2284
10220 4204
10220 4716
10221 365
10221 2285
10221 4205
10221 4717
10222 366
10222 2286
10222 4206
10222 4718
10223 367
10223 2287
10223 4207
10223 4719
10224 368
10224 2288
10224 4208
10224 4720
10225 369
10225 2289
10225 4209
10225 4721
10226 370
10226 2290
10226 4210
10226 4722
10227 371
10227 2291
10227 4211
10227 4723
10228 372
10228 2292
10228 4212
10228 4724
10229 373
10229 2293
10229 4213
10229 4725
10230 374
10230 2294
10230 4214
10230 4726
10231 375
10231 2295
10231 4215
10231 4727
10232 376
10232 2296
10232 4216
10232 4728
10233 377
10233 2297
10233 4217
10233 4729
10234 378
10234 2298
10234 4218
10234 4730
10235 379
10235 2299
10235 4219
10235 4731
10236 380
10236 2300
10236 4220
10236 4732
10237 381
10237 2301
10237 4221
10237 4733
10238 382
10238 2302
10238 4222
10238 4734
10239 383
10239 2303
10239 4223
10239 4735
10240 384
10240 2304
10240 2816
10240 4736
10241 385
10241 2305
10241 2817
10241 4737
10242 386
10242 2306
10242 2818
10242 4738
10243 387
10243 2307
10243 2819
10243 4739
10244 388
10244 2308
10244 2820
10244 4740
10245 389
10245 2309
10245 2821
10245 4741
10246 390
10246 2310
10246 2822
10246 4742
10247 391
10247 2311
10247 2823
10247 4743
10248 392
10248 2312
10248 2824
10248 4744
10249 393
10249 2313
10249 2825
10249 4745
10250 394
10250 2314
10250 2826
10250 4746
10251 395
10251 2315
10251 2827
10251 4747
10252 396
10252 2316
10252 2828
10252 4748
10253 397
10253 2317
10253 2829
10253 4749
10254 398
10254 2318
10254 2830
10254 4750
10255 399
10255 2319
10255 2831
10255 4751
10256 400
10256 2320
10256 2832
10256 4752
10257 401
10257 2321
10257 2833
10257 4753
10258 402
10258 2322
10258 2834
10258 4754
10259 403
10259 2323
10259 2835
10259 4755
10260 404
10260 2324
10260 2836
10260 4756
10261 405
10261 2325
10261 2837
10261 4757
10262 406
10262 2326
10262 2838
10262 4758
10263 407
10263 2327
10263 2839
10263 4759
10264 408
10264 2328
10264 2840
10264 4760
10265 409
10265 2329
10265 2841
10265 4761
10266 410
10266 2330
10266 2842
10266 4762
10267 411
10267 2331
10267 2843
10267 4763
10268 412
10268 2332
10268 2844
10268 4764
10269 413
10269 2333
10269 2845
10269 4765
10270 414
10270 2334
10270 2846
10270 4766
10271 415
10271 2335
10271 2847
10271 4767
10272 416
10272 2336
10272 2848
10272 4768
10273 417
10273 2337
10273 2849
10273 4769
10274 418
10274 2338
10274 2850
10274 4770
10275 419
10275 2339
10275 2851
10275 4771
10276 420
10276 2340
10276 2852
10276 4772
10277 421
10277 2341
10277 2853
10277 4773
10278 422
10278 2342
10278 2854
10278 4774
10279 423
10279 2343
10279 2855
10279 4775
10280 424
10280 2344
10280 2856
10280 4776
10281 425
10281 2345
10281 2857
10281 4777
10282 426
10282 2346
10282 2858
10282 4778
10283 427
10283 2347
10283 2859
10283 4779
10284 428
10284 2348
10284 2860
10284 4780
10285 429
10285 2349
10285 2861
10285 4781
10286 430
10286 2350
10286 2862
10286 4782
10287 431
10287 2351
10287 2863
10287 4783
10288 432
10288 2352
10288 2864
10288 4784
10289 433
10289 2353
10289 2865
10289 4785
10290 434
10290 2354
10290 2866
10290 4786
10291 435
10291 2355
10291 2867
10291 4787
10292 436
10292 2356
10292 2868
10292 4788
10293 437
10293 2357
10293 2869
10293 4789
10294 438
10294 2358
10294 2870
10294 4790
10295 439
10295 2359
10295 2871
10295 4791
10296 440
10296 2360
10296 2872
10296 4792
10297 441
10297 2361
10297 2873
10297 4793
10298 442
10298 2362
10298 2874
10298 4794
10299 443
10299 2363
10299 2875
10299 4795
10300 444
10300 2364
10300 2876
10300 4796
10301 445
10301 2365
10301 2877
10301 4797
10302 446
10302 2366
10302 2878
10302 4798
10303 447
10303 2367
10303 2879
10303 4799
10304 448
10304 2368
10304 2880
10304 4800
10305 449
10305 2369
10305 2881
10305 4801
10306 450
10306 2370
10306 2882
10306 4802
10307 451
10307 2371
10307 2883
10307 4803
10308 452
10308 2372
10308 2884
10308 4804
10309 453
10309 2373
10309 2885
10309 4805
10310 454
10310 2374
10310 2886
10310 4806
10311 455
10311 2375
10311 2887
10311 4807
10312 456
10312 2376
10312 2888
10312 4808
10313 457
10313 2377
10313 2889
10313 4809
10314 458
10314 2378
10314 2890
10314 4810
10315 459
10315 2379
10315 2891
10315 4811
10316 460
10316 2380
10316 2892
10316 4812
10317 461
10317 2381
10317 2893
10317 4813
10318 462
10318 2382
10318 2894
10318 4814
10319 463
10319 2383
10319 2895
10319 4815
10320 464
10320 2384
10320 2896
10320 4816
10321 465
10321 2385
10321 2897
10321 4817
10322 466
10322 2386
10322 2898
10322 4818
10323 467
10323 2387
10323 2899
10323 4819
10324 468
10324 2388
10324 2900
10324 4820
10325 469
10325 2389
10325 2901
10325 4821
10326 470
10326 2390
10326 2902
10326 4822
10327 471
10327 2391
10327 2903
10327 4823
10328 472
10328 2392
10328 2904
10328 4824
10329 473
10329 2393
10329 2905
10329 4825
10330 474
10330 2394
10330 2906
10330 4826
10331 475
10331 2395
10331 2907
10331 4827
10332 476
10332 2396
10332 2908
10332 4828
10333 477
10333 2397
10333 2909
10333 4829
10334 478
10334 2398
10334 2910
10334 4830
10335 479
10335 2399
10335 2911
10335 4831
10336 480
10336 2400
10336 2912
10336 4832
10337 481
10337 2401
10337 2913
10337 4833
10338 482
10338 2402
10338 2914
10338 4834
10339 483
10339 2403
10339 2915
10339 4835
10340 484
10340 2404
10340 2916
10340 4836
10341 485
10341 2405
10341 2917
10341 4837
10342 486
10342 2406
10342 2918
10342 4838
10343 487
10343 2407
10343 2919
10343 4839
10344 488
10344 2408
10344 2920
10344 4840
10345 489
10345 2409
10345 2921
10345 4841
10346 490
10346 2410
10346 2922
10346 4842
10347 491
10347 2411
10347 2923
10347 4843
10348 492
10348 2412
10348 2924
10348 4844
10349 493
10349 2413
10349 2925
10349 4845
10350 494
10350 2414
10350 2926
10350 4846
10351 495
10351 2415
10351 2927
10351 4847
10352 496
10352 2416
10352 2928
10352 4848
10353 497
10353 2417
10353 2929
10353 4849
10354 498
10354 2418
10354 2930
10354 4850
10355 499
10355 2419
10355 2931
10355 4851
10356 500
10356 2420
10356 2932
10356 4852
10357 501
10357 2421
10357 2933
10357 4853
10358 502
10358 2422
10358 2934
10358 4854
10359 503
10359 2423
10359 2935
10359 4855
10360 504
10360 2424
10360 2936
10360 4856
10361 505
10361 2425
10361 2937
10361 4857
10362 506
10362 2426
10362 2938
10362 4858
10363 507
10363 2427
10363 2939
10363 4859
10364 508
10364 2428
10364 2940
10364 4860
10365 509
10365 2429
10365 2941
10365 4861
10366 510
10366 2430
10366 2942
10366 4862
10367 511
10367 2431
10367 2943
10367 4863
10368 512
10368 2432
10368 2944
10368 4864
10369 513
10369 2433
10369 2945
10369 4865
10370 514
10370 2434
10370 2946
10370 4866
10371 515
10371 2435
10371 2947
10371 4867
10372 516
10372 2436
10372 2948
10372 4868
10373 517
10373 2437
10373 2949
10373 4869
10374 518
10374 2438
10374 2950
10374 4870
10375 519
10375 2439
10375 2951
10375 4871
10376 520
10376 2440
10376 2952
10376 4872
10377 521
10377 2441
10377 2953
10377 4873
10378 522
10378 2442
10378 2954
10378 4874
10379 523
10379 2443
10379 2955
10379 4875
10380 524
10380 2444
10380 2956
10380 4876
10381 525
10381 2445
10381 2957
10381 4877
10382 526
10382 2446
10382 2958
10382 4878
10383 527
10383 2447
10383 2959
10383 4879
10384 528
10384 2448
10384 2960
10384 4880
10385 529
10385 2449
10385 2961
10385 4881
10386 530
10386 2450
10386 2962
10386 4882
10387 531
10387 2451
10387 2963
10387 4883
10388 532
10388 2452
10388 2964
10388 4884
10389 533
10389 2453
10389 2965
10389 4885
10390 534
10390 2454
10390 2966
10390 4886
10391 535
10391 2455
10391 2967
10391 4887
10392 536
10392 2456
10392 2968
10392 4888
10393 537
10393 2457
10393 2969
10393 4889
10394 538
10394 2458
10394 2970
10394 4890
10395 539
10395 2459
10395 2971
10395 4891
10396 540
10396 2460
10396 2972
10396 4892
10397 541
10397 2461
10397 2973
10397 4893
10398 542
10398 2462
10398 2974
10398 4894
10399 543
10399 2463
10399 2975
10399 4895
10400 544
10400 2464
10400 2976
10400 4896
10401 545
10401 2465
10401 2977
10401 4897
10402 546
10402 2466
10402 2978
10402 4898
10403 547
10403 2467
10403 2979
10403 4899
10404 548
10404 2468
10404 2980
10404 4900
10405 549
10405 2469
10405 2981
10405 4901
10406 550
10406 2470
10406 2982
10406 4902
10407 551
10407 2471
10407 2983
10407 4903
10408 552
10408 2472
10408 2984
10408 4904
10409 553
10409 2473
10409 2985
10409 4905
10410 554
10410 2474
10410 2986
10410 4906
10411 555
10411 2475
10411 2987
10411 4907
10412 556
10412 2476
10412 2988
10412 4908
10413 557
10413 2477
10413 2989
10413 4909
10414 558
10414 2478
10414 2990
10414 4910
10415 559
10415 2479
10415 2991
10415 4911
10416 560
10416 2480
10416 2992
10416 4912
10417 561
10417 2481
10417 2993
10417 4913
10418 562
10418 2482
10418 2994
10418 4914
10419 563
10419 2483
10419 2995
10419 4915
10420 564
10420 2484
10420 2996
10420 4916
10421 565
10421 2485
10421 2997
10421 4917
10422 566
10422 2486
10422 2998
10422 4918
10423 567
10423 2487
10423 2999
10423 4919
10424 568
10424 2488
10424 3000
10424 4920
10425 569
10425 2489
10425 3001
10425 4921
10426 570
10426 2490
10426 3002
10426 4922
10427 571
10427 2491
10427 3003
10427 4923
10428 572
10428 2492
10428 3004
10428 4924
10429 573
10429 2493
10429 3005
10429 4925
10430 574
10430 2494
10430 3006
10430 4926
10431 575
10431 2495
10431 3007
10431 4927
10432 576
10432 2496
10432 3008
10432 4928
10433 577
10433 2497
10433 3009
10433 4929
10434 578
10434 2498
10434 3010
10434 4930
10435 579
10435 2499
10435 3011
10435 4931
10436 580
10436 2500
10436 3012
10436 4932
10437 581
10437 2501
10437 3013
10437 4933
10438 582
10438 2502
10438 3014
10438 4934
10439 583
10439 2503
10439 3015
10439 4935
10440 584
10440 2504
10440 3016
10440 4936
10441 585
10441 2505
10441 3017
10441 4937
10442 586
10442 2506
10442 3018
10442 4938
10443 587
10443 2507
10443 3019
10443 4939
10444 588
10444 2508
10444 3020
10444 4940
10445 589
10445 2509
10445 3021
10445 4941
10446 590
10446 2510
10446 3022
10446 4942
10447 591
10447 2511
10447 3023
10447 4943
10448 592
10448 2512
10448 3024
10448 4944
10449 593
10449 2513
10449 3025
10449 4945
10450 594
10450 2514
10450 3026
10450 4946
10451 595
10451 2515
10451 3027
10451 4947
10452 596
10452 2516
10452 3028
10452 4948
10453 597
10453 2517
10453 3029
10453 4949
10454 598
10454 2518
10454 3030
10454 4950
10455 599
10455 2519
10455 3031
10455 4951
10456 600
10456 2520
10456 3032
10456 4952
10457 601
10457 2521
10457 3033
10457 4953
10458 602
10458 2522
10458 3034
10458 4954
10459 603
10459 2523
10459 3035
10459 4955
10460 604
10460 2524
10460 3036
10460 4956
10461 605
10461 2525
10461 3037
10461 4957
10462 606
10462 2526
10462 3038
10462 4958
10463 607
10463 2527
10463 3039
10463 4959
10464 608
10464 2528
10464 3040
10464 4960
10465 609
10465 2529
10465 3041
10465 4961
10466 610
10466 2530
10466 3042
10466 4962
10467 611
10467 2531
10467 3043
10467 4963
10468 612
10468 2532
10468 3044
10468 4964
10469 613
10469 2533
10469 3045
10469 4965
10470 614
10470 2534
10470 3046
10470 4966
10471 615
10471 2535
10471 3047
10471 4967
10472 616
10472 2536
10472 3048
10472 4968
10473 617
10473 2537
10473 3049
10473 4969
10474 618
10474 2538
10474 3050
10474 4970
10475 619
10475 2539
10475 3051
10475 4971
10476 620
10476 2540
10476 3052
10476 4972
10477 621
10477 2541
10477 3053
10477 4973
10478 622
10478 2542
10478 3054
10478 4974
10479 623
10479 2543
10479 3055
10479 4975
10480 624
10480 2544
10480 3056
10480 4976
10481 625
10481 2545
10481 3057
10481 4977
10482 626
10482 2546
10482 3058
10482 4978
10483 627
10483 2547
10483 3059
10483 4979
10484 628
10484 2548
10484 3060
10484 4980
10485 629
10485 2549
10485 3061
10485 4981
10486 630
10486 2550
10486 3062
10486 4982
10487 631
10487 2551
10487 3063
10487 4983
10488 632
10488 2552
10488 3064
10488 4984
10489 633
10489 2553
10489 3065
10489 4985
10490 634
10490 2554
10490 3066
10490 4986
10491 635
10491 2555
10491 3067
10491 4987
10492 636
10492 2556
10492 3068
10492 4988
10493 637
10493 2557
10493 3069
10493 4989
10494 638
10494 2558
10494 3070
10494 4990
10495 639
10495 2559
10495 3071
10495 4991
10496 640
10496 2560
10496 3072
10496 4992
10497 641
10497 2561
10497 3073
10497 4993
10498 642
10498 2562
10498 3074
10498 4994
10499 643
10499 2563
10499 3075
10499 4995
10500 644
10500 2564
10500 3076
10500 4996
10501 645
10501 2565
10501 3077
10501 4997
10502 646
10502 2566
10502 3078
10502 4998
10503 647
10503 2567
10503 3079
10503 4999
10504 648
10504 2568
10504 3080
10504 5000
10505 649
10505 2569
10505 3081
10505 5001
10506 650
10506 2570
10506 3082
10506 5002
10507 651
10507 2571
10507 3083
10507 5003
10508 652
10508 2572
10508 3084
10508 5004
10509 653
10509 2573
10509 3085
10509 5005
10510 654
10510 2574
10510 3086
10510 5006
10511 655
10511 2575
10511 3087
10511 5007
10512 656
10512 2576
10512 3088
10512 5008
10513 657
10513 2577
10513 3089
10513 5009
10514 658
10514 2578
10514 3090
10514 5010
10515 659
10515 2579
10515 3091
10515 5011
10516 660
10516 2580
10516 3092
10516 5012
10517 661
10517 2581
10517 3093
10517 5013
10518 662
10518 2582
10518 3094
10518 5014
10519 663
10519 2583
10519 3095
10519 5015
10520 664
10520 2584
10520 3096
10520 5016
10521 665
10521 2585
10521 3097
10521 5017
10522 666
10522 2586
10522 3098
10522 5018
10523 667
10523 2587
10523 3099
10523 5019
10524 668
10524 2588
10524 3100
10524 5020
10525 669
10525 2589
10525 3101
10525 5021
10526 670
10526 2590
10526 3102
10526 5022
10527 671
10527 2591
10527 3103
10527 5023
10528 672
10528 2592
10528 3104
10528 5024
10529 673
10529 2593
10529 3105
10529 5025
10530 674
10530 2594
10530 3106
10530 5026
10531 675
10531 2595
10531 3107
10531 5027
10532 676
10532 2596
10532 3108
10532 5028
10533 677
10533 2597
10533 3109
10533 5029
10534 678
10534 2598
10534 3110
10534 5030
10535 679
10535 2599
10535 3111
10535 5031
10536 680
10536 2600
10536 3112
10536 5032
10537 681
10537 2601
10537 3113
10537 5033
10538 682
10538 2602
10538 3114
10538 5034
10539 683
10539 2603
10539 3115
10539 5035
10540 684
10540 2604
10540 3116
10540 5036
10541 685
10541 2605
10541 3117
10541 5037
10542 686
10542 2606
10542 3118
10542 5038
10543 687
10543 2607
10543 3119
10543 5039
10544 688
10544 2608
10544 3120
10544 5040
10545 689
10545 2609
10545 3121
10545 5041
10546 690
10546 2610
10546 3122
10546 5042
10547 691
10547 2611
10547 3123
10547 5043
10548 692
10548 2612
10548 3124
10548 5044
10549 693
10549 2613
10549 3125
10549 5045
10550 694
10550 2614
10550 3126
10550 5046
10551 695
10551 2615
10551 3127
10551 5047
10552 696
10552 2616
10552 3128
10552 5048
10553 697
10553 2617
10553 3129
10553 5049
10554 698
10554 2618
10554 3130
10554 5050
10555 699
10555 2619
10555 3131
10555 5051
10556 700
10556 2620
10556 3132
10556 5052
10557 701
10557 2621
10557 3133
10557 5053
10558 702
10558 2622
10558 3134
10558 5054
10559 703
10559 2623
10559 3135
10559 5055
10560 704
10560 2624
10560 3136
10560 5056
10561 705
10561 2625
10561 3137
10561 5057
10562 706
10562 2626
10562 3138
10562 5058
10563 707
10563 2627
10563 3139
10563 5059
10564 708
10564 2628
10564 3140
10564 5060
10565 709
10565 2629
10565 3141
10565 5061
10566 710
10566 2630
10566 3142
10566 5062
10567 711
10567 2631
10567 3143
10567 5063
10568 712
10568 2632
10568 3144
10568 5064
10569 713
10569 2633
10569 3145
10569 5065
10570 714
10570 2634
10570 3146
10570 5066
10571 715
10571 2635
10571 3147
10571 5067
10572 716
10572 2636
10572 3148
10572 5068
10573 717
10573 2637
10573 3149
10573 5069
10574 718
10574 2638
10574 3150
10574 5070
10575 719
10575 2639
10575 3151
10575 5071
10576 720
10576 2640
10576 3152
10576 5072
10577 721
10577 2641
10577 3153
10577 5073
10578 722
10578 2642
10578 3154
10578 5074
10579 723
10579 2643
10579 3155
10579 5075
10580 724
10580 2644
10580 3156
10580 5076
10581 725
10581 2645
10581 3157
10581 5077
10582 726
10582 2646
10582 3158
10582 5078
10583 727
10583 2647
10583 3159
10583 5079
10584 728
10584 2648
10584 3160
10584 5080
10585 729
10585 2649
10585 3161
10585 5081
10586 730
10586 2650
10586 3162
10586 5082
10587 731
10587 2651
10587 3163
10587 5083
10588 732
10588 2652
10588 3164
10588 5084
10589 733
10589 2653
10589 3165
10589 5085
10590 734
10590 2654
10590 3166
10590 5086
10591 735
10591 2655
10591 3167
10591 5087
10592 736
10592 2656
10592 3168
10592 5088
10593 737
10593 2657
10593 3169
10593 5089
10594 738
10594 2658
10594 3170
10594 5090
10595 739
10595 2659
10595 3171
10595 5091
10596 740
10596 2660
10596 3172
10596 5092
10597 741
10597 2661
10597 3173
10597 5093
10598 742
10598 2662
10598 3174
10598 5094
10599 743
10599 2663
10599 3175
10599 5095
10600 744
10600 2664
10600 3176
10600 5096
10601 745
10601 2665
10601 3177
10601 5097
10602 746
10602 2666
10602 3178
10602 5098
10603 747
10603 2667
10603 3179
10603 5099
10604 748
10604 2668
10604 3180
10604 5100
10605 749
10605 2669
10605 3181
10605 5101
10606 750
10606 2670
10606 3182
10606 5102
10607 751
10607 2671
10607 3183
10607 5103
10608 752
10608 2672
10608 3184
10608 5104
10609 753
10609 2673
10609 3185
10609 5105
10610 754
10610 2674
10610 3186
10610 5106
10611 755
10611 2675
10611 3187
10611 5107
10612 756
10612 2676
10612 3188
10612 5108
10613 757
10613 2677
10613 3189
10613 5109
10614 758
10614 2678
10614 3190
10614 5110
10615 759
10615 2679
10615 3191
10615 5111
10616 760
10616 2680
10616 3192
10616 5112
10617 761
10617 2681
10617 3193
10617 5113
10618 762
10618 2682
10618 3194
10618 5114
10619 763
10619 2683
10619 3195
10619 5115
10620 764
10620 2684
10620 3196
10620 5116
10621 765
10621 2685
10621 3197
10621 5117
10622 766
10622 2686
10622 3198
10622 5118
10623 767
10623 2687
10623 3199
10623 5119
10624 768
10624 2688
10624 3200
10624 5120
10625 769
10625 2689
10625 3201
10625 5121
10626 770
10626 2690
10626 3202
10626 5122
10627 771
10627 2691
10627 3203
10627 5123
10628 772
10628 2692
10628 3204
10628 5124
10629 773
10629 2693
10629 3205
10629 5125
10630 774
10630 2694
10630 3206
10630 5126
10631 775
10631 2695
10631 3207
10631 5127
10632 776
10632 2696
10632 3208
10632 5128
10633 777
10633 2697
10633 3209
10633 5129
10634 778
10634 2698
10634 3210
10634 5130
10635 779
10635 2699
10635 3211
10635 5131
10636 780
10636 2700
10636 3212
10636 5132
10637 781
10637 2701
10637 3213
10637 5133
10638 782
10638 2702
10638 3214
10638 5134
10639 783
10639 2703
10639 3215
10639 5135
10640 784
10640 2704
10640 3216
10640 5136
10641 785
10641 2705
10641 3217
10641 5137
10642 786
10642 2706
10642 3218
10642 5138
10643 787
10643 2707
10643 3219
10643 5139
10644 788
10644 2708
10644 3220
10644 5140
10645 789
10645 2709
10645 3221
10645 5141
10646 790
10646 2710
10646 3222
10646 5142
10647 791
10647 2711
10647 3223
10647 5143
10648 792
10648 2712
10648 3224
10648 5144
10649 793
10649 2713
10649 3225
10649 5145
10650 794
10650 2714
10650 3226
10650 5146
10651 795
10651 2715
10651 3227
10651 5147
10652 796
10652 2716
10652 3228
10652 5148
10653 797
10653 2717
10653 3229
10653 5149
10654 798
10654 2718
10654 3230
10654 5150
10655 799
10655 2719
10655 3231
10655 5151
10656 800
10656 2720
10656 3232
10656 5152
10657 801
10657 2721
10657 3233
10657 5153
10658 802
10658 2722
10658 3234
10658 5154
10659 803
10659 2723
10659 3235
10659 5155
10660 804
10660 2724
10660 3236
10660 5156
10661 805
10661 2725
10661 3237
10661 5157
10662 806
10662 2726
10662 3238
10662 5158
10663 807
10663 2727
10663 3239
10663 5159
10664 808
10664 2728
10664 3240
10664 5160
10665 809
10665 2729
10665 3241
10665 5161
10666 810
10666 2730
10666 3242
10666 5162
10667 811
10667 2731
10667 3243
10667 5163
10668 812
10668 2732
10668 3244
10668 5164
10669 813
10669 2733
10669 3245
10669 5165
10670 814
10670 2734
10670 3246
10670 5166
10671 815
10671 2735
10671 3247
10671 5167
10672 816
10672 2736
10672 3248
10672 5168
10673 817
10673 2737
10673 3249
10673 5169
10674 818
10674 2738
10674 3250
10674 5170
10675 819
10675 2739
10675 3251
10675 5171
10676 820
10676 2740
10676 3252
10676 5172
10677 821
10677 2741
10677 3253
10677 5173
10678 822
10678 2742
10678 3254
10678 5174
10679 823
10679 2743
10679 3255
10679 5175
10680 824
10680 2744
10680 3256
10680 5176
10681 825
10681 2745
10681 3257
10681 5177
10682 826
10682 2746
10682 3258
10682 5178
10683 827
10683 2747
10683 3259
10683 5179
10684 828
10684 2748
10684 3260
10684 5180
10685 829
10685 2749
10685 3261
10685 5181
10686 830
10686 2750
10686 3262
10686 5182
10687 831
10687 2751
10687 3263
10687 5183
10688 832
10688 2752
10688 3264
10688 5184
10689 833
10689 2753
10689 3265
10689 5185
10690 834
10690 2754
10690 3266
10690 5186
10691 835
10691 2755
10691 3267
10691 5187
10692 836
10692 2756
10692 3268
10692 5188
10693 837
10693 2757
10693 3269
10693 5189
10694 838
10694 2758
10694 3270
10694 5190
10695 839
10695 2759
10695 3271
10695 5191
10696 840
10696 2760
10696 3272
10696 5192
10697 841
10697 2761
10697 3273
10697 5193
10698 842
10698 2762
10698 3274
10698 5194
10699 843
10699 2763
10699 3275
10699 5195
10700 844
10700 2764
10700 3276
10700 5196
10701 845
10701 2765
10701 3277
10701 5197
10702 846
10702 2766
10702 3278
10702 5198
10703 847
10703 2767
10703 3279
10703 5199
10704 848
10704 2768
10704 3280
10704 5200
10705 849
10705 2769
10705 3281
10705 5201
10706 850
10706 2770
10706 3282
10706 5202
10707 851
10707 2771
10707 3283
10707 5203
10708 852
10708 2772
10708 3284
10708 5204
10709 853
10709 2773
10709 3285
10709 5205
10710 854
10710 2774
10710 3286
10710 5206
10711 855
10711 2775
10711 3287
10711 5207
10712 856
10712 2776
10712 3288
10712 5208
10713 857
10713 2777
10713 3289
10713 5209
10714 858
10714 2778
10714 3290
10714 5210
10715 859
10715 2779
10715 3291
10715 5211
10716 860
10716 2780
10716 3292
10716 5212
10717 861
10717 2781
10717 3293
10717 5213
10718 862
10718 2782
10718 3294
10718 5214
10719 863
10719 2783
10719 3295
10719 5215
10720 864
10720 2784
10720 3296
10720 5216
10721 865
10721 2785
10721 3297
10721 5217
10722 866
10722 2786
10722 3298
10722 5218
10723 867
10723 2787
10723 3299
10723 5219
10724 868
10724 2788
10724 3300
10724 5220
10725 869
10725 2789
10725 3301
10725 5221
10726 870
10726 2790
10726 3302
10726 5222
10727 871
10727 2791
10727 3303
10727 5223
10728 872
10728 2792
10728 3304
10728 5224
10729 873
10729 2793
10729 3305
10729 5225
10730 874
10730 2794
10730 3306
10730 5226
10731 875
10731 2795
10731 3307
10731 5227
10732 876
10732 2796
10732 3308
10732 5228
10733 877
10733 2797
10733 3309
10733 5229
10734 878
10734 2798
10734 3310
10734 5230
10735 879
10735 2799
10735 3311
10735 5231
10736 880
10736 2800
10736 3312
10736 5232
10737 881
10737 2801
10737 3313
10737 5233
10738 882
10738 2802
10738 3314
10738 5234
10739 883
10739 2803
10739 3315
10739 5235
10740 884
10740 2804
10740 3316
10740 5236
10741 885
10741 2805
10741 3317
10741 5237
10742 886
10742 2806
10742 3318
10742 5238
10743 887
10743 2807
10743 3319
10743 5239
10744 888
10744 2808
10744 3320
10744 5240
10745 889
10745 2809
10745 3321
10745 5241
10746 890
10746 2810
10746 3322
10746 5242
10747 891
10747 2811
10747 3323
10747 5243
10748 892
10748 2812
10748 3324
10748 5244
10749 893
10749 2813
10749 3325
10749 5245
10750 894
10750 2814
10750 3326
10750 5246
10751 895
10751 2815
10751 3327
10751 5247
10752 896
10752 1408
10752 3328
10752 5248
10753 897
10753 1409
10753 3329
10753 5249
10754 898
10754 1410
10754 3330
10754 5250
10755 899
10755 1411
10755 3331
10755 5251
10756 900
10756 1412
10756 3332
10756 5252
10757 901
10757 1413
10757 3333
10757 5253
10758 902
10758 1414
10758 3334
10758 5254
10759 903
10759 1415
10759 3335
10759 5255
10760 904
10760 1416
10760 3336
10760 5256
10761 905
10761 1417
10761 3337
10761 5257
10762 906
10762 1418
10762 3338
10762 5258
10763 907
10763 1419
10763 3339
10763 5259
10764 908
10764 1420
10764 3340
10764 5260
10765 909
10765 1421
10765 3341
10765 5261
10766 910
10766 1422
10766 3342
10766 5262
10767 911
10767 1423
10767 3343
10767 5263
10768 912
10768 1424
10768 3344
10768 5264
10769 913
10769 1425
10769 3345
10769 5265
10770 914
10770 1426
10770 3346
10770 5266
10771 915
10771 1427
10771 3347
10771 5267
10772 916
10772 1428
10772 3348
10772 5268
10773 917
10773 1429
10773 3349
10773 5269
10774 918
10774 1430
10774 3350
10774 5270
10775 919
10775 1431
10775 3351
10775 5271
10776 920
10776 1432
10776 3352
10776 5272
10777 921
10777 1433
10777 3353
10777 5273
10778 922
10778 1434
10778 3354
10778 5274
10779 923
10779 1435
10779 3355
10779 5275
10780 924
10780 1436
10780 3356
10780 5276
10781 925
10781 1437
10781 3357
10781 5277
10782 926
10782 1438
10782 3358
10782 5278
10783 927
10783 1439
10783 3359
10783 5279
10784 928
10784 1440
10784 3360
10784 5280
10785 929
10785 1441
10785 3361
10785 5281
10786 930
10786 1442
10786 3362
10786 5282
10787 931
10787 1443
10787 3363
10787 5283
10788 932
10788 1444
10788 3364
10788 5284
10789 933
10789 1445
10789 3365
10789 5285
10790 934
10790 1446
10790 3366
10790 5286
10791 935
10791 1447
10791 3367
10791 5287
10792 936
10792 1448
10792 3368
10792 5288
10793 937
10793 1449
10793 3369
10793 5289
10794 938
10794 1450
10794 3370
10794 5290
10795 939
10795 1451
10795 3371
10795 5291
10796 940
10796 1452
10796 3372
10796 5292
10797 941
10797 1453
10797 3373
10797 5293
10798 942
10798 1454
10798 3374
10798 5294
10799 943
10799 1455
10799 3375
10799 5295
10800 944
10800 1456
10800 3376
10800 5296
10801 945
10801 1457
10801 3377
10801 5297
10802 946
10802 1458
10802 3378
10802 5298
10803 947
10803 1459
10803 3379
10803 5299
10804 948
10804 1460
10804 3380
10804 5300
10805 949
10805 1461
10805 3381
10805 5301
10806 950
10806 1462
10806 3382
10806 5302
10807 951
10807 1463
10807 3383
10807 5303
10808 952
10808 1464
10808 3384
10808 5304
10809 953
10809 1465
10809 3385
10809 5305
10810 954
10810 1466
10810 3386
10810 5306
10811 955
10811 1467
10811 3387
10811 5307
10812 956
10812 1468
10812 3388
10812 5308
10813 957
10813 1469
10813 3389
10813 5309
10814 958
10814 1470
10814 3390
10814 5310
10815 959
10815 1471
10815 3391
10815 5311
10816 960
10816 1472
10816 3392
10816 5312
10817 961
10817 1473
10817 3393
10817 5313
10818 962
10818 1474
10818 3394
10818 5314
10819 963
10819 1475
10819 3395
10819 5315
10820 964
10820 1476
10820 3396
10820 5316
10821 965
10821 1477
10821 3397
10821 5317
10822 966
10822 1478
10822 3398
10822 5318
10823 967
10823 1479
10823 3399
10823 5319
10824 968
10824 1480
10824 3400
10824 5320
10825 969
10825 1481
10825 3401
10825 5321
10826 970
10826 1482
10826 3402
10826 5322
10827 971
10827 1483
10827 3403
10827 5323
10828 972
10828 1484
10828 3404
10828 5324
10829 973
10829 1485
10829 3405
10829 5325
10830 974
10830 1486
10830 3406
10830 5326
10831 975
10831 1487
10831 3407
10831 5327
10832 976
10832 1488
10832 3408
10832 5328
10833 977
10833 1489
10833 3409
10833 5329
10834 978
10834 1490
10834 3410
10834 5330
10835 979
10835 1491
10835 3411
10835 5331
10836 980
10836 1492
10836 3412
10836 5332
10837 981
10837 1493
10837 3413
10837 5333
10838 982
10838 1494
10838 3414
10838 5334
10839 983
10839 1495
10839 3415
10839 5335
10840 984
10840 1496
10840 3416
10840 5336
10841 985
10841 1497
10841 3417
10841 5337
10842 986
10842 1498
10842 3418
10842 5338
10843 987
10843 1499
10843 3419
10843 5339
10844 988
10844 1500
10844 3420
10844 5340
10845 989
10845 1501
10845 3421
10845 5341
10846 990
10846 1502
10846 3422
10846 5342
10847 991
10847 1503
10847 3423
10847 5343
10848 992
10848 1504
10848 3424
10848 5344
10849 993
10849 1505
10849 3425
10849 5345
10850 994
10850 1506
10850 3426
10850 5346
10851 995
10851 1507
10851 3427
10851 5347
10852 996
10852 1508
10852 3428
10852 5348
10853 997
10853 1509
10853 3429
10853 5349
10854 998
10854 1510
10854 3430
10854 5350
10855 999
10855 1511
10855 3431
10855 5351
10856 1000
10856 1512
10856 3432
10856 5352
10857 1001
10857 1513
10857 3433
10857 5353
10858 1002
10858 1514
10858 3434
10858 5354
10859 1003
10859 1515
10859 3435
10859 5355
10860 1004
10860 1516
10860 3436
10860 5356
10861 1005
10861 1517
10861 3437
10861 5357
10862 1006
10862 1518
10862 3438
10862 5358
10863 1007
10863 1519
10863 3439
10863 5359
10864 1008
10864 1520
10864 3440
10864 5360
10865 1009
10865 1521
10865 3441
10865 5361
10866 1010
10866 1522
10866 3442
10866 5362
10867 1011
10867 1523
10867 3443
10867 5363
10868 1012
10868 1524
10868 3444
10868 5364
10869 1013
10869 1525
10869 3445
10869 5365
10870 1014
10870 1526
10870 3446
10870 5366
10871 1015
10871 1527
10871 3447
10871 5367
10872 1016
10872 1528
10872 3448
10872 5368
10873 1017
10873 1529
10873 3449
10873 5369
10874 1018
10874 1530
10874 3450
10874 5370
10875 1019
10875 1531
10875 3451
10875 5371
10876 1020
10876 1532
10876 3452
10876 5372
10877 1021
10877 1533
10877 3453
10877 5373
10878 1022
10878 1534
10878 3454
10878 5374
10879 1023
10879 1535
10879 3455
10879 5375
10880 1024
10880 1536
10880 3456
10880 5376
10881 1025
10881 1537
10881 3457
10881 5377
10882 1026
10882 1538
10882 3458
10882 5378
10883 1027
10883 1539
10883 3459
10883 5379
10884 1028
10884 1540
10884 3460
10884 5380
10885 1029
10885 1541
10885 3461
10885 5381
10886 1030
10886 1542
10886 3462
10886 5382
10887 1031
10887 1543
10887 3463
10887 5383
10888 1032
10888 1544
10888 3464
10888 5384
10889 1033
10889 1545
10889 3465
10889 5385
10890 1034
10890 1546
10890 3466
10890 5386
10891 1035
10891 1547
10891 3467
10891 5387
10892 1036
10892 1548
10892 3468
10892 5388
10893 1037
10893 1549
10893 3469
10893 5389
10894 1038
10894 1550
10894 3470
10894 5390
10895 1039
10895 1551
10895 3471
10895 5391
10896 1040
10896 1552
10896 3472
10896 5392
10897 1041
10897 1553
10897 3473
10897 5393
10898 1042
10898 1554
10898 3474
10898 5394
10899 1043
10899 1555
10899 3475
10899 5395
10900 1044
10900 1556
10900 3476
10900 5396
10901 1045
10901 1557
10901 3477
10901 5397
10902 1046
10902 1558
10902 3478
10902 5398
10903 1047
10903 1559
10903 3479
10903 5399
10904 1048
10904 1560
10904 3480
10904 5400
10905 1049
10905 1561
10905 3481
10905 5401
10906 1050
10906 1562
10906 3482
10906 5402
10907 1051
10907 1563
10907 3483
10907 5403
10908 1052
10908 1564
10908 3484
10908 5404
10909 1053
10909 1565
10909 3485
10909 5405
10910 1054
10910 1566
10910 3486
10910 5406
10911 1055
10911 1567
10911 3487
10911 5407
10912 1056
10912 1568
10912 3488
10912 5408
10913 1057
10913 1569
10913 3489
10913 5409
10914 1058
10914 1570
10914 3490
10914 5410
10915 1059
10915 1571
10915 3491
10915 5411
10916 1060
10916 1572
10916 3492
10916 5412
10917 1061
10917 1573
10917 3493
10917 5413
10918 1062
10918 1574
10918 3494
10918 5414
10919 1063
10919 1575
10919 3495
10919 5415
10920 1064
10920 1576
10920 3496
10920 5416
10921 1065
10921 1577
10921 3497
10921 5417
10922 1066
10922 1578
10922 3498
10922 5418
10923 1067
10923 1579
10923 3499
10923 5419
10924 1068
10924 1580
10924 3500
10924 5420
10925 1069
10925 1581
10925 3501
10925 5421
10926 1070
10926 1582
10926 3502
10926 5422
10927 1071
10927 1583
10927 3503
10927 5423
10928 1072
10928 1584
10928 3504
10928 5424
10929 1073
10929 1585
10929 3505
10929 5425
10930 1074
10930 1586
10930 3506
10930 5426
10931 1075
10931 1587
10931 3507
10931 5427
10932 1076
10932 1588
10932 3508
10932 5428
10933 1077
10933 1589
10933 3509
10933 5429
10934 1078
10934 1590
10934 3510
10934 5430
10935 1079
10935 1591
10935 3511
10935 5431
10936 1080
10936 1592
10936 3512
10936 5432
10937 1081
10937 1593
10937 3513
10937 5433
10938 1082
10938 1594
10938 3514
10938 5434
10939 1083
10939 1595
10939 3515
10939 5435
10940 1084
10940 1596
10940 3516
10940 5436
10941 1085
10941 1597
10941 3517
10941 5437
10942 1086
10942 1598
10942 3518
10942 5438
10943 1087
10943 1599
10943 3519
10943 5439
10944 1088
10944 1600
10944 3520
10944 5440
10945 1089
10945 1601
10945 3521
10945 5441
10946 1090
10946 1602
10946 3522
10946 5442
10947 1091
10947 1603
10947 3523
10947 5443
10948 1092
10948 1604
10948 3524
10948 5444
10949 1093
10949 1605
10949 3525
10949 5445
10950 1094
10950 1606
10950 3526
10950 5446
10951 1095
10951 1607
10951 3527
10951 5447
10952 1096
10952 1608
10952 3528
10952 5448
10953 1097
10953 1609
10953 3529
10953 5449
10954 1098
10954 1610
10954 3530
10954 5450
10955 1099
10955 1611
10955 3531
10955 5451
10956 1100
10956 1612
10956 3532
10956 5452
10957 1101
10957 1613
10957 3533
10957 5453
10958 1102
10958 1614
10958 3534
10958 5454
10959 1103
10959 1615
10959 3535
10959 5455
10960 1104
10960 1616
10960 3536
10960 5456
10961 1105
10961 1617
10961 3537
10961 5457
10962 1106
10962 1618
10962 3538
10962 5458
10963 1107
10963 1619
10963 3539
10963 5459
10964 1108
10964 1620
10964 3540
10964 5460
10965 1109
10965 1621
10965 3541
10965 5461
10966 1110
10966 1622
10966 3542
10966 5462
10967 1111
10967 1623
10967 3543
10967 5463
10968 1112
10968 1624
10968 3544
10968 5464
10969 1113
10969 1625
10969 3545
10969 5465
10970 1114
10970 1626
10970 3546
10970 5466
10971 1115
10971 1627
10971 3547
10971 5467
10972 1116
10972 1628
10972 3548
10972 5468
10973 1117
10973 1629
10973 3549
10973 5469
10974 1118
10974 1630
10974 3550
10974 5470
10975 1119
10975 1631
10975 3551
10975 5471
10976 1120
10976 1632
10976 3552
10976 5472
10977 1121
10977 1633
10977 3553
10977 5473
10978 1122
10978 1634
10978 3554
10978 5474
10979 1123
10979 1635
10979 3555
10979 5475
10980 1124
10980 1636
10980 3556
10980 5476
10981 1125
10981 1637
10981 3557
10981 5477
10982 1126
10982 1638
10982 3558
10982 5478
10983 1127
10983 1639
10983 3559
10983 5479
10984 1128
10984 1640
10984 3560
10984 5480
10985 1129
10985 1641
10985 3561
10985 5481
10986 1130
10986 1642
10986 3562
10986 5482
10987 1131
10987 1643
10987 3563
10987 5483
10988 1132
10988 1644
10988 3564
10988 5484
10989 1133
10989 1645
10989 3565
10989 5485
10990 1134
10990 1646
10990 3566
10990 5486
10991 1135
10991 1647
10991 3567
10991 5487
10992 1136
10992 1648
10992 3568
10992 5488
10993 1137
10993 1649
10993 3569
10993 5489
10994 1138
10994 1650
10994 3570
10994 5490
10995 1139
10995 1651
10995 3571
10995 5491
10996 1140
10996 1652
10996 3572
10996 5492
10997 1141
10997 1653
10997 3573
10997 5493
10998 1142
10998 1654
10998 3574
10998 5494
10999 1143
10999 1655
10999 3575
10999 5495
11000 1144
11000 1656
11000 3576
11000 5496
11001 1145
11001 1657
11001 3577
11001 5497
11002 1146
11002 1658
11002 3578
11002 5498
11003 1147
11003 1659
11003 3579
11003 5499
11004 1148
11004 1660
11004 3580
11004 5500
11005 1149
11005 1661
11005 3581
11005 5501
11006 1150
11006 1662
11006 3582
11006 5502
11007 1151
11007 1663
11007 3583
11007 5503
11008 1152
11008 1664
11008 3584
11008 5504
11009 1153
11009 1665
11009 3585
11009 5505
11010 1154
11010 1666
11010 3586
11010 5506
11011 1155
11011 1667
11011 3587
11011 5507
11012 1156
11012 1668
11012 3588
11012 5508
11013 1157
11013 1669
11013 3589
11013 5509
11014 1158
11014 1670
11014 3590
11014 5510
11015 1159
11015 1671
11015 3591
11015 5511
11016 1160
11016 1672
11016 3592
11016 5512
11017 1161
11017 1673
11017 3593
11017 5513
11018 1162
11018 1674
11018 3594
11018 5514
11019 1163
11019 1675
11019 3595
11019 5515
11020 1164
11020 1676
11020 3596
11020 5516
11021 1165
11021 1677
11021 3597
11021 5517
11022 1166
11022 1678
11022 3598
11022 5518
11023 1167
11023 1679
11023 3599
11023 5519
11024 1168
11024 1680
11024 3600
11024 5520
11025 1169
11025 1681
11025 3601
11025 5521
11026 1170
11026 1682
11026 3602
11026 5522
11027 1171
11027 1683
11027 3603
11027 5523
11028 1172
11028 1684
11028 3604
11028 5524
11029 1173
11029 1685
11029 3605
11029 5525
11030 1174
11030 1686
11030 3606
11030 5526
11031 1175
11031 1687
11031 3607
11031 5527
11032 1176
11032 1688
11032 3608
11032 5528
11033 1177
11033 1689
11033 3609
11033 5529
11034 1178
11034 1690
11034 3610
11034 5530
11035 1179
11035 1691
11035 3611
11035 5531
11036 1180
11036 1692
11036 3612
11036 5532
11037 1181
11037 1693
11037 3613
11037 5533
11038 1182
11038 1694
11038 3614
11038 5534
11039 1183
11039 1695
11039 3615
11039 5535
11040 1184
11040 1696
11040 3616
11040 5536
11041 1185
11041 1697
11041 3617
11041 5537
11042 1186
11042 1698
11042 3618
11042 5538
11043 1187
11043 1699
11043 3619
11043 5539
11044 1188
11044 1700
11044 3620
11044 5540
11045 1189
11045 1701
11045 3621
11045 5541
11046 1190
11046 1702
11046 3622
11046 5542
11047 1191
11047 1703
11047 3623
11047 5543
11048 1192
11048 1704
11048 3624
11048 5544
11049 1193
11049 1705
11049 3625
11049 5545
11050 1194
11050 1706
11050 3626
11050 5546
11051 1195
11051 1707
11051 3627
11051 5547
11052 1196
11052 1708
11052 3628
11052 5548
11053 1197
11053 1709
11053 3629
11053 5549
11054 1198
11054 1710
11054 3630
11054 5550
11055 1199
11055 1711
11055 3631
11055 5551
11056 1200
11056 1712
11056 3632
11056 5552
11057 1201
11057 1713
11057 3633
11057 5553
11058 1202
11058 1714
11058 3634
11058 5554
11059 1203
11059 1715
11059 3635
11059 5555
11060 1204
11060 1716
11060 3636
11060 5556
11061 1205
11061 1717
11061 3637
11061 5557
11062 1206
11062 1718
11062 3638
11062 5558
11063 1207
11063 1719
11063 3639
11063 5559
11064 1208
11064 1720
11064 3640
11064 5560
11065 1209
11065 1721
11065 3641
11065 5561
11066 1210
11066 1722
11066 3642
11066 5562
11067 1211
11067 1723
11067 3643
11067 5563
11068 1212
11068 1724
11068 3644
11068 5564
11069 1213
11069 1725
11069 3645
11069 5565
11070 1214
11070 1726
11070 3646
11070 5566
11071 1215
11071 1727
11071 3647
11071 5567
11072 1216
11072 1728
11072 3648
11072 5568
11073 1217
11073 1729
11073 3649
11073 5569
11074 1218
11074 1730
11074 3650
11074 5570
11075 1219
11075 1731
11075 3651
11075 5571
11076 1220
11076 1732
11076 3652
11076 5572
11077 1221
11077 1733
11077 3653
11077 5573
11078 1222
11078 1734
11078 3654
11078 5574
11079 1223
11079 1735
11079 3655
11079 5575
11080 1224
11080 1736
11080 3656
11080 5576
11081 1225
11081 1737
11081 3657
11081 5577
11082 1226
11082 1738
11082 3658
11082 5578
11083 1227
11083 1739
11083 3659
11083 5579
11084 1228
11084 1740
11084 3660
11084 5580
11085 1229
11085 1741
11085 3661
11085 5581
11086 1230
11086 1742
11086 3662
11086 5582
11087 1231
11087 1743
11087 3663
11087 5583
11088 1232
11088 1744
11088 3664
11088 5584
11089 1233
11089 1745
11089 3665
11089 5585
11090 1234
11090 1746
11090 3666
11090 5586
11091 1235
11091 1747
11091 3667
11091 5587
11092 1236
11092 1748
11092 3668
11092 5588
11093 1237
11093 1749
11093 3669
11093 5589
11094 1238
11094 1750
11094 3670
11094 5590
11095 1239
11095 1751
11095 3671
11095 5591
11096 1240
11096 1752
11096 3672
11096 5592
11097 1241
11097 1753
11097 3673
11097 5593
11098 1242
11098 1754
11098 3674
11098 5594
11099 1243
11099 1755
11099 3675
11099 5595
11100 1244
11100 1756
11100 3676
11100 5596
11101 1245
11101 1757
11101 3677
11101 5597
11102 1246
11102 1758
11102 3678
11102 5598
11103 1247
11103 1759
11103 3679
11103 5599
11104 1248
11104 1760
11104 3680
11104 5600
11105 1249
11105 1761
11105 3681
11105 5601
11106 1250
11106 1762
11106 3682
11106 5602
11107 1251
11107 1763
11107 3683
11107 5603
11108 1252
11108 1764
11108 3684
11108 5604
11109 1253
11109 1765
11109 3685
11109 5605
11110 1254
11110 1766
11110 3686
11110 5606
11111 1255
11111 1767
11111 3687
11111 5607
11112 1256
11112 1768
11112 3688
11112 5608
11113 1257
11113 1769
11113 3689
11113 5609
11114 1258
11114 1770
11114 3690
11114 5610
11115 1259
11115 1771
11115 3691
11115 5611
11116 1260
11116 1772
11116 3692
11116 5612
11117 1261
11117 1773
11117 3693
11117 5613
11118 1262
11118 1774
11118 3694
11118 5614
11119 1263
11119 1775
11119 3695
11119 5615
11120 1264
11120 1776
11120 3696
11120 5616
11121 1265
11121 1777
11121 3697
11121 5617
11122 1266
11122 1778
11122 3698
11122 5618
11123 1267
11123 1779
11123 3699
11123 5619
11124 1268
11124 1780
11124 3700
11124 5620
11125 1269
11125 1781
11125 3701
11125 5621
11126 1270
11126 1782
11126 3702
11126 5622
11127 1271
11127 1783
11127 3703
11127 5623
11128 1272
11128 1784
11128 3704
11128 5624
11129 1273
11129 1785
11129 3705
11129 5625
11130 1274
11130 1786
11130 3706
11130 5626
11131 1275
11131 1787
11131 3707
11131 5627
11132 1276
11132 1788
11132 3708
11132 5628
11133 1277
11133 1789
11133 3709
11133 5629
11134 1278
11134 1790
11134 3710
11134 5630
11135 1279
11135 1791
11135 3711
11135 5631
11136 1280
11136 1792
11136 3712
11136 4224
11137 1281
11137 1793
11137 3713
11137 4225
11138 1282
11138 1794
11138 3714
11138 4226
11139 1283
11139 1795
11139 3715
11139 4227
11140 1284
11140 1796
11140 3716
11140 4228
11141 1285
11141 1797
11141 3717
11141 4229
11142 1286
11142 1798
11142 3718
11142 4230
11143 1287
11143 1799
11143 3719
11143 4231
11144 1288
11144 1800
11144 3720
11144 4232
11145 1289
11145 1801
11145 3721
11145 4233
11146 1290
11146 1802
11146 3722
11146 4234
11147 1291
11147 1803
11147 3723
11147 4235
11148 1292
11148 1804
11148 3724
11148 4236
11149 1293
11149 1805
11149 3725
11149 4237
11150 1294
11150 1806
11150 3726
11150 4238
11151 1295
11151 1807
11151 3727
11151 4239
11152 1296
11152 1808
11152 3728
11152 4240
11153 1297
11153 1809
11153 3729
11153 4241
11154 1298
11154 1810
11154 3730
11154 4242
11155 1299
11155 1811
11155 3731
11155 4243
11156 1300
11156 1812
11156 3732
11156 4244
11157 1301
11157 1813
11157 3733
11157 4245
11158 1302
11158 1814
11158 3734
11158 4246
11159 1303
11159 1815
11159 3735
11159 4247
11160 1304
11160 1816
11160 3736
11160 4248
11161 1305
11161 1817
11161 3737
11161 4249
11162 1306
11162 1818
11162 3738
11162 4250
11163 1307
11163 1819
11163 3739
11163 4251
11164 1308
11164 1820
11164 3740
11164 4252
11165 1309
11165 1821
11165 3741
11165 4253
11166 1310
11166 1822
11166 3742
11166 4254
11167 1311
11167 1823
11167 3743
11167 4255
11168 1312
11168 1824
11168 3744
11168 4256
11169 1313
11169 1825
11169 3745
11169 4257
11170 1314
11170 1826
11170 3746
11170 4258
11171 1315
11171 1827
11171 3747
11171 4259
11172 1316
11172 1828
11172 3748
11172 4260
11173 1317
11173 1829
11173 3749
11173 4261
11174 1318
11174 1830
11174 3750
11174 4262
11175 1319
11175 1831
11175 3751
11175 4263
11176 1320
11176 1832
11176 3752
11176 4264
11177 1321
11177 1833
11177 3753
11177 4265
11178 1322
11178 1834
11178 3754
11178 4266
11179 1323
11179 1835
11179 3755
11179 4267
11180 1324
11180 1836
11180 3756
11180 4268
11181 1325
11181 1837
11181 3757
11181 4269
11182 1326
11182 1838
11182 3758
11182 4270
11183 1327
11183 1839
11183 3759
11183 4271
11184 1328
11184 1840
11184 3760
11184 4272
11185 1329
11185 1841
11185 3761
11185 4273
11186 1330
11186 1842
11186 3762
11186 4274
11187 1331
11187 1843
11187 3763
11187 4275
11188 1332
11188 1844
11188 3764
11188 4276
11189 1333
11189 1845
11189 3765
11189 4277
11190 1334
11190 1846
11190 3766
11190 4278
11191 1335
11191 1847
11191 3767
11191 4279
11192 1336
11192 1848
11192 3768
11192 4280
11193 1337
11193 1849
11193 3769
11193 4281
11194 1338
11194 1850
11194 3770
11194 4282
11195 1339
11195 1851
11195 3771
11195 4283
11196 1340
11196 1852
11196 3772
11196 4284
11197 1341
11197 1853
11197 3773
11197 4285
11198 1342
11198 1854
11198 3774
11198 4286
11199 1343
11199 1855
11199 3775
11199 4287
11200 1344
11200 1856
11200 3776
11200 4288
11201 1345
11201 1857
11201 3777
11201 4289
11202 1346
11202 1858
11202 3778
11202 4290
11203 1347
11203 1859
11203 3779
11203 4291
11204 1348
11204 1860
11204 3780
11204 4292
11205 1349
11205 1861
11205 3781
11205 4293
11206 1350
11206 1862
11206 3782
11206 4294
11207 1351
11207 1863
11207 3783
11207 4295
11208 1352
11208 1864
11208 3784
11208 4296
11209 1353
11209 1865
11209 3785
11209 4297
11210 1354
11210 1866
11210 3786
11210 4298
11211 1355
11211 1867
11211 3787
11211 4299
11212 1356
11212 1868
11212 3788
11212 4300
11213 1357
11213 1869
11213 3789
11213 4301
11214 1358
11214 1870
11214 3790
11214 4302
11215 1359
11215 1871
11215 3791
11215 4303
11216 1360
11216 1872
11216 3792
11216 4304
11217 1361
11217 1873
11217 3793
11217 4305
11218 1362
11218 1874
11218 3794
11218 4306
11219 1363
11219 1875
11219 3795
11219 4307
11220 1364
11220 1876
11220 3796
11220 4308
11221 1365
11221 1877
11221 3797
11221 4309
11222 1366
11222 1878
11222 3798
11222 4310
11223 1367
11223 1879
11223 3799
11223 4311
11224 1368
11224 1880
11224 3800
11224 4312
11225 1369
11225 1881
11225 3801
11225 4313
11226 1370
11226 1882
11226 3802
11226 4314
11227 1371
11227 1883
11227 3803
11227 4315
11228 1372
11228 1884
11228 3804
11228 4316
11229 1373
11229 1885
11229 3805
11229 4317
11230 1374
11230 1886
11230 3806
11230 4318
11231 1375
11231 1887
11231 3807
11231 4319
11232 1376
11232 1888
11232 3808
11232 4320
11233 1377
11233 1889
11233 3809
11233 4321
11234 1378
11234 1890
11234 3810
11234 4322
11235 1379
11235 1891
11235 3811
11235 4323
11236 1380
11236 1892
11236 3812
11236 4324
11237 1381
11237 1893
11237 3813
11237 4325
11238 1382
11238 1894
11238 3814
11238 4326
11239 1383
11239 1895
11239 3815
11239 4327
11240 1384
11240 1896
11240 3816
11240 4328
11241 1385
11241 1897
11241 3817
11241 4329
11242 1386
11242 1898
11242 3818
11242 4330
11243 1387
11243 1899
11243 3819
11243 4331
11244 1388
11244 1900
11244 3820
11244 4332
11245 1389
11245 1901
11245 3821
11245 4333
11246 1390
11246 1902
11246 3822
11246 4334
11247 1391
11247 1903
11247 3823
11247 4335
11248 1392
11248 1904
11248 3824
11248 4336
11249 1393
11249 1905
11249 3825
11249 4337
11250 1394
11250 1906
11250 3826
11250 4338
11251 1395
11251 1907
11251 3827
11251 4339
11252 1396
11252 1908
11252 3828
11252 4340
11253 1397
11253 1909
11253 3829
11253 4341
11254 1398
11254 1910
11254 3830
11254 4342
11255 1399
11255 1911
11255 3831
11255 4343
11256 1400
11256 1912
11256 3832
11256 4344
11257 1401
11257 1913
11257 3833
11257 4345
11258 1402
11258 1914
11258 3834
11258 4346
11259 1403
11259 1915
11259 3835
11259 4347
11260 1404
11260 1916
11260 3836
11260 4348
11261 1405
11261 1917
11261 3837
11261 4349
11262 1406
11262 1918
11262 3838
11262 4350
11263 1407
11263 1919
11263 3839
11263 4351
