11264 5632 45056
0 79
0 1502
0 2885
0 4288
1 66
1 1480
1 2835
1 4301
2 57
2 1462
2 2921
2 4234
3 22
3 1511
3 2932
3 4240
4 13
4 1416
4 2829
4 4302
5 70
5 1476
5 2843
5 4268
6 127
6 1507
6 2895
6 4329
7 25
7 1418
7 2858
7 4341
8 119
8 1513
8 2929
8 4346
9 78
9 1472
9 2824
9 4237
10 82
10 1446
10 2922
10 4275
11 33
11 1500
11 2930
11 4227
12 99
12 1463
12 2845
12 4260
13 122
13 1424
13 2867
13 4252
14 18
14 1443
14 2817
14 4239
15 35
15 1477
15 2823
15 4300
16 110
16 1447
16 2935
16 4231
17 114
17 1471
17 2941
17 4351
18 95
18 1481
18 2889
18 4259
19 53
19 1445
19 2876
19 4270
20 15
20 1515
20 2908
20 4310
21 7
21 1479
21 2919
21 4332
22 126
22 1470
22 2828
22 4250
23 102
23 1529
23 2830
23 4246
24 109
24 1474
24 2892
24 4349
25 9
25 1518
25 2865
25 4337
26 112
26 1506
26 2896
26 4279
27 117
27 1508
27 2822
27 4333
28 73
28 1458
28 2883
28 4277
29 24
29 1485
29 2909
29 4315
30 0
30 1527
30 2874
30 4296
31 54
31 1512
31 2856
31 4236
32 55
32 1489
32 2884
32 4243
33 41
33 1453
33 2897
33 4269
34 36
34 1483
34 2860
34 4290
35 28
35 1503
35 2833
35 4233
36 16
36 1520
36 2878
36 4282
37 120
37 1450
37 2880
37 4306
38 29
38 1492
38 2887
38 4287
39 98
39 1519
39 2886
39 4326
40 121
40 1442
40 2926
40 4247
41 47
41 1526
41 2838
41 4278
42 14
42 1435
42 2914
42 4311
43 52
43 1487
43 2863
43 4258
44 113
44 1428
44 2900
44 4334
45 80
45 1427
45 2841
45 4303
46 32
46 1420
46 2875
46 4242
47 60
47 1528
47 2868
47 4249
48 85
48 1439
48 2864
48 4317
49 23
49 1486
49 2923
49 4292
50 69
50 1533
50 2916
50 4327
51 43
51 1523
51 2816
51 4261
52 4
52 1422
52 2821
52 4286
53 26
53 1530
53 2904
53 4254
54 81
54 1419
54 2918
54 4314
55 21
55 1525
55 2881
55 4244
56 59
56 1468
56 2853
56 4316
57 84
57 1449
57 2877
57 4228
58 5
58 1493
58 2844
58 4307
59 91
59 1409
59 2931
59 4295
60 72
60 1426
60 2831
60 4344
61 51
61 1473
61 2937
61 4262
62 58
62 1494
62 2940
62 4251
63 101
63 1488
63 2882
63 4265
64 62
64 1414
64 2938
64 4335
65 125
65 1411
65 2906
65 4291
66 115
66 1429
66 2873
66 4348
67 75
67 1475
67 2819
67 4328
68 104
68 1514
68 2851
68 4293
69 40
69 1455
69 2936
69 4274
70 48
70 1461
70 2848
70 4229
71 64
71 1467
71 2834
71 4312
72 118
72 1482
72 2847
72 4319
73 42
73 1423
73 2855
73 4309
74 1
74 1421
74 2857
74 4294
75 116
75 1510
75 2925
75 4313
76 86
76 1459
76 2902
76 4255
77 74
77 1499
77 2903
77 4338
78 20
78 1457
78 2894
78 4308
79 45
79 1498
79 2839
79 4284
80 3
80 1505
80 2827
80 4336
81 89
81 1441
81 2893
81 4271
82 124
82 1451
82 2820
82 4347
83 107
83 1440
83 2871
83 4322
84 30
84 1456
84 2913
84 4263
85 31
85 1413
85 2891
85 4318
86 105
86 1431
86 2928
86 4283
87 76
87 1417
87 2915
87 4345
88 108
88 1522
88 2846
88 4224
89 37
89 1484
89 2905
89 4340
90 17
90 1425
90 2837
90 4280
91 38
91 1438
91 2901
91 4225
92 96
92 1532
92 2917
92 4297
93 63
93 1524
93 2849
93 4342
94 10
94 1517
94 2854
94 4298
95 6
95 1469
95 2852
95 4230
96 83
96 1521
96 2934
96 4272
97 87
97 1460
97 2920
97 4299
98 49
98 1432
98 2869
98 4253
99 11
99 1466
99 2927
99 4343
100 65
100 1495
100 2879
100 4324
101 93
101 1433
101 2910
101 4305
102 27
102 1490
102 2861
102 4267
103 19
103 1415
103 2924
103 4256
104 56
104 1509
104 2870
104 4321
105 68
105 1501
105 2942
105 4331
106 71
106 1531
106 2818
106 4273
107 111
107 1448
107 2826
107 4323
108 61
108 1497
108 2825
108 4245
109 103
109 1465
109 2912
109 4238
110 2
110 1454
110 2862
110 4276
111 34
111 1436
111 2866
111 4241
112 44
112 1496
112 2842
112 4248
113 100
113 1464
113 2840
113 4281
114 92
114 1452
114 2898
114 4235
115 50
115 1430
115 2907
115 4226
116 77
116 1478
116 2890
116 4350
117 88
117 1437
117 2899
117 4257
118 8
118 1410
118 2911
118 4285
119 39
119 1434
119 2872
119 4330
120 12
120 1504
120 2939
120 4304
121 46
121 1516
121 2836
121 4289
122 97
122 1412
122 2832
122 4264
123 94
123 1491
123 2933
123 4232
124 90
124 1534
124 2859
124 4339
125 67
125 1408
125 2888
125 4320
126 106
126 1535
126 2850
126 4325
127 123
127 1444
127 2943
127 4266
128 239
128 1578
128 2967
128 4359
129 165
129 1611
129 2979
129 4470
130 189
130 1602
130 3001
130 4475
131 200
131 1537
131 3027
131 4439
132 237
132 1631
132 3035
132 4374
133 179
133 1566
133 3041
133 4356
134 144
134 1599
134 2955
134 4471
135 223
135 1612
135 2974
135 4377
136 153
136 1560
136 3062
136 4476
137 143
137 1565
137 3058
137 4392
138 252
138 1574
138 2956
138 4385
139 180
139 1608
139 3005
139 4361
140 217
140 1623
140 3066
140 4446
141 198
141 1646
141 2966
141 4413
142 182
142 1582
142 3060
142 4452
143 218
143 1615
143 3020
143 4399
144 139
144 1594
144 2972
144 4368
145 147
145 1620
145 2983
145 4458
146 204
146 1649
146 2996
146 4372
147 136
147 1600
147 3011
147 4443
148 133
148 1632
148 3059
148 4422
149 176
149 1587
149 2985
149 4432
150 251
150 1561
150 2951
150 4416
151 177
151 1621
151 3026
151 4353
152 188
152 1662
152 3061
152 4366
153 192
153 1575
153 2977
153 4467
154 191
154 1614
154 2997
154 4430
155 186
155 1601
155 2992
155 4459
156 178
156 1571
156 3036
156 4371
157 152
157 1585
157 2989
157 4411
158 193
158 1618
158 3044
158 4444
159 171
159 1589
159 3040
159 4448
160 183
160 1536
160 3048
160 4387
161 224
161 1550
161 3009
161 4447
162 140
162 1619
162 2959
162 4415
163 135
163 1597
163 2945
163 4381
164 166
164 1539
164 3016
164 4473
165 142
165 1552
165 3071
165 4402
166 158
166 1648
166 2950
166 4408
167 245
167 1541
167 3004
167 4364
168 129
168 1657
168 2971
168 4388
169 211
169 1622
169 2987
169 4460
170 244
170 1548
170 2981
170 4419
171 208
171 1617
171 3052
171 4400
172 227
172 1638
172 2994
172 4426
173 170
173 1645
173 3023
173 4386
174 220
174 1544
174 3031
174 4479
175 255
175 1538
175 2986
175 4354
176 137
176 1590
176 2953
176 4398
177 243
177 1644
177 3012
177 4391
178 196
178 1558
178 3064
178 4472
179 195
179 1586
179 2980
179 4403
180 202
180 1573
180 3024
180 4425
181 132
181 1661
181 2946
181 4380
182 230
182 1581
182 3046
182 4360
183 228
183 1609
183 3045
183 4390
184 221
184 1542
184 3025
184 4358
185 205
185 1605
185 2944
185 4420
186 157
186 1658
186 3051
186 4405
187 141
187 1616
187 2976
187 4461
188 181
188 1659
188 2948
188 4445
189 207
189 1592
189 2964
189 4352
190 172
190 1625
190 3070
190 4395
191 203
191 1640
191 2984
191 4456
192 174
192 1607
192 3033
192 4465
193 197
193 1604
193 3019
193 4407
194 225
194 1660
194 3021
194 4440
195 162
195 1595
195 3068
195 4474
196 145
196 1547
196 2947
196 4469
197 201
197 1567
197 3056
197 4410
198 247
198 1641
198 3015
198 4438
199 214
199 1624
199 3050
199 4433
200 219
200 1643
200 3029
200 4431
201 146
201 1630
201 2998
201 4383
202 248
202 1639
202 3067
202 4457
203 232
203 1584
203 2952
203 4389
204 134
204 1569
204 2995
204 4394
205 222
205 1613
205 2988
205 4414
206 169
206 1591
206 3028
206 4466
207 175
207 1576
207 2958
207 4421
208 173
208 1656
208 2999
208 4435
209 199
209 1637
209 2961
209 4418
210 231
210 1562
210 3006
210 4464
211 187
211 1563
211 3038
211 4449
212 154
212 1583
212 2975
212 4393
213 215
213 1588
213 2949
213 4427
214 213
214 1580
214 2970
214 4424
215 210
215 1654
215 3065
215 4355
216 240
216 1652
216 2990
216 4397
217 164
217 1650
217 2957
217 4376
218 235
218 1545
218 3055
218 4417
219 249
219 1636
219 3022
219 4406
220 159
220 1634
220 2991
220 4367
221 138
221 1626
221 2993
221 4396
222 149
222 1663
222 3030
222 4404
223 148
223 1629
223 3049
223 4434
224 206
224 1603
224 3054
224 4378
225 163
225 1577
225 2978
225 4365
226 131
226 1564
226 2963
226 4455
227 161
227 1598
227 2968
227 4428
228 185
228 1610
228 2969
228 4384
229 209
229 1647
229 2965
229 4437
230 233
230 1568
230 3007
230 4373
231 254
231 1543
231 2973
231 4462
232 168
232 1642
232 3063
232 4441
233 130
233 1546
233 3008
233 4451
234 226
234 1593
234 2962
234 4363
235 246
235 1628
235 3037
235 4379
236 167
236 1633
236 3002
236 4477
237 156
237 1554
237 3017
237 4453
238 194
238 1635
238 3053
238 4409
239 241
239 1572
239 3042
239 4429
240 236
240 1555
240 2982
240 4468
241 151
241 1553
241 3057
241 4454
242 212
242 1579
242 3010
242 4450
243 242
243 1551
243 3003
243 4436
244 184
244 1606
244 3043
244 4478
245 253
245 1653
245 2960
245 4375
246 150
246 1655
246 3034
246 4423
247 190
247 1540
247 3014
247 4370
248 160
248 1651
248 3039
248 4463
249 250
249 1596
249 3047
249 4382
250 128
250 1557
250 3032
250 4369
251 238
251 1556
251 3013
251 4362
252 229
252 1559
252 3018
252 4412
253 234
253 1549
253 3069
253 4442
254 155
254 1570
254 3000
254 4357
255 216
255 1627
255 2954
255 4401
256 337
256 1765
256 3180
256 4484
257 356
257 1685
257 3185
257 4485
258 333
258 1732
258 3190
258 4527
259 290
259 1680
259 3131
259 4588
260 288
260 1737
260 3097
260 4528
261 277
261 1743
261 3090
261 4562
262 282
262 1723
262 3174
262 4506
263 278
263 1727
263 3084
263 4595
264 311
264 1691
264 3132
264 4520
265 345
265 1707
265 3156
265 4490
266 313
266 1705
266 3129
266 4550
267 263
267 1745
267 3149
267 4599
268 352
268 1703
268 3141
268 4480
269 323
269 1730
269 3164
269 4538
270 274
270 1718
270 3150
270 4590
271 375
271 1714
271 3082
271 4596
272 373
272 1667
272 3109
272 4587
273 366
273 1688
273 3098
273 4597
274 332
274 1740
274 3106
274 4554
275 335
275 1754
275 3146
275 4546
276 320
276 1725
276 3172
276 4568
277 307
277 1690
277 3078
277 4505
278 276
278 1674
278 3194
278 4494
279 381
279 1699
279 3117
279 4532
280 343
280 1734
280 3148
280 4488
281 327
281 1726
281 3136
281 4516
282 296
282 1696
282 3168
282 4551
283 336
283 1787
283 3155
283 4556
284 310
284 1770
284 3089
284 4510
285 361
285 1788
285 3085
285 4604
286 317
286 1695
286 3151
286 4535
287 359
287 1708
287 3181
287 4497
288 293
288 1702
288 3182
288 4607
289 371
289 1772
289 3169
289 4491
290 275
290 1717
290 3196
290 4583
291 351
291 1670
291 3121
291 4591
292 321
292 1736
292 3171
292 4606
293 318
293 1755
293 3191
293 4548
294 298
294 1739
294 3101
294 4605
295 370
295 1752
295 3159
295 4574
296 369
296 1783
296 3147
296 4509
297 266
297 1733
297 3105
297 4555
298 256
298 1724
298 3113
298 4529
299 261
299 1785
299 3187
299 4503
300 295
300 1778
300 3137
300 4507
301 287
301 1741
301 3189
301 4534
302 297
302 1716
302 3133
302 4578
303 339
303 1782
303 3170
303 4561
304 308
304 1729
304 3167
304 4573
305 262
305 1676
305 3135
305 4558
306 341
306 1768
306 3122
306 4508
307 284
307 1771
307 3128
307 4582
308 268
308 1728
308 3081
308 4571
309 257
309 1773
309 3178
309 4585
310 291
310 1681
310 3179
310 4552
311 372
311 1687
311 3072
311 4603
312 305
312 1751
312 3183
312 4592
313 270
313 1706
313 3145
313 4584
314 319
314 1668
314 3165
314 4572
315 357
315 1756
315 3104
315 4600
316 365
316 1750
316 3074
316 4517
317 376
317 1700
317 3126
317 4500
318 338
318 1764
318 3157
318 4499
319 322
319 1712
319 3110
319 4501
320 269
320 1709
320 3103
320 4522
321 348
321 1749
321 3139
321 4580
322 355
322 1766
322 3195
322 4601
323 260
323 1722
323 3120
323 4525
324 294
324 1738
324 3154
324 4531
325 349
325 1747
325 3079
325 4504
326 377
326 1713
326 3088
326 4496
327 302
327 1776
327 3115
327 4547
328 383
328 1665
328 3130
328 4576
329 272
329 1692
329 3176
329 4593
330 303
330 1781
330 3134
330 4541
331 367
331 1719
331 3077
331 4518
332 340
332 1760
332 3087
332 4486
333 273
333 1694
333 3107
333 4498
334 258
334 1786
334 3192
334 4553
335 281
335 1664
335 3075
335 4502
336 342
336 1763
336 3073
336 4594
337 379
337 1683
337 3186
337 4559
338 267
338 1672
338 3152
338 4566
339 330
339 1669
339 3166
339 4521
340 347
340 1682
340 3095
340 4577
341 363
341 1769
341 3140
341 4530
342 358
342 1677
342 3093
342 4492
343 374
343 1693
343 3096
343 4586
344 300
344 1666
344 3199
344 4557
345 280
345 1744
345 3125
345 4524
346 334
346 1735
346 3144
346 4581
347 346
347 1780
347 3116
347 4545
348 364
348 1784
348 3158
348 4542
349 265
349 1704
349 3175
349 4514
350 306
350 1775
350 3153
350 4560
351 264
351 1673
351 3173
351 4565
352 301
352 1684
352 3083
352 4539
353 350
353 1746
353 3091
353 4483
354 285
354 1742
354 3100
354 4544
355 315
355 1779
355 3127
355 4536
356 360
356 1710
356 3162
356 4569
357 292
357 1774
357 3123
357 4537
358 326
358 1689
358 3142
358 4567
359 309
359 1759
359 3108
359 4549
360 344
360 1711
360 3197
360 4570
361 283
361 1777
361 3161
361 4487
362 328
362 1720
362 3092
362 4533
363 353
363 1748
363 3138
363 4495
364 312
364 1686
364 3118
364 4481
365 362
365 1731
365 3188
365 4564
366 289
366 1678
366 3184
366 4540
367 378
367 1698
367 3086
367 4482
368 382
368 1757
368 3080
368 4589
369 331
369 1791
369 3076
369 4543
370 325
370 1697
370 3163
370 4493
371 271
371 1758
371 3160
371 4519
372 329
372 1790
372 3111
372 4511
373 324
373 1679
373 3193
373 4489
374 368
374 1701
374 3099
374 4515
375 354
375 1671
375 3124
375 4579
376 279
376 1761
376 3198
376 4598
377 286
377 1789
377 3102
377 4526
378 380
378 1762
378 3177
378 4563
379 304
379 1721
379 3119
379 4512
380 316
380 1753
380 3094
380 4602
381 259
381 1767
381 3112
381 4523
382 314
382 1715
382 3114
382 4575
383 299
383 1675
383 3143
383 4513
384 429
384 1854
384 3264
384 4674
385 502
385 1792
385 3257
385 4669
386 433
386 1826
386 3267
386 4734
387 446
387 1849
387 3232
387 4664
388 478
388 1881
388 3206
388 4611
389 428
389 1868
389 3287
389 4718
390 436
390 1882
390 3326
390 4648
391 474
391 1918
391 3216
391 4625
392 443
392 1878
392 3305
392 4638
393 509
393 1798
393 3212
393 4678
394 469
394 1914
394 3200
394 4645
395 504
395 1911
395 3277
395 4644
396 398
396 1795
396 3225
396 4670
397 471
397 1829
397 3317
397 4730
398 450
398 1897
398 3207
398 4700
399 488
399 1807
399 3313
399 4646
400 492
400 1825
400 3300
400 4686
401 468
401 1816
401 3324
401 4699
402 493
402 1879
402 3217
402 4632
403 400
403 1809
403 3299
403 4665
404 457
404 1870
404 3293
404 4650
405 479
405 1835
405 3221
405 4651
406 396
406 1806
406 3301
406 4662
407 435
407 1883
407 3246
407 4627
408 454
408 1916
408 3304
408 4675
409 458
409 1794
409 3241
409 4717
410 452
410 1831
410 3294
410 4634
411 414
411 1853
411 3314
411 4691
412 412
412 1876
412 3311
412 4619
413 491
413 1839
413 3285
413 4658
414 508
414 1899
414 3205
414 4706
415 420
415 1862
415 3262
415 4684
416 404
416 1808
416 3312
416 4617
417 415
417 1907
417 3292
417 4710
418 465
418 1850
418 3283
418 4733
419 399
419 1844
419 3227
419 4623
420 440
420 1827
420 3272
420 4667
421 413
421 1908
421 3315
421 4642
422 397
422 1819
422 3318
422 4719
423 453
423 1909
423 3295
423 4704
424 423
424 1851
424 3254
424 4680
425 431
425 1855
425 3222
425 4694
426 410
426 1880
426 3215
426 4695
427 466
427 1837
427 3281
427 4660
428 421
428 1799
428 3244
428 4708
429 391
429 1871
429 3248
429 4641
430 419
430 1822
430 3214
430 4711
431 447
431 1797
431 3321
431 4697
432 449
432 1874
432 3208
432 4687
433 416
433 1834
433 3273
433 4713
434 387
434 1811
434 3308
434 4643
435 417
435 1872
435 3210
435 4728
436 456
436 1800
436 3309
436 4726
437 500
437 1919
437 3201
437 4615
438 470
438 1815
438 3253
438 4693
439 472
439 1820
439 3259
439 4652
440 507
440 1824
440 3263
440 4612
441 403
441 1847
441 3288
441 4723
442 503
442 1905
442 3245
442 4689
443 406
443 1852
443 3239
443 4649
444 486
444 1913
444 3250
444 4688
445 432
445 1869
445 3260
445 4631
446 455
446 1904
446 3230
446 4715
447 418
447 1832
447 3243
447 4712
448 496
448 1873
448 3249
448 4653
449 401
449 1796
449 3218
449 4722
450 448
450 1889
450 3211
450 4636
451 461
451 1838
451 3296
451 4616
452 498
452 1842
452 3303
452 4679
453 409
453 1890
453 3284
453 4672
454 494
454 1887
454 3319
454 4725
455 489
455 1888
455 3247
455 4696
456 451
456 1857
456 3219
456 4622
457 424
457 1861
457 3204
457 4683
458 490
458 1848
458 3220
458 4610
459 483
459 1863
459 3278
459 4701
460 473
460 1846
460 3229
460 4621
461 389
461 1865
461 3235
461 4707
462 430
462 1845
462 3231
462 4629
463 480
463 1864
463 3251
463 4633
464 459
464 1810
464 3268
464 4705
465 427
465 1828
465 3228
465 4618
466 460
466 1793
466 3320
466 4656
467 467
467 1813
467 3258
467 4720
468 434
468 1823
468 3291
468 4620
469 497
469 1891
469 3234
469 4724
470 388
470 1843
470 3238
470 4702
471 393
471 1902
471 3316
471 4608
472 402
472 1859
472 3282
472 4624
473 499
473 1804
473 3275
473 4703
474 441
474 1886
474 3265
474 4613
475 505
475 1833
475 3255
475 4647
476 384
476 1867
476 3310
476 4716
477 394
477 1906
477 3323
477 4671
478 510
478 1877
478 3252
478 4690
479 506
479 1818
479 3261
479 4609
480 501
480 1898
480 3325
480 4685
481 425
481 1895
481 3223
481 4635
482 444
482 1860
482 3237
482 4731
483 495
483 1885
483 3271
483 4614
484 439
484 1803
484 3202
484 4692
485 392
485 1892
485 3290
485 4676
486 462
486 1884
486 3270
486 4668
487 481
487 1817
487 3289
487 4735
488 411
488 1912
488 3274
488 4654
489 442
489 1901
489 3224
489 4732
490 408
490 1812
490 3213
490 4714
491 422
491 1858
491 3279
491 4698
492 485
492 1915
492 3266
492 4661
493 395
493 1801
493 3240
493 4673
494 484
494 1893
494 3233
494 4657
495 477
495 1917
495 3298
495 4630
496 437
496 1894
496 3209
496 4727
497 390
497 1830
497 3322
497 4709
498 445
498 1903
498 3276
498 4721
499 405
499 1814
499 3286
499 4666
500 475
500 1836
500 3297
500 4659
501 426
501 1900
501 3203
501 4655
502 463
502 1875
502 3242
502 4640
503 476
503 1896
503 3280
503 4682
504 464
504 1840
504 3307
504 4637
505 487
505 1821
505 3269
505 4663
506 386
506 1802
506 3327
506 4677
507 385
507 1856
507 3306
507 4681
508 407
508 1910
508 3236
508 4639
509 438
509 1866
509 3226
509 4626
510 482
510 1841
510 3302
510 4628
511 511
511 1805
511 3256
511 4729
512 621
512 1993
512 3404
512 4862
513 566
513 2009
513 3407
513 4805
514 567
514 2026
514 3388
514 4778
515 619
515 1995
515 3421
515 4795
516 639
516 2023
516 3398
516 4837
517 584
517 2042
517 3330
517 4836
518 578
518 1925
518 3377
518 4785
519 549
519 1986
519 3405
519 4846
520 588
520 1965
520 3349
520 4827
521 552
521 1934
521 3339
521 4745
522 631
522 1937
522 3431
522 4740
523 516
523 1984
523 3399
523 4765
524 518
524 2005
524 3450
524 4848
525 526
525 1922
525 3352
525 4788
526 533
526 1923
526 3331
526 4763
527 596
527 2019
527 3374
527 4750
528 623
528 2014
528 3401
528 4767
529 572
529 1957
529 3356
529 4755
530 545
530 1959
530 3375
530 4736
531 570
531 1976
531 3451
531 4799
532 562
532 1988
532 3328
532 4780
533 531
533 1969
533 3364
533 4783
534 597
534 2022
534 3409
534 4859
535 527
535 1921
535 3362
535 4835
536 625
536 2012
536 3446
536 4809
537 582
537 2035
537 3447
537 4820
538 535
538 1962
538 3344
538 4808
539 614
539 2027
539 3335
539 4782
540 514
540 2028
540 3336
540 4850
541 594
541 1991
541 3357
541 4796
542 611
542 1994
542 3402
542 4775
543 593
543 1977
543 3368
543 4792
544 607
544 1996
544 3432
544 4838
545 622
545 1947
545 3455
545 4855
546 513
546 1953
546 3411
546 4791
547 543
547 1927
547 3417
547 4819
548 524
548 1987
548 3342
548 4793
549 555
549 2025
549 3379
549 4822
550 563
550 2004
550 3381
550 4764
551 534
551 1985
551 3353
551 4773
552 635
552 1943
552 3454
552 4823
553 576
553 1941
553 3422
553 4858
554 585
554 1971
554 3428
554 4833
555 537
555 1928
555 3338
555 4845
556 532
556 2017
556 3439
556 4753
557 530
557 1999
557 3435
557 4784
558 523
558 1983
558 3334
558 4746
559 528
559 2018
559 3345
559 4738
560 595
560 2040
560 3436
560 4831
561 568
561 1967
561 3438
561 4811
562 618
562 1992
562 3400
562 4812
563 556
563 1946
563 3403
563 4742
564 628
564 1945
564 3453
564 4797
565 615
565 2006
565 3410
565 4829
566 529
566 2002
566 3424
566 4743
567 603
567 1948
567 3452
567 4849
568 515
568 2015
568 3348
568 4749
569 521
569 1935
569 3354
569 4856
570 617
570 1966
570 3340
570 4751
571 616
571 1970
571 3371
571 4744
572 605
572 1973
572 3429
572 4770
573 598
573 2029
573 3416
573 4779
574 547
574 2032
574 3419
574 4825
575 540
575 2030
575 3443
575 4760
576 577
576 1951
576 3394
576 4748
577 548
577 2011
577 3366
577 4847
578 512
578 1982
578 3433
578 4754
579 624
579 2001
579 3337
579 4758
580 564
580 2024
580 3427
580 4830
581 633
581 1950
581 3343
581 4807
582 632
582 2021
582 3426
582 4762
583 573
583 1979
583 3408
583 4818
584 536
584 1952
584 3392
584 4824
585 591
585 2039
585 3361
585 4844
586 557
586 2036
586 3382
586 4781
587 542
587 2045
587 3414
587 4863
588 550
588 1942
588 3360
588 4766
589 519
589 2041
589 3376
589 4777
590 583
590 2043
590 3341
590 4800
591 561
591 2037
591 3358
591 4841
592 599
592 1940
592 3386
592 4813
593 525
593 1929
593 3413
593 4843
594 517
594 1920
594 3442
594 4757
595 589
595 2013
595 3370
595 4806
596 575
596 1944
596 3363
596 4816
597 546
597 1989
597 3444
597 4814
598 574
598 1931
598 3333
598 4772
599 626
599 1960
599 3329
599 4786
600 609
600 1932
600 3395
600 4857
601 586
601 1933
601 3372
601 4839
602 612
602 2020
602 3397
602 4826
603 638
603 1981
603 3420
603 4851
604 558
604 2008
604 3351
604 4752
605 636
605 1956
605 3347
605 4802
606 553
606 2000
606 3365
606 4854
607 634
607 1964
607 3440
607 4842
608 565
608 1997
608 3332
608 4756
609 600
609 2033
609 3355
609 4771
610 587
610 1958
610 3434
610 4787
611 541
611 1974
611 3449
611 4769
612 604
612 1972
612 3367
612 4761
613 613
613 1968
613 3391
613 4828
614 608
614 1930
614 3389
614 4860
615 522
615 1975
615 3448
615 4790
616 602
616 1980
616 3412
616 4804
617 538
617 1978
617 3390
617 4853
618 637
618 1926
618 3384
618 4834
619 580
619 2046
619 3373
619 4759
620 581
620 1961
620 3387
620 4840
621 554
621 2038
621 3378
621 4739
622 551
622 1954
622 3393
622 4768
623 559
623 2010
623 3350
623 4774
624 629
624 1949
624 3430
624 4741
625 630
625 2003
625 3423
625 4815
626 627
626 2016
626 3415
626 4810
627 571
627 2047
627 3396
627 4803
628 606
628 2034
628 3369
628 4817
629 520
629 1963
629 3437
629 4832
630 579
630 2031
630 3359
630 4794
631 610
631 1955
631 3445
631 4861
632 590
632 1936
632 3383
632 4798
633 601
633 1939
633 3418
633 4776
634 569
634 2044
634 3380
634 4789
635 544
635 1990
635 3441
635 4801
636 620
636 1998
636 3425
636 4821
637 560
637 1924
637 3406
637 4737
638 592
638 1938
638 3385
638 4747
639 539
639 2007
639 3346
639 4852
640 746
640 2078
640 3568
640 4868
641 675
641 2073
641 3481
641 4926
642 759
642 2174
642 3466
642 4958
643 683
643 2100
643 3503
643 4883
644 763
644 2128
644 3535
644 4944
645 644
645 2106
645 3478
645 4900
646 661
646 2121
646 3471
646 4942
647 725
647 2049
647 3525
647 4897
648 717
648 2048
648 3497
648 4910
649 696
649 2152
649 3518
649 4957
650 764
650 2129
650 3545
650 4978
651 729
651 2060
651 3577
651 4911
652 693
652 2158
652 3493
652 4914
653 733
653 2092
653 3485
653 4892
654 655
654 2142
654 3563
654 4879
655 737
655 2086
655 3521
655 4981
656 677
656 2063
656 3541
656 4949
657 749
657 2081
657 3539
657 4922
658 748
658 2102
658 3529
658 4964
659 722
659 2079
659 3504
659 4916
660 658
660 2119
660 3474
660 4939
661 699
661 2151
661 3546
661 4977
662 643
662 2070
662 3495
662 4951
663 646
663 2144
663 3558
663 4959
664 740
664 2136
664 3472
664 4948
665 674
665 2061
665 3492
665 4963
666 685
666 2098
666 3459
666 4921
667 686
667 2054
667 3533
667 4946
668 642
668 2161
668 3511
668 4873
669 687
669 2107
669 3538
669 4902
670 701
670 2104
670 3534
670 4867
671 691
671 2083
671 3489
671 4899
672 704
672 2120
672 3560
672 4965
673 663
673 2062
673 3516
673 4890
674 673
674 2140
674 3549
674 4937
675 664
675 2153
675 3528
675 4955
676 684
676 2143
676 3573
676 4886
677 747
677 2148
677 3527
677 4885
678 649
678 2175
678 3465
678 4969
679 706
679 2094
679 3542
679 4975
680 670
680 2076
680 3578
680 4934
681 657
681 2137
681 3470
681 4961
682 665
682 2138
682 3460
682 4974
683 711
683 2171
683 3506
683 4913
684 668
684 2055
684 3508
684 4906
685 753
685 2067
685 3544
685 4967
686 640
686 2167
686 3552
686 4976
687 697
687 2115
687 3555
687 4936
688 710
688 2145
688 3507
688 4891
689 732
689 2068
689 3469
689 4927
690 707
690 2133
690 3583
690 4987
691 755
691 2090
691 3483
691 4954
692 724
692 2135
692 3498
692 4869
693 654
693 2123
693 3575
693 4912
694 682
694 2066
694 3520
694 4882
695 760
695 2130
695 3569
695 4962
696 694
696 2172
696 3514
696 4990
697 750
697 2080
697 3484
697 4918
698 754
698 2160
698 3581
698 4870
699 659
699 2170
699 3490
699 4931
700 645
700 2149
700 3500
700 4950
701 695
701 2069
701 3551
701 4985
702 715
702 2097
702 3550
702 4881
703 647
703 2118
703 3509
703 4945
704 653
704 2169
704 3463
704 4984
705 743
705 2103
705 3523
705 4982
706 752
706 2091
706 3561
706 4956
707 735
707 2101
707 3512
707 4960
708 716
708 2075
708 3464
708 4904
709 679
709 2109
709 3513
709 4933
710 712
710 2114
710 3488
710 4952
711 667
711 2077
711 3531
711 4887
712 703
712 2112
712 3505
712 4877
713 651
713 2116
713 3462
713 4888
714 765
714 2111
714 3576
714 4920
715 692
715 2050
715 3526
715 4876
716 758
716 2093
716 3491
716 4932
717 650
717 2088
717 3582
717 4968
718 744
718 2057
718 3540
718 4966
719 681
719 2064
719 3580
719 4872
720 689
720 2052
720 3458
720 4973
721 672
721 2141
721 3476
721 4908
722 690
722 2095
722 3499
722 4991
723 730
723 2150
723 3501
723 4903
724 708
724 2173
724 3559
724 4923
725 648
725 2139
725 3494
725 4893
726 641
726 2165
726 3475
726 4943
727 761
727 2147
727 3567
727 4917
728 688
728 2099
728 3562
728 4941
729 766
729 2157
729 3522
729 4871
730 671
730 2089
730 3457
730 4929
731 726
731 2117
731 3467
731 4909
732 757
732 2074
732 3524
732 4988
733 680
733 2146
733 3482
733 4979
734 713
734 2155
734 3547
734 4925
735 742
735 2159
735 3532
735 4983
736 721
736 2134
736 3473
736 4896
737 662
737 2072
737 3556
737 4919
738 727
738 2096
738 3515
738 4907
739 751
739 2110
739 3566
739 4953
740 720
740 2085
740 3548
740 4901
741 731
741 2105
741 3487
741 4972
742 676
742 2087
742 3571
742 4864
743 728
743 2051
743 3572
743 4970
744 705
744 2108
744 3510
744 4875
745 756
745 2113
745 3517
745 4880
746 660
746 2168
746 3557
746 4894
747 719
747 2122
747 3479
747 4889
748 666
748 2071
748 3480
748 4905
749 698
749 2058
749 3543
749 4980
750 700
750 2163
750 3537
750 4938
751 656
751 2166
751 3496
751 4930
752 745
752 2127
752 3530
752 4928
753 762
753 2082
753 3536
753 4895
754 767
754 2132
754 3554
754 4915
755 738
755 2162
755 3574
755 4898
756 709
756 2131
756 3564
756 4940
757 669
757 2065
757 3502
757 4971
758 739
758 2156
758 3461
758 4874
759 736
759 2154
759 3570
759 4986
760 714
760 2164
760 3579
760 4878
761 652
761 2084
761 3565
761 4865
762 723
762 2056
762 3468
762 4935
763 734
763 2126
763 3456
763 4989
764 718
764 2124
764 3553
764 4924
765 741
765 2059
765 3519
765 4947
766 678
766 2125
766 3477
766 4866
767 702
767 2053
767 3486
767 4884
768 786
768 2272
768 3584
768 5072
769 817
769 2236
769 3710
769 5067
770 806
770 2259
770 3634
770 5097
771 836
771 2202
771 3626
771 5090
772 831
772 2238
772 3662
772 5015
773 862
773 2184
773 3594
773 5105
774 882
774 2286
774 3700
774 5032
775 815
775 2265
775 3685
775 5034
776 780
776 2183
776 3618
776 5008
777 864
777 2240
777 3672
777 5044
778 810
778 2267
778 3647
778 5081
779 870
779 2198
779 3648
779 5056
780 784
780 2271
780 3688
780 5065
781 795
781 2219
781 3627
781 5017
782 866
782 2206
782 3622
782 5069
783 793
783 2211
783 3638
783 5005
784 841
784 2249
784 3682
784 5023
785 891
785 2243
785 3666
785 5036
786 878
786 2218
786 3652
786 5109
787 833
787 2266
787 3644
787 5042
788 773
788 2257
788 3673
788 5115
789 863
789 2232
789 3654
789 5018
790 851
790 2191
790 3613
790 5078
791 835
791 2289
791 3623
791 5033
792 781
792 2213
792 3605
792 5035
793 783
793 2204
793 3603
793 5000
794 799
794 2180
794 3706
794 5074
795 776
795 2201
795 3668
795 5025
796 873
796 2260
796 3599
796 5059
797 879
797 2239
797 3620
797 5060
798 796
798 2261
798 3671
798 5048
799 842
799 2269
799 3695
799 5119
800 834
800 2301
800 3663
800 5080
801 800
801 2195
801 3630
801 5116
802 801
802 2293
802 3643
802 5002
803 785
803 2210
803 3698
803 5012
804 868
804 2224
804 3612
804 5073
805 888
805 2290
805 3641
805 4999
806 849
806 2178
806 3646
806 5088
807 886
807 2237
807 3684
807 5029
808 877
808 2179
808 3586
808 5011
809 887
809 2274
809 3635
809 5094
810 853
810 2181
810 3617
810 5038
811 837
811 2227
811 3708
811 5041
812 867
812 2277
812 3711
812 5099
813 791
813 2252
813 3658
813 5030
814 854
814 2194
814 3697
814 5047
815 843
815 2294
815 3610
815 5118
816 802
816 2276
816 3631
816 5077
817 777
817 2246
817 3604
817 5027
818 830
818 2200
818 3639
818 5020
819 787
819 2248
819 3670
819 5009
820 858
820 2287
820 3690
820 5004
821 782
821 2253
821 3661
821 5052
822 856
822 2281
822 3653
822 5039
823 850
823 2275
823 3702
823 5079
824 828
824 2229
824 3640
824 5106
825 844
825 2235
825 3699
825 5089
826 820
826 2187
826 3678
826 5095
827 788
827 2288
827 3705
827 5016
828 874
828 2223
828 3593
828 5070
829 893
829 2217
829 3587
829 4996
830 884
830 2221
830 3601
830 5100
831 845
831 2212
831 3701
831 4997
832 872
832 2215
832 3588
832 5075
833 881
833 2208
833 3655
833 5003
834 823
834 2254
834 3687
834 5057
835 813
835 2278
835 3676
835 5050
836 885
836 2255
836 3633
836 5082
837 852
837 2185
837 3585
837 5084
838 808
838 2280
838 3709
838 5046
839 818
839 2282
839 3607
839 4994
840 821
840 2292
840 3637
840 5063
841 816
841 2256
841 3677
841 5083
842 883
842 2207
842 3611
842 4995
843 822
843 2231
843 3681
843 5066
844 839
844 2263
844 3609
844 5112
845 890
845 2291
845 3598
845 5007
846 846
846 2262
846 3595
846 5092
847 805
847 2177
847 3602
847 4992
848 792
848 2234
848 3608
848 5019
849 769
849 2285
849 3694
849 5111
850 838
850 2273
850 3689
850 5061
851 819
851 2264
851 3596
851 5054
852 855
852 2226
852 3675
852 5053
853 871
853 2203
853 3642
853 5045
854 807
854 2245
854 3683
854 5091
855 865
855 2244
855 3628
855 5043
856 811
856 2222
856 3664
856 5113
857 825
857 2216
857 3621
857 5040
858 847
858 2268
858 3589
858 5058
859 798
859 2230
859 3696
859 5096
860 848
860 2250
860 3616
860 5021
861 824
861 2298
861 3625
861 5062
862 861
862 2300
862 3619
862 5103
863 829
863 2279
863 3600
863 5085
864 804
864 2247
864 3674
864 5001
865 770
865 2258
865 3624
865 5010
866 875
866 2214
866 3693
866 5068
867 894
867 2303
867 3667
867 5076
868 809
868 2192
868 3651
868 5086
869 832
869 2233
869 3636
869 5049
870 860
870 2193
870 3592
870 5117
871 812
871 2209
871 3703
871 5102
872 826
872 2220
872 3659
872 4993
873 880
873 2176
873 3632
873 5114
874 797
874 2205
874 3704
874 5037
875 779
875 2296
875 3615
875 5104
876 859
876 2295
876 3649
876 5110
877 857
877 2225
877 3665
877 5028
878 768
878 2197
878 3629
878 5108
879 771
879 2199
879 3590
879 5022
880 869
880 2189
880 3650
880 5051
881 892
881 2270
881 3692
881 5055
882 774
882 2228
882 3686
882 5093
883 778
883 2251
883 3606
883 5013
884 895
884 2186
884 3657
884 5024
885 876
885 2299
885 3660
885 5087
886 803
886 2188
886 3597
886 5006
887 794
887 2241
887 3680
887 5014
888 814
888 2297
888 3691
888 5071
889 789
889 2182
889 3656
889 5107
890 840
890 2284
890 3679
890 5031
891 827
891 2196
891 3669
891 4998
892 889
892 2242
892 3614
892 5098
893 790
893 2283
893 3645
893 5101
894 772
894 2302
894 3591
894 5064
895 775
895 2190
895 3707
895 5026
896 951
896 2337
896 3793
896 5143
897 985
897 2406
897 3796
897 5133
898 896
898 2318
898 3738
898 5223
899 954
899 2374
899 3726
899 5162
900 972
900 2384
900 3722
900 5204
901 934
901 2325
901 3752
901 5123
902 1022
902 2382
902 3751
902 5151
903 1002
903 2358
903 3733
903 5144
904 996
904 2377
904 3831
904 5235
905 923
905 2330
905 3737
905 5170
906 919
906 2366
906 3776
906 5131
907 924
907 2381
907 3832
907 5242
908 1004
908 2305
908 3735
908 5163
909 906
909 2329
909 3758
909 5138
910 987
910 2351
910 3759
910 5228
911 967
911 2331
911 3794
911 5147
912 927
912 2319
912 3799
912 5132
913 1017
913 2362
913 3819
913 5191
914 920
914 2311
914 3771
914 5246
915 998
915 2352
915 3715
915 5213
916 945
916 2360
916 3778
916 5140
917 917
917 2326
917 3792
917 5237
918 957
918 2353
918 3746
918 5175
919 940
919 2345
919 3801
919 5219
920 977
920 2339
920 3837
920 5159
921 1023
921 2423
921 3772
921 5160
922 980
922 2348
922 3716
922 5230
923 992
923 2315
923 3764
923 5181
924 965
924 2306
924 3749
924 5203
925 964
925 2405
925 3719
925 5218
926 974
926 2383
926 3830
926 5149
927 1005
927 2342
927 3773
927 5139
928 963
928 2385
928 3795
928 5185
929 1008
929 2344
929 3817
929 5164
930 939
930 2335
930 3747
930 5148
931 953
931 2333
931 3767
931 5122
932 997
932 2421
932 3714
932 5190
933 1013
933 2393
933 3822
933 5240
934 1000
934 2310
934 3815
934 5184
935 984
935 2426
935 3725
935 5127
936 1009
936 2422
936 3828
936 5166
937 973
937 2411
937 3802
937 5211
938 921
938 2428
938 3743
938 5141
939 898
939 2401
939 3769
939 5136
940 941
940 2424
940 3736
940 5145
941 958
941 2357
941 3826
941 5180
942 948
942 2343
942 3806
942 5173
943 1016
943 2355
943 3775
943 5152
944 907
944 2392
944 3742
944 5157
945 982
945 2379
945 3756
945 5128
946 911
946 2365
946 3803
946 5198
947 928
947 2368
947 3839
947 5244
948 956
948 2323
948 3821
948 5186
949 981
949 2375
949 3782
949 5188
950 912
950 2372
950 3718
950 5174
951 947
951 2363
951 3753
951 5233
952 950
952 2317
952 3818
952 5208
953 1020
953 2413
953 3836
953 5200
954 946
954 2395
954 3732
954 5146
955 929
955 2412
955 3748
955 5176
956 944
956 2386
956 3784
956 5193
957 961
957 2336
957 3757
957 5137
958 943
958 2312
958 3754
958 5182
959 937
959 2429
959 3787
959 5168
960 949
960 2349
960 3797
960 5239
961 1007
961 2427
961 3731
961 5217
962 918
962 2373
962 3724
962 5134
963 952
963 2416
963 3779
963 5135
964 994
964 2304
964 3721
964 5130
965 899
965 2324
965 3835
965 5158
966 955
966 2376
966 3729
966 5220
967 931
967 2320
967 3783
967 5195
968 995
968 2308
968 3745
968 5225
969 978
969 2409
969 3823
969 5124
970 993
970 2370
970 3807
970 5245
971 903
971 2367
971 3730
971 5229
972 902
972 2407
972 3811
972 5222
973 1019
973 2378
973 3810
973 5241
974 930
974 2425
974 3720
974 5210
975 915
975 2314
975 3809
975 5247
976 1006
976 2394
976 3760
976 5189
977 999
977 2354
977 3744
977 5215
978 933
978 2332
978 3824
978 5197
979 922
979 2334
979 3774
979 5154
980 932
980 2316
980 3777
980 5199
981 1001
981 2389
981 3838
981 5167
982 1010
982 2359
982 3833
982 5129
983 976
983 2399
983 3728
983 5238
984 1018
984 2415
984 3790
984 5192
985 909
985 2420
985 3766
985 5187
986 969
986 2398
986 3750
986 5234
987 1003
987 2307
987 3786
987 5165
988 913
988 2391
988 3785
988 5202
989 908
989 2341
989 3739
989 5153
990 1014
990 2388
990 3763
990 5227
991 1012
991 2327
991 3804
991 5169
992 966
992 2396
992 3713
992 5155
993 1015
993 2397
993 3816
993 5214
994 904
994 2338
994 3808
994 5196
995 986
995 2402
995 3768
995 5126
996 975
996 2313
996 3741
996 5232
997 916
997 2419
997 3834
997 5172
998 1011
998 2400
998 3827
998 5121
999 935
999 2322
999 3813
999 5209
1000 925
1000 2417
1000 3791
1000 5226
1001 1021
1001 2410
1001 3780
1001 5120
1002 959
1002 2328
1002 3770
1002 5206
1003 938
1003 2414
1003 3781
1003 5178
1004 960
1004 2356
1004 3761
1004 5161
1005 989
1005 2364
1005 3829
1005 5142
1006 983
1006 2390
1006 3820
1006 5183
1007 910
1007 2408
1007 3800
1007 5156
1008 926
1008 2387
1008 3789
1008 5221
1009 901
1009 2371
1009 3825
1009 5236
1010 979
1010 2380
1010 3734
1010 5179
1011 936
1011 2309
1011 3788
1011 5216
1012 988
1012 2346
1012 3765
1012 5231
1013 905
1013 2403
1013 3798
1013 5177
1014 900
1014 2347
1014 3740
1014 5212
1015 962
1015 2431
1015 3762
1015 5201
1016 991
1016 2418
1016 3812
1016 5150
1017 914
1017 2350
1017 3723
1017 5171
1018 970
1018 2361
1018 3805
1018 5194
1019 942
1019 2321
1019 3755
1019 5243
1020 990
1020 2430
1020 3814
1020 5125
1021 897
1021 2340
1021 3727
1021 5207
1022 971
1022 2404
1022 3717
1022 5205
1023 968
1023 2369
1023 3712
1023 5224
1024 1145
1024 2483
1024 3894
1024 5299
1025 1071
1025 2551
1025 3862
1025 5315
1026 1070
1026 2433
1026 3934
1026 5288
1027 1088
1027 2451
1027 3941
1027 5340
1028 1036
1028 2473
1028 3917
1028 5321
1029 1048
1029 2440
1029 3918
1029 5356
1030 1151
1030 2523
1030 3847
1030 5294
1031 1144
1031 2558
1031 3964
1031 5372
1032 1091
1032 2548
1032 3927
1032 5375
1033 1039
1033 2488
1033 3909
1033 5374
1034 1116
1034 2547
1034 3921
1034 5325
1035 1143
1035 2478
1035 3893
1035 5269
1036 1103
1036 2525
1036 3865
1036 5320
1037 1132
1037 2518
1037 3953
1037 5373
1038 1030
1038 2530
1038 3895
1038 5369
1039 1050
1039 2502
1039 3939
1039 5363
1040 1133
1040 2557
1040 3947
1040 5292
1041 1121
1041 2539
1041 3853
1041 5346
1042 1102
1042 2531
1042 3925
1042 5253
1043 1128
1043 2442
1043 3867
1043 5328
1044 1099
1044 2505
1044 3888
1044 5262
1045 1127
1045 2535
1045 3892
1045 5338
1046 1100
1046 2471
1046 3851
1046 5362
1047 1107
1047 2482
1047 3913
1047 5310
1048 1108
1048 2455
1048 3960
1048 5371
1049 1136
1049 2456
1049 3942
1049 5264
1050 1068
1050 2487
1050 3871
1050 5333
1051 1024
1051 2555
1051 3907
1051 5259
1052 1146
1052 2538
1052 3932
1052 5353
1053 1064
1053 2510
1053 3882
1053 5271
1054 1097
1054 2543
1054 3896
1054 5336
1055 1098
1055 2506
1055 3870
1055 5255
1056 1045
1056 2469
1056 3951
1056 5348
1057 1115
1057 2461
1057 3933
1057 5317
1058 1122
1058 2441
1058 3875
1058 5352
1059 1119
1059 2537
1059 3952
1059 5286
1060 1112
1060 2479
1060 3864
1060 5281
1061 1113
1061 2533
1061 3880
1061 5318
1062 1055
1062 2449
1062 3937
1062 5349
1063 1131
1063 2541
1063 3903
1063 5260
1064 1086
1064 2435
1064 3887
1064 5272
1065 1054
1065 2458
1065 3923
1065 5285
1066 1037
1066 2452
1066 3966
1066 5252
1067 1090
1067 2553
1067 3866
1067 5367
1068 1058
1068 2556
1068 3955
1068 5342
1069 1130
1069 2470
1069 3891
1069 5258
1070 1124
1070 2439
1070 3844
1070 5270
1071 1031
1071 2492
1071 3877
1071 5314
1072 1076
1072 2500
1072 3919
1072 5257
1073 1060
1073 2528
1073 3869
1073 5309
1074 1110
1074 2485
1074 3946
1074 5283
1075 1087
1075 2480
1075 3944
1075 5275
1076 1079
1076 2453
1076 3931
1076 5273
1077 1061
1077 2550
1077 3861
1077 5343
1078 1035
1078 2499
1078 3854
1078 5280
1079 1117
1079 2503
1079 3935
1079 5298
1080 1096
1080 2432
1080 3899
1080 5316
1081 1109
1081 2495
1081 3846
1081 5254
1082 1105
1082 2484
1082 3858
1082 5319
1083 1080
1083 2490
1083 3889
1083 5311
1084 1056
1084 2460
1084 3929
1084 5347
1085 1084
1085 2529
1085 3885
1085 5313
1086 1135
1086 2527
1086 3879
1086 5345
1087 1104
1087 2463
1087 3959
1087 5291
1088 1057
1088 2507
1088 3840
1088 5287
1089 1126
1089 2468
1089 3905
1089 5330
1090 1077
1090 2446
1090 3949
1090 5278
1091 1025
1091 2521
1091 3906
1091 5323
1092 1120
1092 2549
1092 3928
1092 5365
1093 1089
1093 2491
1093 3848
1093 5296
1094 1134
1094 2546
1094 3860
1094 5256
1095 1139
1095 2536
1095 3898
1095 5251
1096 1074
1096 2517
1096 3878
1096 5370
1097 1026
1097 2445
1097 3950
1097 5305
1098 1150
1098 2450
1098 3958
1098 5360
1099 1033
1099 2475
1099 3902
1099 5324
1100 1029
1100 2513
1100 3916
1100 5295
1101 1063
1101 2519
1101 3868
1101 5304
1102 1111
1102 2493
1102 3874
1102 5284
1103 1043
1103 2444
1103 3873
1103 5368
1104 1085
1104 2462
1104 3852
1104 5332
1105 1129
1105 2542
1105 3908
1105 5306
1106 1027
1106 2486
1106 3963
1106 5327
1107 1044
1107 2498
1107 3842
1107 5351
1108 1040
1108 2532
1108 3936
1108 5307
1109 1106
1109 2516
1109 3904
1109 5354
1110 1123
1110 2540
1110 3845
1110 5263
1111 1138
1111 2544
1111 3943
1111 5329
1112 1075
1112 2520
1112 3915
1112 5322
1113 1072
1113 2489
1113 3872
1113 5250
1114 1082
1114 2443
1114 3962
1114 5300
1115 1069
1115 2509
1115 3843
1115 5331
1116 1093
1116 2476
1116 3954
1116 5364
1117 1042
1117 2552
1117 3912
1117 5366
1118 1081
1118 2534
1118 3841
1118 5355
1119 1101
1119 2522
1119 3881
1119 5341
1120 1052
1120 2559
1120 3920
1120 5267
1121 1034
1121 2457
1121 3857
1121 5249
1122 1046
1122 2515
1122 3945
1122 5326
1123 1148
1123 2481
1123 3948
1123 5297
1124 1140
1124 2508
1124 3886
1124 5265
1125 1125
1125 2512
1125 3938
1125 5358
1126 1066
1126 2545
1126 3884
1126 5290
1127 1149
1127 2504
1127 3956
1127 5293
1128 1142
1128 2511
1128 3863
1128 5344
1129 1083
1129 2501
1129 3900
1129 5303
1130 1051
1130 2494
1130 3849
1130 5339
1131 1137
1131 2434
1131 3926
1131 5282
1132 1094
1132 2554
1132 3957
1132 5337
1133 1073
1133 2448
1133 3859
1133 5301
1134 1118
1134 2526
1134 3883
1134 5274
1135 1147
1135 2497
1135 3890
1135 5361
1136 1078
1136 2464
1136 3940
1136 5289
1137 1114
1137 2496
1137 3911
1137 5359
1138 1038
1138 2465
1138 3850
1138 5248
1139 1041
1139 2467
1139 3930
1139 5261
1140 1053
1140 2447
1140 3856
1140 5276
1141 1067
1141 2437
1141 3924
1141 5334
1142 1047
1142 2514
1142 3961
1142 5266
1143 1032
1143 2436
1143 3855
1143 5268
1144 1092
1144 2438
1144 3901
1144 5335
1145 1059
1145 2472
1145 3876
1145 5302
1146 1062
1146 2454
1146 3910
1146 5277
1147 1028
1147 2474
1147 3965
1147 5312
1148 1095
1148 2459
1148 3922
1148 5357
1149 1141
1149 2477
1149 3914
1149 5308
1150 1049
1150 2466
1150 3967
1150 5279
1151 1065
1151 2524
1151 3897
1151 5350
1152 1210
1152 2649
1152 3984
1152 5446
1153 1182
1153 2570
1153 3983
1153 5376
1154 1257
1154 2643
1154 4090
1154 5493
1155 1266
1155 2595
1155 4064
1155 5503
1156 1268
1156 2623
1156 3997
1156 5413
1157 1256
1157 2589
1157 4019
1157 5414
1158 1216
1158 2651
1158 4024
1158 5386
1159 1274
1159 2629
1159 4046
1159 5458
1160 1267
1160 2616
1160 3982
1160 5470
1161 1162
1161 2610
1161 4030
1161 5473
1162 1235
1162 2581
1162 4000
1162 5485
1163 1188
1163 2646
1163 4042
1163 5406
1164 1246
1164 2628
1164 3994
1164 5455
1165 1214
1165 2567
1165 4011
1165 5416
1166 1276
1166 2645
1166 4072
1166 5501
1167 1155
1167 2598
1167 4047
1167 5471
1168 1236
1168 2625
1168 4004
1168 5435
1169 1272
1169 2580
1169 4026
1169 5449
1170 1240
1170 2654
1170 4013
1170 5429
1171 1205
1171 2575
1171 3975
1171 5399
1172 1217
1172 2680
1172 4020
1172 5394
1173 1156
1173 2600
1173 4063
1173 5379
1174 1202
1174 2566
1174 4070
1174 5452
1175 1158
1175 2587
1175 4003
1175 5456
1176 1263
1176 2573
1176 4008
1176 5411
1177 1211
1177 2632
1177 3979
1177 5451
1178 1264
1178 2569
1178 4039
1178 5395
1179 1168
1179 2631
1179 4060
1179 5440
1180 1199
1180 2613
1180 4081
1180 5489
1181 1260
1181 2576
1181 4069
1181 5497
1182 1273
1182 2608
1182 4083
1182 5474
1183 1159
1183 2672
1183 3981
1183 5484
1184 1172
1184 2604
1184 4021
1184 5477
1185 1278
1185 2662
1185 4068
1185 5444
1186 1271
1186 2591
1186 4028
1186 5459
1187 1249
1187 2671
1187 4014
1187 5408
1188 1222
1188 2638
1188 4057
1188 5476
1189 1224
1189 2659
1189 4079
1189 5423
1190 1177
1190 2661
1190 4032
1190 5472
1191 1251
1191 2612
1191 4012
1191 5437
1192 1153
1192 2582
1192 4036
1192 5431
1193 1277
1193 2597
1193 4084
1193 5439
1194 1206
1194 2607
1194 4002
1194 5478
1195 1244
1195 2668
1195 4001
1195 5465
1196 1258
1196 2593
1196 4045
1196 5464
1197 1154
1197 2592
1197 4065
1197 5438
1198 1253
1198 2562
1198 3993
1198 5397
1199 1183
1199 2636
1199 4016
1199 5433
1200 1176
1200 2596
1200 4062
1200 5405
1201 1197
1201 2586
1201 4029
1201 5403
1202 1261
1202 2660
1202 4034
1202 5426
1203 1243
1203 2641
1203 4033
1203 5390
1204 1215
1204 2666
1204 4050
1204 5420
1205 1165
1205 2622
1205 4025
1205 5448
1206 1198
1206 2617
1206 4066
1206 5499
1207 1231
1207 2637
1207 3977
1207 5428
1208 1234
1208 2585
1208 4017
1208 5415
1209 1170
1209 2673
1209 4095
1209 5496
1210 1259
1210 2603
1210 4005
1210 5500
1211 1241
1211 2577
1211 4089
1211 5436
1212 1232
1212 2565
1212 4087
1212 5385
1213 1269
1213 2682
1213 4022
1213 5486
1214 1191
1214 2619
1214 4080
1214 5447
1215 1262
1215 2679
1215 4048
1215 5479
1216 1174
1216 2687
1216 3991
1216 5410
1217 1212
1217 2560
1217 4091
1217 5491
1218 1192
1218 2683
1218 3972
1218 5393
1219 1194
1219 2626
1219 3973
1219 5494
1220 1254
1220 2615
1220 4088
1220 5409
1221 1200
1221 2647
1221 4051
1221 5377
1222 1193
1222 2665
1222 4049
1222 5401
1223 1247
1223 2583
1223 3970
1223 5502
1224 1226
1224 2634
1224 4044
1224 5419
1225 1171
1225 2561
1225 4010
1225 5495
1226 1152
1226 2630
1226 4023
1226 5457
1227 1187
1227 2611
1227 4075
1227 5402
1228 1242
1228 2564
1228 3971
1228 5388
1229 1166
1229 2657
1229 4076
1229 5407
1230 1185
1230 2584
1230 4074
1230 5382
1231 1255
1231 2656
1231 4086
1231 5488
1232 1208
1232 2678
1232 3968
1232 5424
1233 1164
1233 2602
1233 4031
1233 5482
1234 1184
1234 2568
1234 3998
1234 5467
1235 1220
1235 2658
1235 4071
1235 5462
1236 1173
1236 2588
1236 4006
1236 5434
1237 1252
1237 2650
1237 3976
1237 5498
1238 1178
1238 2685
1238 4082
1238 5461
1239 1279
1239 2676
1239 4055
1239 5398
1240 1270
1240 2590
1240 4038
1240 5480
1241 1175
1241 2653
1241 4040
1241 5378
1242 1233
1242 2635
1242 4015
1242 5492
1243 1157
1243 2670
1243 4009
1243 5466
1244 1229
1244 2674
1244 4037
1244 5432
1245 1227
1245 2633
1245 3995
1245 5400
1246 1163
1246 2675
1246 3985
1246 5483
1247 1161
1247 2578
1247 4058
1247 5453
1248 1225
1248 2664
1248 3990
1248 5389
1249 1221
1249 2663
1249 4061
1249 5391
1250 1189
1250 2606
1250 3974
1250 5427
1251 1275
1251 2620
1251 4094
1251 5442
1252 1179
1252 2609
1252 4067
1252 5425
1253 1201
1253 2572
1253 3980
1253 5381
1254 1248
1254 2652
1254 4059
1254 5422
1255 1207
1255 2574
1255 3986
1255 5487
1256 1239
1256 2605
1256 4007
1256 5463
1257 1245
1257 2648
1257 4052
1257 5443
1258 1213
1258 2667
1258 4093
1258 5490
1259 1204
1259 2571
1259 4018
1259 5384
1260 1167
1260 2563
1260 4077
1260 5460
1261 1223
1261 2579
1261 3992
1261 5481
1262 1219
1262 2640
1262 3978
1262 5396
1263 1195
1263 2614
1263 4043
1263 5475
1264 1186
1264 2642
1264 3987
1264 5383
1265 1181
1265 2655
1265 4027
1265 5454
1266 1190
1266 2624
1266 3969
1266 5387
1267 1265
1267 2618
1267 4041
1267 5380
1268 1237
1268 2684
1268 3999
1268 5450
1269 1180
1269 2599
1269 4092
1269 5404
1270 1238
1270 2677
1270 4056
1270 5417
1271 1228
1271 2686
1271 4053
1271 5445
1272 1250
1272 2644
1272 4035
1272 5469
1273 1218
1273 2627
1273 4085
1273 5412
1274 1196
1274 2639
1274 4073
1274 5421
1275 1160
1275 2594
1275 3988
1275 5441
1276 1230
1276 2681
1276 3996
1276 5418
1277 1169
1277 2621
1277 3989
1277 5430
1278 1209
1278 2669
1278 4054
1278 5468
1279 1203
1279 2601
1279 4078
1279 5392
1280 1386
1280 2731
1280 4168
1280 5618
1281 1302
1281 2756
1281 4150
1281 5631
1282 1364
1282 2800
1282 4191
1282 5609
1283 1307
1283 2786
1283 4194
1283 5607
1284 1388
1284 2779
1284 4201
1284 5577
1285 1353
1285 2742
1285 4218
1285 5563
1286 1361
1286 2745
1286 4203
1286 5538
1287 1369
1287 2802
1287 4199
1287 5557
1288 1282
1288 2749
1288 4135
1288 5620
1289 1297
1289 2720
1289 4166
1289 5536
1290 1394
1290 2755
1290 4165
1290 5589
1291 1299
1291 2730
1291 4211
1291 5570
1292 1300
1292 2798
1292 4216
1292 5518
1293 1309
1293 2788
1293 4223
1293 5540
1294 1406
1294 2764
1294 4184
1294 5542
1295 1351
1295 2712
1295 4099
1295 5593
1296 1335
1296 2750
1296 4149
1296 5506
1297 1374
1297 2724
1297 4097
1297 5559
1298 1400
1298 2790
1298 4200
1298 5583
1299 1317
1299 2707
1299 4138
1299 5565
1300 1347
1300 2691
1300 4177
1300 5510
1301 1284
1301 2743
1301 4096
1301 5544
1302 1288
1302 2694
1302 4141
1302 5614
1303 1340
1303 2811
1303 4193
1303 5590
1304 1390
1304 2781
1304 4219
1304 5529
1305 1376
1305 2801
1305 4119
1305 5509
1306 1398
1306 2696
1306 4162
1306 5519
1307 1385
1307 2789
1307 4208
1307 5613
1308 1322
1308 2804
1308 4109
1308 5535
1309 1280
1309 2709
1309 4134
1309 5539
1310 1296
1310 2729
1310 4155
1310 5579
1311 1286
1311 2814
1311 4126
1311 5585
1312 1359
1312 2771
1312 4130
1312 5527
1313 1346
1313 2776
1313 4205
1313 5545
1314 1370
1314 2704
1314 4189
1314 5588
1315 1285
1315 2793
1315 4129
1315 5550
1316 1328
1316 2796
1316 4217
1316 5534
1317 1381
1317 2792
1317 4213
1317 5623
1318 1401
1318 2783
1318 4160
1318 5520
1319 1339
1319 2723
1319 4157
1319 5616
1320 1366
1320 2728
1320 4221
1320 5584
1321 1392
1321 2693
1321 4098
1321 5611
1322 1363
1322 2744
1322 4102
1322 5580
1323 1348
1323 2726
1323 4175
1323 5610
1324 1291
1324 2772
1324 4151
1324 5533
1325 1402
1325 2688
1325 4111
1325 5530
1326 1343
1326 2708
1326 4179
1326 5553
1327 1396
1327 2727
1327 4132
1327 5552
1328 1389
1328 2803
1328 4182
1328 5571
1329 1338
1329 2717
1329 4202
1329 5547
1330 1387
1330 2718
1330 4144
1330 5599
1331 1357
1331 2705
1331 4107
1331 5628
1332 1323
1332 2740
1332 4114
1332 5522
1333 1310
1333 2806
1333 4136
1333 5591
1334 1336
1334 2721
1334 4159
1334 5516
1335 1306
1335 2722
1335 4178
1335 5551
1336 1345
1336 2765
1336 4186
1336 5541
1337 1283
1337 2739
1337 4169
1337 5508
1338 1313
1338 2769
1338 4153
1338 5630
1339 1379
1339 2692
1339 4181
1339 5512
1340 1316
1340 2758
1340 4104
1340 5606
1341 1399
1341 2762
1341 4207
1341 5621
1342 1324
1342 2782
1342 4118
1342 5586
1343 1383
1343 2702
1343 4209
1343 5515
1344 1330
1344 2754
1344 4161
1344 5562
1345 1293
1345 2738
1345 4222
1345 5629
1346 1301
1346 2808
1346 4167
1346 5567
1347 1342
1347 2689
1347 4206
1347 5578
1348 1349
1348 2761
1348 4164
1348 5576
1349 1352
1349 2795
1349 4121
1349 5617
1350 1384
1350 2690
1350 4188
1350 5513
1351 1382
1351 2766
1351 4145
1351 5523
1352 1289
1352 2810
1352 4195
1352 5566
1353 1325
1353 2777
1353 4143
1353 5595
1354 1318
1354 2812
1354 4196
1354 5619
1355 1312
1355 2775
1355 4212
1355 5555
1356 1393
1356 2785
1356 4185
1356 5581
1357 1337
1357 2757
1357 4131
1357 5602
1358 1403
1358 2805
1358 4197
1358 5600
1359 1372
1359 2807
1359 4100
1359 5612
1360 1360
1360 2791
1360 4210
1360 5594
1361 1371
1361 2809
1361 4152
1361 5546
1362 1354
1362 2710
1362 4146
1362 5615
1363 1292
1363 2698
1363 4140
1363 5575
1364 1404
1364 2733
1364 4101
1364 5517
1365 1320
1365 2784
1365 4127
1365 5564
1366 1298
1366 2732
1366 4113
1366 5608
1367 1295
1367 2751
1367 4158
1367 5626
1368 1308
1368 2815
1368 4204
1368 5560
1369 1319
1369 2763
1369 4106
1369 5601
1370 1333
1370 2759
1370 4172
1370 5625
1371 1378
1371 2770
1371 4103
1371 5526
1372 1294
1372 2767
1372 4148
1372 5537
1373 1305
1373 2737
1373 4142
1373 5554
1374 1405
1374 2752
1374 4117
1374 5574
1375 1365
1375 2701
1375 4123
1375 5558
1376 1397
1376 2753
1376 4183
1376 5561
1377 1355
1377 2715
1377 4190
1377 5592
1378 1327
1378 2741
1378 4124
1378 5603
1379 1281
1379 2711
1379 4116
1379 5514
1380 1377
1380 2746
1380 4180
1380 5548
1381 1341
1381 2695
1381 4170
1381 5556
1382 1314
1382 2706
1382 4176
1382 5604
1383 1362
1383 2713
1383 4133
1383 5627
1384 1287
1384 2780
1384 4220
1384 5504
1385 1321
1385 2719
1385 4163
1385 5549
1386 1311
1386 2699
1386 4110
1386 5622
1387 1373
1387 2736
1387 4147
1387 5573
1388 1356
1388 2778
1388 4122
1388 5605
1389 1375
1389 2735
1389 4139
1389 5532
1390 1368
1390 2700
1390 4173
1390 5568
1391 1290
1391 2703
1391 4171
1391 5505
1392 1344
1392 2725
1392 4156
1392 5525
1393 1407
1393 2799
1393 4174
1393 5521
1394 1395
1394 2813
1394 4198
1394 5587
1395 1332
1395 2760
1395 4215
1395 5572
1396 1331
1396 2697
1396 4214
1396 5531
1397 1367
1397 2747
1397 4192
1397 5582
1398 1350
1398 2748
1398 4187
1398 5511
1399 1358
1399 2794
1399 4125
1399 5524
1400 1334
1400 2734
1400 4108
1400 5624
1401 1326
1401 2774
1401 4128
1401 5596
1402 1315
1402 2787
1402 4115
1402 5507
1403 1391
1403 2768
1403 4137
1403 5543
1404 1303
1404 2716
1404 4154
1404 5528
1405 1329
1405 2773
1405 4120
1405 5569
1406 1304
1406 2714
1406 4112
1406 5597
1407 1380
1407 2797
1407 4105
1407 5598
1408 1
1408 2747
1408 4050
1408 5318
1409 10
1409 2757
1409 4045
1409 5358
1410 58
1410 2722
1410 3984
1410 5339
1411 112
1411 2789
1411 4011
1411 5335
1412 56
1412 2765
1412 4039
1412 5332
1413 75
1413 2805
1413 4093
1413 5342
1414 66
1414 2811
1414 4020
1414 5263
1415 42
1415 2777
1415 4022
1415 5260
1416 33
1416 2809
1416 4017
1416 5312
1417 9
1417 2732
1417 4015
1417 5306
1418 25
1418 2741
1418 4031
1418 5286
1419 114
1419 2736
1419 3974
1419 5308
1420 108
1420 2806
1420 4038
1420 5249
1421 121
1421 2689
1421 4001
1421 5297
1422 22
1422 2790
1422 4034
1422 5280
1423 46
1423 2714
1423 4052
1423 5330
1424 19
1424 2760
1424 4089
1424 5370
1425 122
1425 2707
1425 4057
1425 5350
1426 27
1426 2758
1426 4004
1426 5346
1427 119
1427 2746
1427 4059
1427 5305
1428 118
1428 2753
1428 3996
1428 5373
1429 60
1429 2797
1429 4073
1429 5352
1430 83
1430 2748
1430 4072
1430 5273
1431 15
1431 2703
1431 4086
1431 5255
1432 76
1432 2761
1432 4035
1432 5364
1433 82
1433 2694
1433 4056
1433 5253
1434 23
1434 2770
1434 4053
1434 5310
1435 103
1435 2768
1435 3993
1435 5321
1436 64
1436 2780
1436 4064
1436 5282
1437 49
1437 2775
1437 4028
1437 5374
1438 20
1438 2695
1438 3979
1438 5355
1439 4
1439 2690
1439 4091
1439 5254
1440 109
1440 2713
1440 4062
1440 5300
1441 67
1441 2709
1441 4036
1441 5347
1442 95
1442 2710
1442 4029
1442 5269
1443 68
1443 2740
1443 4021
1443 5331
1444 32
1444 2755
1444 4063
1444 5325
1445 2
1445 2702
1445 4019
1445 5261
1446 40
1446 2763
1446 3989
1446 5337
1447 79
1447 2720
1447 3976
1447 5295
1448 8
1448 2800
1448 4003
1448 5323
1449 18
1449 2756
1449 4025
1449 5372
1450 14
1450 2810
1450 4041
1450 5252
1451 91
1451 2786
1451 4044
1451 5248
1452 96
1452 2723
1452 4010
1452 5338
1453 84
1453 2739
1453 4046
1453 5328
1454 51
1454 2794
1454 4071
1454 5284
1455 38
1455 2796
1455 3987
1455 5289
1456 102
1456 2724
1456 4008
1456 5324
1457 7
1457 2793
1457 4094
1457 5299
1458 17
1458 2727
1458 4037
1458 5322
1459 69
1459 2711
1459 4076
1459 5361
1460 63
1460 2698
1460 4095
1460 5290
1461 110
1461 2788
1461 4014
1461 5327
1462 126
1462 2715
1462 4078
1462 5360
1463 100
1463 2717
1463 4018
1463 5368
1464 125
1464 2813
1464 3981
1464 5266
1465 113
1465 2785
1465 4048
1465 5349
1466 80
1466 2762
1466 3973
1466 5356
1467 94
1467 2787
1467 4006
1467 5336
1468 115
1468 2812
1468 4002
1468 5365
1469 41
1469 2708
1469 3982
1469 5251
1470 78
1470 2743
1470 3999
1470 5317
1471 98
1471 2697
1471 4068
1471 5278
1472 47
1472 2772
1472 4054
1472 5285
1473 77
1473 2814
1473 3990
1473 5296
1474 87
1474 2734
1474 3978
1474 5315
1475 3
1475 2688
1475 4030
1475 5341
1476 6
1476 2773
1476 4049
1476 5319
1477 99
1477 2737
1477 3972
1477 5362
1478 48
1478 2696
1478 4047
1478 5307
1479 0
1479 2752
1479 4043
1479 5277
1480 101
1480 2774
1480 3985
1480 5353
1481 59
1481 2766
1481 4058
1481 5326
1482 61
1482 2700
1482 4083
1482 5375
1483 89
1483 2803
1483 4090
1483 5313
1484 86
1484 2719
1484 4070
1484 5301
1485 24
1485 2781
1485 3975
1485 5348
1486 127
1486 2730
1486 3986
1486 5369
1487 105
1487 2799
1487 4023
1487 5264
1488 53
1488 2795
1488 4027
1488 5359
1489 72
1489 2798
1489 3971
1489 5281
1490 36
1490 2764
1490 4077
1490 5250
1491 31
1491 2779
1491 4065
1491 5329
1492 55
1492 2778
1492 4081
1492 5287
1493 43
1493 2738
1493 4033
1493 5288
1494 117
1494 2783
1494 4066
1494 5320
1495 21
1495 2705
1495 3983
1495 5259
1496 16
1496 2725
1496 4067
1496 5309
1497 88
1497 2729
1497 4026
1497 5316
1498 13
1498 2784
1498 3968
1498 5344
1499 35
1499 2771
1499 3977
1499 5265
1500 116
1500 2691
1500 4042
1500 5291
1501 45
1501 2744
1501 4092
1501 5333
1502 97
1502 2791
1502 3970
1502 5257
1503 81
1503 2728
1503 4051
1503 5334
1504 28
1504 2692
1504 4069
1504 5270
1505 26
1505 2749
1505 4000
1505 5357
1506 5
1506 2782
1506 4032
1506 5340
1507 11
1507 2693
1507 3998
1507 5279
1508 34
1508 2776
1508 4013
1508 5363
1509 93
1509 2769
1509 4007
1509 5283
1510 74
1510 2706
1510 3969
1510 5293
1511 50
1511 2750
1511 3980
1511 5303
1512 120
1512 2742
1512 4084
1512 5302
1513 104
1513 2792
1513 4060
1513 5343
1514 73
1514 2726
1514 3991
1514 5256
1515 92
1515 2701
1515 3994
1515 5371
1516 29
1516 2735
1516 4024
1516 5258
1517 123
1517 2804
1517 4005
1517 5314
1518 12
1518 2767
1518 4055
1518 5351
1519 71
1519 2731
1519 4085
1519 5292
1520 39
1520 2712
1520 4061
1520 5294
1521 124
1521 2751
1521 4080
1521 5345
1522 70
1522 2745
1522 4088
1522 5271
1523 37
1523 2802
1523 4075
1523 5298
1524 111
1524 2699
1524 4040
1524 5276
1525 52
1525 2807
1525 3997
1525 5311
1526 65
1526 2716
1526 3988
1526 5366
1527 44
1527 2808
1527 4087
1527 5354
1528 30
1528 2759
1528 4082
1528 5268
1529 62
1529 2704
1529 3995
1529 5275
1530 107
1530 2718
1530 4009
1530 5267
1531 106
1531 2721
1531 4016
1531 5274
1532 90
1532 2801
1532 3992
1532 5262
1533 85
1533 2754
1533 4079
1533 5304
1534 54
1534 2815
1534 4012
1534 5367
1535 57
1535 2733
1535 4074
1535 5272
1536 239
1536 1525
1536 4124
1536 5459
1537 177
1537 1423
1537 4205
1537 5421
1538 175
1538 1524
1538 4134
1538 5395
1539 178
1539 1532
1539 4128
1539 5437
1540 238
1540 1462
1540 4103
1540 5445
1541 168
1541 1417
1541 4167
1541 5470
1542 191
1542 1468
1542 4145
1542 5389
1543 172
1543 1408
1543 4102
1543 5422
1544 186
1544 1476
1544 4209
1544 5443
1545 206
1545 1437
1545 4218
1545 5442
1546 248
1546 1466
1546 4111
1546 5444
1547 169
1547 1495
1547 4197
1547 5455
1548 137
1548 1505
1548 4141
1548 5441
1549 244
1549 1496
1549 4164
1549 5478
1550 223
1550 1434
1550 4187
1550 5419
1551 232
1551 1463
1551 4136
1551 5386
1552 151
1552 1534
1552 4210
1552 5483
1553 156
1553 1509
1553 4193
1553 5436
1554 167
1554 1465
1554 4114
1554 5390
1555 202
1555 1501
1555 4097
1555 5439
1556 211
1556 1450
1556 4215
1556 5409
1557 231
1557 1457
1557 4220
1557 5378
1558 144
1558 1445
1558 4198
1558 5401
1559 164
1559 1415
1559 4138
1559 5482
1560 243
1560 1438
1560 4115
1560 5495
1561 128
1561 1527
1561 4104
1561 5381
1562 224
1562 1442
1562 4159
1562 5502
1563 171
1563 1460
1563 4126
1563 5471
1564 141
1564 1431
1564 4144
1564 5398
1565 152
1565 1416
1565 4223
1565 5451
1566 132
1566 1474
1566 4213
1566 5379
1567 185
1567 1478
1567 4122
1567 5474
1568 208
1568 1522
1568 4118
1568 5460
1569 162
1569 1494
1569 4156
1569 5486
1570 142
1570 1513
1570 4151
1570 5469
1571 216
1571 1456
1571 4212
1571 5403
1572 203
1572 1413
1572 4203
1572 5418
1573 148
1573 1412
1573 4191
1573 5392
1574 143
1574 1444
1574 4180
1574 5429
1575 149
1575 1436
1575 4109
1575 5402
1576 138
1576 1420
1576 4214
1576 5383
1577 229
1577 1487
1577 4137
1577 5468
1578 173
1578 1490
1578 4162
1578 5397
1579 234
1579 1473
1579 4182
1579 5476
1580 139
1580 1512
1580 4204
1580 5457
1581 212
1581 1475
1581 4208
1581 5427
1582 183
1582 1472
1582 4150
1582 5430
1583 242
1583 1452
1583 4121
1583 5391
1584 187
1584 1433
1584 4160
1584 5501
1585 195
1585 1443
1585 4142
1585 5376
1586 145
1586 1471
1586 4101
1586 5499
1587 165
1587 1421
1587 4117
1587 5380
1588 249
1588 1439
1588 4189
1588 5464
1589 155
1589 1489
1589 4222
1589 5479
1590 253
1590 1455
1590 4177
1590 5400
1591 240
1591 1488
1591 4140
1591 5467
1592 225
1592 1470
1592 4127
1592 5452
1593 197
1593 1508
1593 4155
1593 5497
1594 150
1594 1428
1594 4201
1594 5449
1595 154
1595 1426
1595 4175
1595 5388
1596 136
1596 1484
1596 4207
1596 5498
1597 247
1597 1429
1597 4130
1597 5473
1598 161
1598 1529
1598 4147
1598 5503
1599 176
1599 1427
1599 4153
1599 5450
1600 163
1600 1483
1600 4174
1600 5487
1601 255
1601 1491
1601 4216
1601 5411
1602 251
1602 1498
1602 4170
1602 5448
1603 213
1603 1477
1603 4192
1603 5481
1604 131
1604 1454
1604 4202
1604 5463
1605 204
1605 1503
1605 4113
1605 5377
1606 250
1606 1502
1606 4116
1606 5465
1607 214
1607 1469
1607 4149
1607 5440
1608 158
1608 1464
1608 4099
1608 5461
1609 246
1609 1448
1609 4143
1609 5477
1610 205
1610 1440
1610 4171
1610 5414
1611 252
1611 1480
1611 4200
1611 5404
1612 233
1612 1432
1612 4107
1612 5500
1613 193
1613 1435
1613 4125
1613 5431
1614 129
1614 1446
1614 4163
1614 5491
1615 226
1615 1519
1615 4098
1615 5447
1616 180
1616 1517
1616 4148
1616 5480
1617 134
1617 1514
1617 4131
1617 5489
1618 130
1618 1447
1618 4178
1618 5423
1619 160
1619 1467
1619 4146
1619 5406
1620 245
1620 1499
1620 4120
1620 5433
1621 221
1621 1521
1621 4152
1621 5405
1622 228
1622 1449
1622 4161
1622 5428
1623 196
1623 1458
1623 4096
1623 5494
1624 201
1624 1506
1624 4139
1624 5485
1625 219
1625 1510
1625 4183
1625 5415
1626 209
1626 1500
1626 4169
1626 5387
1627 227
1627 1530
1627 4105
1627 5438
1628 166
1628 1441
1628 4211
1628 5446
1629 198
1629 1414
1629 4176
1629 5456
1630 153
1630 1410
1630 4173
1630 5496
1631 188
1631 1430
1631 4110
1631 5385
1632 215
1632 1481
1632 4154
1632 5417
1633 189
1633 1518
1633 4172
1633 5434
1634 222
1634 1526
1634 4199
1634 5407
1635 235
1635 1507
1635 4217
1635 5424
1636 236
1636 1533
1636 4188
1636 5394
1637 192
1637 1485
1637 4181
1637 5382
1638 159
1638 1493
1638 4112
1638 5453
1639 230
1639 1425
1639 4119
1639 5488
1640 237
1640 1516
1640 4132
1640 5393
1641 217
1641 1419
1641 4135
1641 5399
1642 210
1642 1528
1642 4219
1642 5454
1643 207
1643 1492
1643 4194
1643 5490
1644 140
1644 1459
1644 4185
1644 5493
1645 241
1645 1511
1645 4190
1645 5426
1646 147
1646 1486
1646 4108
1646 5466
1647 174
1647 1461
1647 4206
1647 5408
1648 200
1648 1523
1648 4168
1648 5416
1649 170
1649 1409
1649 4123
1649 5396
1650 184
1650 1531
1650 4166
1650 5484
1651 182
1651 1451
1651 4157
1651 5432
1652 146
1652 1482
1652 4221
1652 5425
1653 199
1653 1520
1653 4184
1653 5410
1654 135
1654 1418
1654 4129
1654 5384
1655 190
1655 1479
1655 4186
1655 5475
1656 133
1656 1515
1656 4158
1656 5458
1657 181
1657 1422
1657 4165
1657 5492
1658 157
1658 1453
1658 4179
1658 5420
1659 254
1659 1424
1659 4100
1659 5413
1660 218
1660 1497
1660 4195
1660 5435
1661 220
1661 1504
1661 4196
1661 5462
1662 194
1662 1535
1662 4133
1662 5472
1663 179
1663 1411
1663 4106
1663 5412
1664 361
1664 1572
1664 2886
1664 5514
1665 322
1665 1549
1665 2874
1665 5538
1666 303
1666 1630
1666 2915
1666 5515
1667 357
1667 1559
1667 2926
1667 5603
1668 349
1668 1641
1668 2828
1668 5570
1669 341
1669 1659
1669 2871
1669 5613
1670 287
1670 1565
1670 2888
1670 5545
1671 373
1671 1623
1671 2857
1671 5568
1672 382
1672 1633
1672 2939
1672 5509
1673 325
1673 1621
1673 2845
1673 5518
1674 279
1674 1626
1674 2912
1674 5504
1675 283
1675 1596
1675 2927
1675 5555
1676 297
1676 1655
1676 2940
1676 5605
1677 270
1677 1584
1677 2891
1677 5562
1678 362
1678 1620
1678 2938
1678 5539
1679 284
1679 1615
1679 2846
1679 5521
1680 258
1680 1604
1680 2823
1680 5575
1681 277
1681 1653
1681 2885
1681 5618
1682 257
1682 1592
1682 2902
1682 5527
1683 300
1683 1645
1683 2875
1683 5579
1684 335
1684 1569
1684 2900
1684 5571
1685 354
1685 1660
1685 2873
1685 5583
1686 347
1686 1598
1686 2861
1686 5585
1687 340
1687 1567
1687 2917
1687 5546
1688 275
1688 1554
1688 2869
1688 5622
1689 308
1689 1588
1689 2893
1689 5594
1690 329
1690 1637
1690 2920
1690 5597
1691 305
1691 1552
1691 2818
1691 5627
1692 280
1692 1599
1692 2833
1692 5612
1693 256
1693 1640
1693 2892
1693 5565
1694 367
1694 1591
1694 2932
1694 5528
1695 306
1695 1546
1695 2829
1695 5604
1696 293
1696 1609
1696 2921
1696 5582
1697 320
1697 1614
1697 2820
1697 5507
1698 370
1698 1560
1698 2916
1698 5572
1699 302
1699 1612
1699 2929
1699 5599
1700 262
1700 1657
1700 2897
1700 5629
1701 316
1701 1636
1701 2854
1701 5548
1702 260
1702 1643
1702 2860
1702 5547
1703 269
1703 1629
1703 2896
1703 5564
1704 338
1704 1557
1704 2863
1704 5598
1705 377
1705 1649
1705 2899
1705 5531
1706 375
1706 1568
1706 2924
1706 5588
1707 319
1707 1585
1707 2862
1707 5590
1708 374
1708 1574
1708 2914
1708 5621
1709 301
1709 1624
1709 2816
1709 5513
1710 259
1710 1547
1710 2937
1710 5530
1711 339
1711 1556
1711 2931
1711 5580
1712 350
1712 1580
1712 2865
1712 5593
1713 272
1713 1635
1713 2843
1713 5554
1714 323
1714 1543
1714 2901
1714 5560
1715 313
1715 1561
1715 2824
1715 5587
1716 268
1716 1564
1716 2887
1716 5519
1717 369
1717 1597
1717 2936
1717 5617
1718 289
1718 1610
1718 2895
1718 5523
1719 328
1719 1544
1719 2838
1719 5566
1720 365
1720 1644
1720 2855
1720 5602
1721 345
1721 1538
1721 2831
1721 5609
1722 294
1722 1600
1722 2907
1722 5615
1723 346
1723 1562
1723 2928
1723 5534
1724 359
1724 1555
1724 2852
1724 5614
1725 288
1725 1540
1725 2913
1725 5608
1726 363
1726 1607
1726 2922
1726 5529
1727 278
1727 1579
1727 2898
1727 5526
1728 314
1728 1632
1728 2882
1728 5596
1729 274
1729 1603
1729 2911
1729 5624
1730 330
1730 1605
1730 2830
1730 5540
1731 285
1731 1593
1731 2850
1731 5524
1732 336
1732 1563
1732 2832
1732 5584
1733 358
1733 1551
1733 2943
1733 5516
1734 344
1734 1613
1734 2894
1734 5543
1735 304
1735 1658
1735 2836
1735 5581
1736 343
1736 1542
1736 2925
1736 5541
1737 266
1737 1539
1737 2880
1737 5508
1738 261
1738 1586
1738 2826
1738 5520
1739 295
1739 1617
1739 2839
1739 5589
1740 298
1740 1611
1740 2849
1740 5586
1741 290
1741 1576
1741 2868
1741 5505
1742 337
1742 1587
1742 2919
1742 5625
1743 364
1743 1642
1743 2933
1743 5551
1744 317
1744 1582
1744 2841
1744 5601
1745 312
1745 1545
1745 2844
1745 5522
1746 292
1746 1566
1746 2876
1746 5542
1747 324
1747 1601
1747 2834
1747 5557
1748 352
1748 1606
1748 2908
1748 5576
1749 271
1749 1577
1749 2851
1749 5574
1750 299
1750 1581
1750 2941
1750 5506
1751 281
1751 1573
1751 2840
1751 5578
1752 263
1752 1622
1752 2923
1752 5559
1753 273
1753 1583
1753 2822
1753 5563
1754 356
1754 1639
1754 2872
1754 5550
1755 371
1755 1628
1755 2942
1755 5611
1756 383
1756 1650
1756 2870
1756 5525
1757 381
1757 1553
1757 2847
1757 5606
1758 368
1758 1625
1758 2904
1758 5511
1759 353
1759 1608
1759 2853
1759 5533
1760 265
1760 1652
1760 2827
1760 5616
1761 321
1761 1578
1761 2819
1761 5577
1762 331
1762 1646
1762 2866
1762 5536
1763 264
1763 1647
1763 2877
1763 5630
1764 342
1764 1595
1764 2878
1764 5561
1765 348
1765 1537
1765 2864
1765 5556
1766 326
1766 1548
1766 2856
1766 5600
1767 309
1767 1571
1767 2909
1767 5623
1768 360
1768 1619
1768 2910
1768 5610
1769 366
1769 1656
1769 2821
1769 5592
1770 334
1770 1627
1770 2903
1770 5591
1771 276
1771 1616
1771 2934
1771 5552
1772 376
1772 1663
1772 2842
1772 5517
1773 286
1773 1654
1773 2935
1773 5595
1774 351
1774 1638
1774 2906
1774 5549
1775 282
1775 1618
1775 2859
1775 5626
1776 291
1776 1662
1776 2890
1776 5573
1777 318
1777 1570
1777 2918
1777 5619
1778 310
1778 1634
1778 2835
1778 5553
1779 327
1779 1589
1779 2883
1779 5558
1780 307
1780 1575
1780 2848
1780 5631
1781 267
1781 1590
1781 2930
1781 5607
1782 315
1782 1631
1782 2837
1782 5537
1783 380
1783 1558
1783 2879
1783 5620
1784 332
1784 1661
1784 2817
1784 5544
1785 372
1785 1602
1785 2867
1785 5532
1786 333
1786 1550
1786 2825
1786 5628
1787 311
1787 1594
1787 2858
1787 5512
1788 355
1788 1541
1788 2881
1788 5569
1789 296
1789 1651
1789 2884
1789 5567
1790 378
1790 1648
1790 2905
1790 5535
1791 379
1791 1536
1791 2889
1791 5510
1792 387
1792 1790
1792 3066
1792 4346
1793 460
1793 1692
1793 3059
1793 4282
1794 491
1794 1723
1794 3005
1794 4285
1795 462
1795 1749
1795 3022
1795 4309
1796 465
1796 1761
1796 3034
1796 4260
1797 413
1797 1672
1797 3011
1797 4324
1798 492
1798 1748
1798 3062
1798 4273
1799 493
1799 1788
1799 3054
1799 4251
1800 509
1800 1677
1800 3038
1800 4224
1801 468
1801 1705
1801 3061
1801 4297
1802 464
1802 1755
1802 3015
1802 4281
1803 415
1803 1678
1803 3051
1803 4306
1804 435
1804 1752
1804 2995
1804 4283
1805 483
1805 1719
1805 2951
1805 4294
1806 504
1806 1689
1806 3063
1806 4327
1807 399
1807 1786
1807 2965
1807 4278
1808 507
1808 1728
1808 2967
1808 4239
1809 486
1809 1696
1809 3035
1809 4311
1810 390
1810 1772
1810 3024
1810 4249
1811 398
1811 1691
1811 2970
1811 4269
1812 443
1812 1708
1812 3070
1812 4246
1813 440
1813 1709
1813 2988
1813 4331
1814 416
1814 1720
1814 2966
1814 4245
1815 457
1815 1756
1815 3020
1815 4305
1816 476
1816 1697
1816 3045
1816 4268
1817 478
1817 1700
1817 3040
1817 4326
1818 406
1818 1698
1818 2990
1818 4334
1819 441
1819 1690
1819 2971
1819 4329
1820 489
1820 1664
1820 3029
1820 4227
1821 488
1821 1779
1821 3008
1821 4287
1822 451
1822 1764
1822 2993
1822 4298
1823 437
1823 1688
1823 2952
1823 4274
1824 397
1824 1785
1824 2987
1824 4265
1825 442
1825 1717
1825 2949
1825 4232
1826 402
1826 1775
1826 3046
1826 4332
1827 439
1827 1724
1827 3017
1827 4340
1828 481
1828 1730
1828 2955
1828 4254
1829 433
1829 1670
1829 2986
1829 4226
1830 445
1830 1706
1830 3033
1830 4238
1831 459
1831 1738
1831 3068
1831 4253
1832 389
1832 1780
1832 2957
1832 4342
1833 431
1833 1711
1833 3021
1833 4276
1834 444
1834 1680
1834 3041
1834 4351
1835 511
1835 1739
1835 3048
1835 4316
1836 429
1836 1767
1836 3004
1836 4266
1837 448
1837 1740
1837 3057
1837 4344
1838 420
1838 1669
1838 3050
1838 4337
1839 408
1839 1715
1839 3013
1839 4312
1840 501
1840 1714
1840 2945
1840 4295
1841 456
1841 1768
1841 3047
1841 4247
1842 418
1842 1770
1842 2978
1842 4308
1843 499
1843 1684
1843 3003
1843 4293
1844 477
1844 1789
1844 3049
1844 4322
1845 391
1845 1713
1845 3009
1845 4267
1846 508
1846 1754
1846 2962
1846 4299
1847 452
1847 1702
1847 2959
1847 4336
1848 471
1848 1758
1848 3053
1848 4228
1849 417
1849 1736
1849 2947
1849 4272
1850 484
1850 1741
1850 2973
1850 4263
1851 428
1851 1743
1851 2944
1851 4288
1852 400
1852 1744
1852 2997
1852 4243
1853 424
1853 1679
1853 2969
1853 4315
1854 480
1854 1725
1854 3055
1854 4300
1855 495
1855 1746
1855 3036
1855 4335
1856 392
1856 1731
1856 3026
1856 4284
1857 385
1857 1685
1857 3018
1857 4257
1858 482
1858 1787
1858 2954
1858 4320
1859 407
1859 1759
1859 2999
1859 4259
1860 412
1860 1675
1860 3069
1860 4275
1861 401
1861 1703
1861 2985
1861 4252
1862 497
1862 1687
1862 2989
1862 4341
1863 498
1863 1769
1863 3006
1863 4333
1864 396
1864 1747
1864 3023
1864 4347
1865 388
1865 1686
1865 3064
1865 4229
1866 411
1866 1666
1866 2984
1866 4271
1867 470
1867 1681
1867 3056
1867 4330
1868 423
1868 1701
1868 3067
1868 4250
1869 461
1869 1781
1869 3042
1869 4225
1870 386
1870 1695
1870 2960
1870 4242
1871 410
1871 1777
1871 2963
1871 4244
1872 473
1872 1750
1872 2950
1872 4270
1873 403
1873 1704
1873 3028
1873 4241
1874 449
1874 1773
1874 2953
1874 4318
1875 485
1875 1765
1875 2961
1875 4256
1876 496
1876 1776
1876 2983
1876 4338
1877 414
1877 1757
1877 2979
1877 4296
1878 394
1878 1771
1878 3031
1878 4280
1879 425
1879 1718
1879 2976
1879 4235
1880 454
1880 1673
1880 2956
1880 4345
1881 458
1881 1737
1881 2968
1881 4286
1882 405
1882 1782
1882 3002
1882 4349
1883 432
1883 1721
1883 3071
1883 4303
1884 463
1884 1784
1884 2994
1884 4319
1885 447
1885 1733
1885 2972
1885 4258
1886 422
1886 1753
1886 2975
1886 4304
1887 503
1887 1716
1887 2998
1887 4339
1888 490
1888 1682
1888 3065
1888 4325
1889 455
1889 1671
1889 3010
1889 4348
1890 494
1890 1760
1890 3025
1890 4237
1891 450
1891 1694
1891 2981
1891 4230
1892 466
1892 1676
1892 2980
1892 4350
1893 404
1893 1742
1893 2958
1893 4236
1894 438
1894 1707
1894 2948
1894 4233
1895 487
1895 1751
1895 2974
1895 4279
1896 467
1896 1774
1896 3001
1896 4290
1897 472
1897 1778
1897 3052
1897 4292
1898 502
1898 1710
1898 3032
1898 4262
1899 453
1899 1763
1899 3012
1899 4321
1900 475
1900 1668
1900 2946
1900 4314
1901 510
1901 1745
1901 2964
1901 4248
1902 474
1902 1734
1902 3058
1902 4323
1903 421
1903 1729
1903 3000
1903 4264
1904 395
1904 1665
1904 2996
1904 4328
1905 479
1905 1722
1905 3007
1905 4313
1906 384
1906 1674
1906 3030
1906 4261
1907 419
1907 1727
1907 3014
1907 4277
1908 409
1908 1726
1908 3043
1908 4301
1909 427
1909 1667
1909 2991
1909 4289
1910 505
1910 1732
1910 3037
1910 4291
1911 434
1911 1791
1911 2982
1911 4310
1912 430
1912 1683
1912 2977
1912 4231
1913 436
1913 1783
1913 2992
1913 4240
1914 393
1914 1712
1914 3027
1914 4307
1915 469
1915 1766
1915 3039
1915 4317
1916 446
1916 1762
1916 3044
1916 4255
1917 500
1917 1693
1917 3016
1917 4343
1918 506
1918 1735
1918 3060
1918 4302
1919 426
1919 1699
1919 3019
1919 4234
1920 517
1920 1814
1920 3076
1920 4391
1921 637
1921 1881
1921 3166
1921 4373
1922 583
1922 1900
1922 3145
1922 4418
1923 581
1923 1862
1923 3085
1923 4426
1924 565
1924 1792
1924 3092
1924 4354
1925 569
1925 1919
1925 3109
1925 4438
1926 623
1926 1857
1926 3176
1926 4437
1927 621
1927 1819
1927 3169
1927 4464
1928 567
1928 1800
1928 3126
1928 4445
1929 553
1929 1913
1929 3108
1929 4363
1930 563
1930 1825
1930 3114
1930 4383
1931 519
1931 1897
1931 3144
1931 4456
1932 625
1932 1892
1932 3123
1932 4420
1933 631
1933 1822
1933 3139
1933 4406
1934 604
1934 1824
1934 3151
1934 4435
1935 539
1935 1888
1935 3147
1935 4468
1936 613
1936 1863
1936 3173
1936 4452
1937 594
1937 1801
1937 3193
1937 4450
1938 515
1938 1909
1938 3172
1938 4358
1939 548
1939 1852
1939 3096
1939 4455
1940 605
1940 1820
1940 3100
1940 4407
1941 578
1941 1874
1941 3074
1941 4446
1942 606
1942 1798
1942 3115
1942 4398
1943 545
1943 1875
1943 3117
1943 4405
1944 622
1944 1834
1944 3125
1944 4361
1945 540
1945 1804
1945 3165
1945 4396
1946 618
1946 1882
1946 3129
1946 4413
1947 561
1947 1847
1947 3107
1947 4476
1948 595
1948 1839
1948 3197
1948 4365
1949 527
1949 1898
1949 3168
1949 4388
1950 593
1950 1908
1950 3183
1950 4454
1951 536
1951 1809
1951 3195
1951 4469
1952 513
1952 1850
1952 3073
1952 4475
1953 635
1953 1826
1953 3161
1953 4440
1954 602
1954 1794
1954 3082
1954 4479
1955 552
1955 1895
1955 3174
1955 4397
1956 544
1956 1856
1956 3163
1956 4369
1957 636
1957 1855
1957 3175
1957 4423
1958 609
1958 1805
1958 3078
1958 4463
1959 525
1959 1793
1959 3186
1959 4425
1960 576
1960 1905
1960 3146
1960 4370
1961 566
1961 1869
1961 3170
1961 4401
1962 615
1962 1808
1962 3086
1962 4400
1963 612
1963 1880
1963 3154
1963 4382
1964 534
1964 1883
1964 3091
1964 4359
1965 617
1965 1917
1965 3178
1965 4394
1966 562
1966 1889
1966 3131
1966 4434
1967 588
1967 1858
1967 3083
1967 4472
1968 575
1968 1866
1968 3081
1968 4465
1969 626
1969 1872
1969 3198
1969 4421
1970 597
1970 1916
1970 3188
1970 4378
1971 600
1971 1854
1971 3171
1971 4356
1972 639
1972 1914
1972 3164
1972 4466
1973 590
1973 1799
1973 3121
1973 4458
1974 554
1974 1890
1974 3150
1974 4424
1975 582
1975 1817
1975 3090
1975 4422
1976 523
1976 1835
1976 3097
1976 4442
1977 603
1977 1878
1977 3159
1977 4386
1978 528
1978 1903
1978 3106
1978 4362
1979 542
1979 1828
1979 3105
1979 4371
1980 549
1980 1846
1980 3116
1980 4409
1981 564
1981 1870
1981 3182
1981 4449
1982 546
1982 1843
1982 3077
1982 4411
1983 599
1983 1873
1983 3155
1983 4395
1984 522
1984 1894
1984 3093
1984 4403
1985 547
1985 1868
1985 3185
1985 4439
1986 531
1986 1902
1986 3112
1986 4417
1987 560
1987 1838
1987 3103
1987 4412
1988 555
1988 1848
1988 3104
1988 4477
1989 516
1989 1885
1989 3102
1989 4399
1990 535
1990 1907
1990 3134
1990 4374
1991 568
1991 1831
1991 3143
1991 4460
1992 524
1992 1912
1992 3199
1992 4375
1993 556
1993 1795
1993 3158
1993 4377
1994 611
1994 1802
1994 3120
1994 4453
1995 557
1995 1811
1995 3141
1995 4364
1996 614
1996 1896
1996 3079
1996 4473
1997 598
1997 1821
1997 3156
1997 4404
1998 571
1998 1803
1998 3187
1998 4431
1999 629
1999 1886
1999 3127
1999 4461
2000 633
2000 1818
2000 3132
2000 4380
2001 558
2001 1833
2001 3101
2001 4352
2002 608
2002 1867
2002 3087
2002 4457
2003 596
2003 1906
2003 3133
2003 4470
2004 632
2004 1864
2004 3128
2004 4385
2005 520
2005 1884
2005 3196
2005 4368
2006 584
2006 1827
2006 3095
2006 4372
2007 634
2007 1860
2007 3072
2007 4419
2008 638
2008 1842
2008 3089
2008 4428
2009 533
2009 1876
2009 3191
2009 4410
2010 620
2010 1844
2010 3177
2010 4447
2011 607
2011 1887
2011 3118
2011 4441
2012 559
2012 1911
2012 3110
2012 4459
2013 586
2013 1849
2013 3194
2013 4390
2014 592
2014 1813
2014 3192
2014 4402
2015 580
2015 1841
2015 3184
2015 4436
2016 574
2016 1918
2016 3152
2016 4478
2017 585
2017 1815
2017 3140
2017 4471
2018 601
2018 1893
2018 3138
2018 4408
2019 628
2019 1910
2019 3113
2019 4389
2020 619
2020 1797
2020 3179
2020 4353
2021 579
2021 1899
2021 3088
2021 4367
2022 538
2022 1901
2022 3124
2022 4416
2023 572
2023 1879
2023 3189
2023 4384
2024 512
2024 1823
2024 3119
2024 4357
2025 624
2025 1904
2025 3180
2025 4387
2026 537
2026 1851
2026 3137
2026 4429
2027 514
2027 1829
2027 3190
2027 4360
2028 530
2028 1859
2028 3142
2028 4415
2029 591
2029 1836
2029 3181
2029 4448
2030 627
2030 1840
2030 3111
2030 4451
2031 521
2031 1915
2031 3148
2031 4467
2032 526
2032 1837
2032 3084
2032 4381
2033 589
2033 1891
2033 3153
2033 4392
2034 616
2034 1810
2034 3162
2034 4427
2035 541
2035 1830
2035 3167
2035 4432
2036 610
2036 1796
2036 3160
2036 4414
2037 630
2037 1871
2037 3135
2037 4433
2038 573
2038 1861
2038 3099
2038 4474
2039 551
2039 1816
2039 3122
2039 4430
2040 570
2040 1853
2040 3098
2040 4355
2041 577
2041 1812
2041 3080
2041 4376
2042 529
2042 1832
2042 3130
2042 4379
2043 550
2043 1807
2043 3157
2043 4393
2044 543
2044 1877
2044 3136
2044 4444
2045 518
2045 1806
2045 3149
2045 4366
2046 587
2046 1865
2046 3094
2046 4443
2047 532
2047 1845
2047 3075
2047 4462
2048 663
2048 2011
2048 3325
2048 4546
2049 661
2049 1973
2049 3268
2049 4591
2050 671
2050 1977
2050 3318
2050 4495
2051 712
2051 1927
2051 3214
2051 4517
2052 648
2052 2010
2052 3260
2052 4494
2053 693
2053 1997
2053 3276
2053 4485
2054 642
2054 1930
2054 3245
2054 4502
2055 647
2055 2026
2055 3209
2055 4572
2056 745
2056 1960
2056 3224
2056 4532
2057 716
2057 2032
2057 3269
2057 4587
2058 686
2058 2037
2058 3254
2058 4492
2059 738
2059 1964
2059 3241
2059 4574
2060 747
2060 1974
2060 3248
2060 4549
2061 659
2061 2019
2061 3284
2061 4603
2062 707
2062 2042
2062 3212
2062 4513
2063 705
2063 1957
2063 3247
2063 4568
2064 692
2064 2047
2064 3265
2064 4525
2065 758
2065 1975
2065 3259
2065 4487
2066 699
2066 2041
2066 3217
2066 4536
2067 653
2067 1963
2067 3240
2067 4509
2068 681
2068 2014
2068 3252
2068 4559
2069 652
2069 1990
2069 3216
2069 4483
2070 662
2070 1981
2070 3256
2070 4585
2071 666
2071 1944
2071 3293
2071 4601
2072 750
2072 2028
2072 3295
2072 4552
2073 720
2073 1939
2073 3207
2073 4519
2074 766
2074 1971
2074 3257
2074 4486
2075 767
2075 2006
2075 3219
2075 4581
2076 730
2076 1943
2076 3258
2076 4553
2077 684
2077 1936
2077 3237
2077 4484
2078 714
2078 1982
2078 3290
2078 4534
2079 694
2079 2036
2079 3238
2079 4515
2080 649
2080 2021
2080 3223
2080 4595
2081 752
2081 2015
2081 3221
2081 4488
2082 702
2082 2007
2082 3231
2082 4584
2083 654
2083 1928
2083 3215
2083 4540
2084 668
2084 1937
2084 3201
2084 4566
2085 670
2085 1987
2085 3322
2085 4598
2086 765
2086 1979
2086 3277
2086 4590
2087 764
2087 2031
2087 3282
2087 4510
2088 741
2088 2030
2088 3299
2088 4562
2089 697
2089 2005
2089 3225
2089 4507
2090 721
2090 2009
2090 3222
2090 4490
2091 760
2091 2002
2091 3307
2091 4545
2092 719
2092 1931
2092 3298
2092 4550
2093 753
2093 1988
2093 3203
2093 4493
2094 658
2094 1934
2094 3251
2094 4563
2095 665
2095 1925
2095 3262
2095 4557
2096 725
2096 2040
2096 3283
2096 4567
2097 673
2097 1951
2097 3232
2097 4501
2098 733
2098 1952
2098 3309
2098 4604
2099 656
2099 2038
2099 3278
2099 4554
2100 698
2100 1991
2100 3272
2100 4518
2101 756
2101 1992
2101 3218
2101 4548
2102 761
2102 1969
2102 3316
2102 4539
2103 688
2103 1966
2103 3270
2103 4480
2104 701
2104 1940
2104 3275
2104 4529
2105 696
2105 1983
2105 3310
2105 4560
2106 674
2106 2029
2106 3326
2106 4555
2107 687
2107 2039
2107 3235
2107 4564
2108 676
2108 1929
2108 3300
2108 4506
2109 680
2109 1970
2109 3230
2109 4481
2110 691
2110 2016
2110 3200
2110 4569
2111 677
2111 2013
2111 3297
2111 4589
2112 709
2112 1938
2112 3213
2112 4508
2113 728
2113 1962
2113 3294
2113 4543
2114 708
2114 2001
2114 3267
2114 4516
2115 723
2115 1955
2115 3324
2115 4511
2116 700
2116 1984
2116 3244
2116 4551
2117 704
2117 2024
2117 3220
2117 4565
2118 740
2118 2045
2118 3302
2118 4578
2119 739
2119 1950
2119 3323
2119 4499
2120 678
2120 1965
2120 3263
2120 4596
2121 717
2121 2025
2121 3321
2121 4556
2122 763
2122 1932
2122 3296
2122 4561
2123 748
2123 1998
2123 3255
2123 4593
2124 718
2124 1946
2124 3280
2124 4528
2125 751
2125 2020
2125 3327
2125 4583
2126 713
2126 1967
2126 3308
2126 4497
2127 724
2127 1986
2127 3281
2127 4531
2128 643
2128 1926
2128 3314
2128 4577
2129 734
2129 2017
2129 3229
2129 4526
2130 746
2130 2033
2130 3227
2130 4498
2131 715
2131 2018
2131 3271
2131 4602
2132 682
2132 2022
2132 3205
2132 4527
2133 689
2133 1947
2133 3264
2133 4522
2134 742
2134 1954
2134 3239
2134 4505
2135 651
2135 1921
2135 3202
2135 4489
2136 710
2136 2003
2136 3292
2136 4571
2137 657
2137 1985
2137 3303
2137 4533
2138 749
2138 2012
2138 3210
2138 4573
2139 685
2139 1923
2139 3289
2139 4599
2140 754
2140 2027
2140 3274
2140 4605
2141 690
2141 1995
2141 3206
2141 4512
2142 736
2142 2000
2142 3305
2142 4600
2143 672
2143 1978
2143 3243
2143 4594
2144 644
2144 1922
2144 3285
2144 4586
2145 641
2145 1958
2145 3242
2145 4514
2146 650
2146 1949
2146 3233
2146 4570
2147 660
2147 2044
2147 3226
2147 4496
2148 706
2148 1972
2148 3228
2148 4521
2149 664
2149 1976
2149 3291
2149 4588
2150 667
2150 1968
2150 3319
2150 4530
2151 675
2151 1959
2151 3211
2151 4580
2152 703
2152 1980
2152 3236
2152 4500
2153 759
2153 1996
2153 3261
2153 4579
2154 762
2154 1993
2154 3208
2154 4524
2155 655
2155 2004
2155 3304
2155 4503
2156 732
2156 1994
2156 3250
2156 4491
2157 757
2157 1948
2157 3311
2157 4520
2158 726
2158 1920
2158 3317
2158 4606
2159 711
2159 1924
2159 3286
2159 4541
2160 737
2160 2035
2160 3320
2160 4504
2161 683
2161 2023
2161 3301
2161 4607
2162 744
2162 1989
2162 3253
2162 4592
2163 729
2163 1933
2163 3287
2163 4582
2164 695
2164 2008
2164 3249
2164 4558
2165 755
2165 1942
2165 3266
2165 4575
2166 669
2166 1953
2166 3313
2166 4537
2167 679
2167 2034
2167 3288
2167 4544
2168 722
2168 1956
2168 3306
2168 4576
2169 727
2169 2046
2169 3315
2169 4523
2170 743
2170 1945
2170 3279
2170 4538
2171 735
2171 1935
2171 3204
2171 4542
2172 645
2172 1941
2172 3246
2172 4482
2173 646
2173 2043
2173 3234
2173 4597
2174 640
2174 1999
2174 3312
2174 4547
2175 731
2175 1961
2175 3273
2175 4535
2176 781
2176 2084
2176 3435
2176 4626
2177 840
2177 2137
2177 3405
2177 4678
2178 841
2178 2102
2178 3417
2178 4610
2179 783
2179 2173
2179 3383
2179 4618
2180 844
2180 2128
2180 3367
2180 4707
2181 797
2181 2053
2181 3375
2181 4634
2182 829
2182 2060
2182 3414
2182 4686
2183 793
2183 2049
2183 3339
2183 4727
2184 822
2184 2097
2184 3343
2184 4690
2185 878
2185 2149
2185 3407
2185 4629
2186 770
2186 2118
2186 3357
2186 4655
2187 852
2187 2167
2187 3394
2187 4637
2188 772
2188 2116
2188 3443
2188 4620
2189 894
2189 2083
2189 3370
2189 4684
2190 847
2190 2114
2190 3440
2190 4675
2191 777
2191 2059
2191 3389
2191 4691
2192 869
2192 2140
2192 3425
2192 4733
2193 794
2193 2166
2193 3344
2193 4625
2194 827
2194 2131
2194 3454
2194 4674
2195 832
2195 2082
2195 3366
2195 4729
2196 808
2196 2054
2196 3364
2196 4710
2197 850
2197 2147
2197 3433
2197 4668
2198 779
2198 2110
2198 3388
2198 4652
2199 863
2199 2063
2199 3336
2199 4656
2200 856
2200 2163
2200 3427
2200 4640
2201 784
2201 2117
2201 3340
2201 4718
2202 888
2202 2100
2202 3449
2202 4724
2203 885
2203 2087
2203 3413
2203 4711
2204 865
2204 2085
2204 3345
2204 4735
2205 873
2205 2072
2205 3331
2205 4693
2206 854
2206 2057
2206 3445
2206 4730
2207 875
2207 2070
2207 3408
2207 4615
2208 798
2208 2121
2208 3428
2208 4664
2209 867
2209 2068
2209 3439
2209 4649
2210 805
2210 2112
2210 3329
2210 4701
2211 799
2211 2135
2211 3334
2211 4665
2212 791
2212 2065
2212 3374
2212 4717
2213 874
2213 2113
2213 3401
2213 4622
2214 790
2214 2148
2214 3430
2214 4692
2215 889
2215 2094
2215 3387
2215 4713
2216 809
2216 2169
2216 3441
2216 4611
2217 789
2217 2172
2217 3395
2217 4639
2218 769
2218 2156
2218 3437
2218 4641
2219 857
2219 2124
2219 3431
2219 4644
2220 786
2220 2048
2220 3403
2220 4716
2221 785
2221 2111
2221 3354
2221 4669
2222 835
2222 2103
2222 3455
2222 4654
2223 804
2223 2086
2223 3342
2223 4633
2224 882
2224 2122
2224 3376
2224 4680
2225 848
2225 2108
2225 3434
2225 4608
2226 891
2226 2089
2226 3422
2226 4662
2227 868
2227 2088
2227 3452
2227 4706
2228 817
2228 2076
2228 3369
2228 4651
2229 811
2229 2090
2229 3400
2229 4617
2230 780
2230 2075
2230 3416
2230 4661
2231 819
2231 2050
2231 3328
2231 4698
2232 884
2232 2077
2232 3378
2232 4670
2233 823
2233 2162
2233 3442
2233 4726
2234 831
2234 2158
2234 3360
2234 4688
2235 877
2235 2092
2235 3379
2235 4732
2236 849
2236 2139
2236 3446
2236 4609
2237 845
2237 2123
2237 3348
2237 4715
2238 796
2238 2066
2238 3346
2238 4612
2239 843
2239 2146
2239 3353
2239 4721
2240 775
2240 2073
2240 3396
2240 4679
2241 859
2241 2144
2241 3426
2241 4731
2242 820
2242 2104
2242 3381
2242 4616
2243 792
2243 2127
2243 3335
2243 4723
2244 883
2244 2093
2244 3411
2244 4638
2245 893
2245 2074
2245 3362
2245 4677
2246 842
2246 2078
2246 3399
2246 4709
2247 834
2247 2165
2247 3406
2247 4630
2248 879
2248 2168
2248 3352
2248 4627
2249 890
2249 2138
2249 3392
2249 4672
2250 872
2250 2099
2250 3358
2250 4646
2251 771
2251 2105
2251 3355
2251 4685
2252 851
2252 2064
2252 3393
2252 4712
2253 833
2253 2164
2253 3429
2253 4660
2254 853
2254 2069
2254 3337
2254 4728
2255 886
2255 2129
2255 3398
2255 4694
2256 814
2256 2107
2256 3386
2256 4628
2257 801
2257 2119
2257 3423
2257 4653
2258 864
2258 2051
2258 3350
2258 4642
2259 816
2259 2136
2259 3418
2259 4643
2260 860
2260 2171
2260 3432
2260 4708
2261 839
2261 2052
2261 3421
2261 4635
2262 855
2262 2143
2262 3361
2262 4647
2263 825
2263 2157
2263 3384
2263 4667
2264 802
2264 2126
2264 3448
2264 4659
2265 810
2265 2071
2265 3333
2265 4687
2266 824
2266 2058
2266 3359
2266 4623
2267 812
2267 2155
2267 3385
2267 4671
2268 773
2268 2115
2268 3330
2268 4636
2269 778
2269 2150
2269 3415
2269 4719
2270 866
2270 2142
2270 3404
2270 4695
2271 787
2271 2154
2271 3347
2271 4702
2272 861
2272 2095
2272 3402
2272 4673
2273 862
2273 2096
2273 3409
2273 4704
2274 800
2274 2080
2274 3363
2274 4714
2275 795
2275 2160
2275 3420
2275 4624
2276 782
2276 2152
2276 3397
2276 4648
2277 887
2277 2098
2277 3332
2277 4676
2278 818
2278 2106
2278 3391
2278 4725
2279 836
2279 2132
2279 3380
2279 4699
2280 813
2280 2133
2280 3373
2280 4681
2281 806
2281 2055
2281 3436
2281 4631
2282 774
2282 2067
2282 3356
2282 4632
2283 768
2283 2120
2283 3419
2283 4621
2284 881
2284 2145
2284 3451
2284 4666
2285 815
2285 2125
2285 3438
2285 4700
2286 892
2286 2056
2286 3341
2286 4650
2287 828
2287 2151
2287 3410
2287 4682
2288 837
2288 2134
2288 3371
2288 4613
2289 803
2289 2062
2289 3412
2289 4619
2290 830
2290 2130
2290 3365
2290 4683
2291 870
2291 2109
2291 3450
2291 4658
2292 876
2292 2061
2292 3424
2292 4614
2293 846
2293 2161
2293 3444
2293 4657
2294 838
2294 2141
2294 3377
2294 4705
2295 858
2295 2159
2295 3349
2295 4720
2296 880
2296 2079
2296 3368
2296 4703
2297 871
2297 2175
2297 3338
2297 4734
2298 895
2298 2101
2298 3447
2298 4663
2299 807
2299 2153
2299 3390
2299 4689
2300 821
2300 2081
2300 3351
2300 4722
2301 788
2301 2174
2301 3382
2301 4645
2302 776
2302 2170
2302 3372
2302 4696
2303 826
2303 2091
2303 3453
2303 4697
2304 966
2304 2285
2304 3562
2304 4736
2305 912
2305 2205
2305 3580
2305 4740
2306 921
2306 2186
2306 3503
2306 4830
2307 1023
2307 2274
2307 3523
2307 4833
2308 952
2308 2251
2308 3558
2308 4842
2309 920
2309 2178
2309 3489
2309 4822
2310 913
2310 2226
2310 3501
2310 4795
2311 917
2311 2271
2311 3520
2311 4840
2312 970
2312 2237
2312 3519
2312 4769
2313 975
2313 2291
2313 3494
2313 4858
2314 989
2314 2176
2314 3493
2314 4832
2315 1012
2315 2217
2315 3553
2315 4747
2316 908
2316 2268
2316 3575
2316 4838
2317 1002
2317 2223
2317 3565
2317 4756
2318 956
2318 2182
2318 3548
2318 4812
2319 940
2319 2177
2319 3528
2319 4768
2320 918
2320 2270
2320 3505
2320 4819
2321 1001
2321 2231
2321 3560
2321 4825
2322 945
2322 2204
2322 3557
2322 4853
2323 1022
2323 2288
2323 3515
2323 4744
2324 974
2324 2256
2324 3534
2324 4807
2325 899
2325 2195
2325 3464
2325 4765
2326 1015
2326 2232
2326 3552
2326 4787
2327 961
2327 2192
2327 3561
2327 4794
2328 947
2328 2300
2328 3479
2328 4828
2329 959
2329 2194
2329 3510
2329 4776
2330 903
2330 2284
2330 3545
2330 4771
2331 911
2331 2283
2331 3504
2331 4784
2332 1021
2332 2198
2332 3496
2332 4813
2333 1018
2333 2279
2333 3527
2333 4861
2334 902
2334 2280
2334 3572
2334 4766
2335 1017
2335 2208
2335 3460
2335 4741
2336 924
2336 2297
2336 3517
2336 4796
2337 941
2337 2259
2337 3461
2337 4859
2338 1019
2338 2202
2338 3491
2338 4749
2339 943
2339 2299
2339 3514
2339 4845
2340 1005
2340 2213
2340 3525
2340 4823
2341 946
2341 2224
2341 3487
2341 4799
2342 906
2342 2196
2342 3521
2342 4793
2343 953
2343 2260
2343 3480
2343 4745
2344 1003
2344 2199
2344 3571
2344 4836
2345 1014
2345 2215
2345 3490
2345 4743
2346 910
2346 2229
2346 3544
2346 4778
2347 915
2347 2221
2347 3486
2347 4750
2348 930
2348 2243
2348 3524
2348 4746
2349 980
2349 2235
2349 3484
2349 4773
2350 978
2350 2250
2350 3473
2350 4781
2351 1009
2351 2218
2351 3547
2351 4764
2352 962
2352 2187
2352 3569
2352 4860
2353 896
2353 2261
2353 3474
2353 4811
2354 1020
2354 2201
2354 3568
2354 4754
2355 971
2355 2185
2355 3556
2355 4801
2356 991
2356 2294
2356 3537
2356 4759
2357 976
2357 2278
2357 3538
2357 4808
2358 922
2358 2281
2358 3543
2358 4751
2359 982
2359 2209
2359 3559
2359 4803
2360 972
2360 2220
2360 3573
2360 4834
2361 987
2361 2293
2361 3511
2361 4849
2362 957
2362 2292
2362 3477
2362 4752
2363 904
2363 2295
2363 3478
2363 4739
2364 938
2364 2302
2364 3564
2364 4755
2365 937
2365 2238
2365 3500
2365 4800
2366 936
2366 2269
2366 3456
2366 4761
2367 897
2367 2184
2367 3533
2367 4763
2368 951
2368 2296
2368 3532
2368 4760
2369 955
2369 2193
2369 3577
2369 4847
2370 932
2370 2267
2370 3535
2370 4826
2371 942
2371 2303
2371 3469
2371 4814
2372 929
2372 2301
2372 3555
2372 4818
2373 944
2373 2290
2373 3476
2373 4748
2374 1010
2374 2239
2374 3550
2374 4856
2375 1006
2375 2211
2375 3497
2375 4839
2376 967
2376 2210
2376 3539
2376 4792
2377 935
2377 2247
2377 3502
2377 4863
2378 1004
2378 2289
2378 3540
2378 4775
2379 983
2379 2233
2379 3468
2379 4762
2380 925
2380 2255
2380 3467
2380 4753
2381 973
2381 2197
2381 3457
2381 4782
2382 977
2382 2188
2382 3459
2382 4777
2383 948
2383 2265
2383 3463
2383 4852
2384 993
2384 2219
2384 3462
2384 4767
2385 964
2385 2264
2385 3488
2385 4790
2386 919
2386 2272
2386 3530
2386 4780
2387 1000
2387 2244
2387 3578
2387 4788
2388 981
2388 2225
2388 3507
2388 4844
2389 969
2389 2191
2389 3518
2389 4820
2390 934
2390 2242
2390 3485
2390 4829
2391 968
2391 2190
2391 3512
2391 4738
2392 984
2392 2200
2392 3509
2392 4835
2393 949
2393 2258
2393 3583
2393 4862
2394 997
2394 2241
2394 3531
2394 4816
2395 954
2395 2240
2395 3570
2395 4758
2396 1011
2396 2236
2396 3508
2396 4857
2397 900
2397 2245
2397 3499
2397 4855
2398 965
2398 2181
2398 3576
2398 4789
2399 916
2399 2189
2399 3563
2399 4791
2400 998
2400 2286
2400 3498
2400 4806
2401 898
2401 2277
2401 3506
2401 4854
2402 950
2402 2216
2402 3513
2402 4810
2403 992
2403 2183
2403 3516
2403 4802
2404 986
2404 2248
2404 3549
2404 4798
2405 963
2405 2214
2405 3475
2405 4850
2406 999
2406 2276
2406 3567
2406 4815
2407 927
2407 2253
2407 3472
2407 4824
2408 901
2408 2262
2408 3542
2408 4786
2409 926
2409 2234
2409 3551
2409 4821
2410 923
2410 2230
2410 3471
2410 4757
2411 1008
2411 2228
2411 3546
2411 4837
2412 958
2412 2203
2412 3554
2412 4742
2413 994
2413 2263
2413 3541
2413 4797
2414 995
2414 2227
2414 3483
2414 4827
2415 909
2415 2257
2415 3466
2415 4772
2416 905
2416 2273
2416 3574
2416 4809
2417 1016
2417 2249
2417 3581
2417 4805
2418 1013
2418 2298
2418 3522
2418 4783
2419 979
2419 2222
2419 3526
2419 4841
2420 988
2420 2287
2420 3465
2420 4851
2421 907
2421 2179
2421 3582
2421 4785
2422 939
2422 2275
2422 3495
2422 4779
2423 931
2423 2207
2423 3458
2423 4848
2424 933
2424 2254
2424 3529
2424 4804
2425 985
2425 2246
2425 3492
2425 4817
2426 914
2426 2266
2426 3579
2426 4831
2427 996
2427 2252
2427 3482
2427 4774
2428 990
2428 2206
2428 3481
2428 4737
2429 928
2429 2180
2429 3470
2429 4846
2430 960
2430 2212
2430 3566
2430 4843
2431 1007
2431 2282
2431 3536
2431 4770
2432 1112
2432 2423
2432 3613
2432 4957
2433 1150
2433 2425
2433 3636
2433 4976
2434 1038
2434 2405
2434 3622
2434 4881
2435 1097
2435 2402
2435 3667
2435 4940
2436 1124
2436 2378
2436 3631
2436 4973
2437 1129
2437 2339
2437 3610
2437 4873
2438 1083
2438 2417
2438 3673
2438 4899
2439 1074
2439 2380
2439 3670
2439 4969
2440 1147
2440 2364
2440 3697
2440 4887
2441 1064
2441 2404
2441 3692
2441 4959
2442 1065
2442 2394
2442 3690
2442 4896
2443 1102
2443 2311
2443 3616
2443 4914
2444 1048
2444 2336
2444 3639
2444 4889
2445 1026
2445 2338
2445 3650
2445 4886
2446 1146
2446 2354
2446 3668
2446 4865
2447 1121
2447 2352
2447 3626
2447 4905
2448 1144
2448 2400
2448 3654
2448 4867
2449 1066
2449 2330
2449 3656
2449 4978
2450 1069
2450 2350
2450 3645
2450 4884
2451 1049
2451 2348
2451 3638
2451 4907
2452 1140
2452 2342
2452 3672
2452 4964
2453 1123
2453 2362
2453 3698
2453 4986
2454 1086
2454 2321
2454 3597
2454 4904
2455 1062
2455 2312
2455 3635
2455 4938
2456 1109
2456 2322
2456 3644
2456 4895
2457 1025
2457 2393
2457 3593
2457 4929
2458 1077
2458 2375
2458 3609
2458 4982
2459 1084
2459 2428
2459 3709
2459 4920
2460 1088
2460 2389
2460 3637
2460 4991
2461 1145
2461 2369
2461 3591
2461 4928
2462 1037
2462 2318
2462 3677
2462 4868
2463 1096
2463 2411
2463 3623
2463 4972
2464 1050
2464 2358
2464 3664
2464 4966
2465 1042
2465 2382
2465 3659
2465 4954
2466 1131
2466 2331
2466 3634
2466 4980
2467 1098
2467 2414
2467 3588
2467 4913
2468 1139
2468 2343
2468 3619
2468 4866
2469 1030
2469 2306
2469 3598
2469 4963
2470 1133
2470 2384
2470 3669
2470 4885
2471 1078
2471 2399
2471 3682
2471 4908
2472 1134
2472 2388
2472 3621
2472 4931
2473 1100
2473 2383
2473 3711
2473 4883
2474 1061
2474 2396
2474 3703
2474 4879
2475 1111
2475 2363
2475 3694
2475 4875
2476 1035
2476 2422
2476 3606
2476 4878
2477 1079
2477 2367
2477 3595
2477 4877
2478 1120
2478 2328
2478 3584
2478 4897
2479 1052
2479 2351
2479 3680
2479 4919
2480 1039
2480 2416
2480 3674
2480 4977
2481 1047
2481 2366
2481 3671
2481 4967
2482 1031
2482 2335
2482 3658
2482 4952
2483 1056
2483 2426
2483 3675
2483 4870
2484 1080
2484 2419
2484 3604
2484 4911
2485 1073
2485 2361
2485 3633
2485 4909
2486 1040
2486 2313
2486 3640
2486 4918
2487 1072
2487 2341
2487 3663
2487 4946
2488 1089
2488 2310
2488 3647
2488 4930
2489 1041
2489 2407
2489 3661
2489 4985
2490 1090
2490 2373
2490 3705
2490 4872
2491 1103
2491 2430
2491 3689
2491 4910
2492 1115
2492 2320
2492 3587
2492 4906
2493 1027
2493 2304
2493 3599
2493 4917
2494 1070
2494 2412
2494 3657
2494 4932
2495 1135
2495 2368
2495 3627
2495 4988
2496 1137
2496 2421
2496 3611
2496 4965
2497 1132
2497 2377
2497 3686
2497 4871
2498 1028
2498 2325
2498 3630
2498 4935
2499 1093
2499 2387
2499 3695
2499 4901
2500 1104
2500 2379
2500 3688
2500 4902
2501 1057
2501 2346
2501 3605
2501 4941
2502 1119
2502 2315
2502 3612
2502 4974
2503 1085
2503 2314
2503 3624
2503 4981
2504 1106
2504 2420
2504 3666
2504 4922
2505 1076
2505 2326
2505 3607
2505 4962
2506 1087
2506 2418
2506 3625
2506 4937
2507 1060
2507 2329
2507 3589
2507 4950
2508 1095
2508 2381
2508 3617
2508 4948
2509 1045
2509 2403
2509 3646
2509 4890
2510 1113
2510 2323
2510 3618
2510 4898
2511 1054
2511 2372
2511 3615
2511 4900
2512 1138
2512 2390
2512 3592
2512 4880
2513 1107
2513 2317
2513 3602
2513 4923
2514 1094
2514 2397
2514 3702
2514 4970
2515 1142
2515 2327
2515 3600
2515 4975
2516 1033
2516 2413
2516 3641
2516 4942
2517 1114
2517 2347
2517 3590
2517 4956
2518 1122
2518 2374
2518 3685
2518 4961
2519 1105
2519 2409
2519 3594
2519 4955
2520 1071
2520 2308
2520 3708
2520 4876
2521 1128
2521 2309
2521 3696
2521 4939
2522 1058
2522 2427
2522 3643
2522 4958
2523 1151
2523 2316
2523 3660
2523 4936
2524 1148
2524 2324
2524 3642
2524 4979
2525 1126
2525 2356
2525 3681
2525 4944
2526 1024
2526 2415
2526 3585
2526 4903
2527 1117
2527 2386
2527 3687
2527 4984
2528 1055
2528 2401
2528 3596
2528 4864
2529 1127
2529 2371
2529 3693
2529 4943
2530 1118
2530 2359
2530 3710
2530 4869
2531 1068
2531 2357
2531 3620
2531 4945
2532 1059
2532 2424
2532 3632
2532 4892
2533 1099
2533 2307
2533 3684
2533 4947
2534 1110
2534 2391
2534 3649
2534 4971
2535 1136
2535 2353
2535 3603
2535 4951
2536 1036
2536 2332
2536 3699
2536 4894
2537 1141
2537 2319
2537 3608
2537 4989
2538 1081
2538 2365
2538 3707
2538 4990
2539 1143
2539 2349
2539 3700
2539 4882
2540 1075
2540 2429
2540 3652
2540 4874
2541 1149
2541 2344
2541 3628
2541 4916
2542 1051
2542 2305
2542 3676
2542 4915
2543 1034
2543 2345
2543 3679
2543 4912
2544 1101
2544 2340
2544 3706
2544 4891
2545 1043
2545 2385
2545 3662
2545 4960
2546 1082
2546 2406
2546 3701
2546 4968
2547 1067
2547 2370
2547 3691
2547 4953
2548 1063
2548 2392
2548 3651
2548 4921
2549 1092
2549 2395
2549 3614
2549 4927
2550 1091
2550 2360
2550 3601
2550 4949
2551 1130
2551 2333
2551 3648
2551 4933
2552 1046
2552 2376
2552 3655
2552 4925
2553 1108
2553 2408
2553 3586
2553 4987
2554 1125
2554 2334
2554 3629
2554 4888
2555 1053
2555 2398
2555 3678
2555 4893
2556 1116
2556 2410
2556 3704
2556 4934
2557 1044
2557 2337
2557 3665
2557 4924
2558 1029
2558 2431
2558 3683
2558 4983
2559 1032
2559 2355
2559 3653
2559 4926
2560 1228
2560 2451
2560 3717
2560 5057
2561 1175
2561 2557
2561 3821
2561 5049
2562 1184
2562 2491
2562 3778
2562 5046
2563 1181
2563 2528
2563 3785
2563 5008
2564 1171
2564 2432
2564 3835
2564 5065
2565 1210
2565 2518
2565 3771
2565 5058
2566 1249
2566 2459
2566 3763
2566 5025
2567 1275
2567 2443
2567 3825
2567 5087
2568 1208
2568 2532
2568 3782
2568 5047
2569 1198
2569 2540
2569 3745
2569 5034
2570 1278
2570 2523
2570 3777
2570 5050
2571 1174
2571 2485
2571 3723
2571 5030
2572 1212
2572 2503
2572 3791
2572 5011
2573 1154
2573 2556
2573 3822
2573 4992
2574 1262
2574 2447
2574 3809
2574 5092
2575 1216
2575 2501
2575 3820
2575 5117
2576 1223
2576 2527
2576 3739
2576 5079
2577 1168
2577 2481
2577 3765
2577 5015
2578 1218
2578 2435
2578 3800
2578 4995
2579 1245
2579 2493
2579 3766
2579 5100
2580 1177
2580 2524
2580 3718
2580 5027
2581 1200
2581 2531
2581 3818
2581 5056
2582 1272
2582 2516
2582 3722
2582 5035
2583 1220
2583 2471
2583 3767
2583 5059
2584 1239
2584 2478
2584 3742
2584 5098
2585 1158
2585 2508
2585 3733
2585 5097
2586 1279
2586 2517
2586 3744
2586 4994
2587 1255
2587 2476
2587 3814
2587 4999
2588 1224
2588 2449
2588 3749
2588 5104
2589 1192
2589 2541
2589 3812
2589 5031
2590 1242
2590 2496
2590 3743
2590 5002
2591 1163
2591 2466
2591 3796
2591 5094
2592 1194
2592 2468
2592 3838
2592 5019
2593 1160
2593 2555
2593 3759
2593 5073
2594 1226
2594 2505
2594 3837
2594 5080
2595 1206
2595 2440
2595 3724
2595 5055
2596 1219
2596 2441
2596 3756
2596 5032
2597 1190
2597 2483
2597 3784
2597 5020
2598 1252
2598 2486
2598 3824
2598 5053
2599 1185
2599 2522
2599 3795
2599 5102
2600 1193
2600 2539
2600 3750
2600 5043
2601 1276
2601 2525
2601 3792
2601 5116
2602 1161
2602 2469
2602 3769
2602 5107
2603 1253
2603 2452
2603 3801
2603 4997
2604 1244
2604 2538
2604 3810
2604 5083
2605 1237
2605 2553
2605 3721
2605 5033
2606 1240
2606 2545
2606 3734
2606 5028
2607 1225
2607 2462
2607 3773
2607 5009
2608 1202
2608 2512
2608 3720
2608 5040
2609 1213
2609 2487
2609 3768
2609 5003
2610 1207
2610 2543
2610 3719
2610 5109
2611 1222
2611 2537
2611 3735
2611 5044
2612 1231
2612 2509
2612 3794
2612 5037
2613 1268
2613 2489
2613 3816
2613 5070
2614 1199
2614 2506
2614 3839
2614 5005
2615 1232
2615 2453
2615 3716
2615 5114
2616 1201
2616 2444
2616 3827
2616 5110
2617 1172
2617 2546
2617 3730
2617 5068
2618 1269
2618 2470
2618 3826
2618 5099
2619 1250
2619 2504
2619 3761
2619 5017
2620 1162
2620 2450
2620 3715
2620 5076
2621 1236
2621 2548
2621 3806
2621 5067
2622 1173
2622 2550
2622 3770
2622 5096
2623 1169
2623 2433
2623 3789
2623 5045
2624 1251
2624 2446
2624 3758
2624 4998
2625 1197
2625 2530
2625 3774
2625 5042
2626 1259
2626 2463
2626 3752
2626 5048
2627 1264
2627 2549
2627 3828
2627 5006
2628 1157
2628 2547
2628 3740
2628 5064
2629 1191
2629 2515
2629 3760
2629 5023
2630 1260
2630 2467
2630 3779
2630 5013
2631 1234
2631 2456
2631 3727
2631 5119
2632 1221
2632 2497
2632 3790
2632 5016
2633 1247
2633 2455
2633 3746
2633 5072
2634 1155
2634 2554
2634 3738
2634 5026
2635 1153
2635 2473
2635 3831
2635 5061
2636 1217
2636 2454
2636 3808
2636 5071
2637 1209
2637 2465
2637 3797
2637 5001
2638 1187
2638 2482
2638 3755
2638 5084
2639 1277
2639 2544
2639 3819
2639 5089
2640 1203
2640 2472
2640 3713
2640 5029
2641 1246
2641 2519
2641 3788
2641 5060
2642 1271
2642 2479
2642 3754
2642 5051
2643 1189
2643 2474
2643 3776
2643 5075
2644 1183
2644 2551
2644 3737
2644 5093
2645 1182
2645 2442
2645 3736
2645 5115
2646 1266
2646 2552
2646 3714
2646 5105
2647 1235
2647 2464
2647 3832
2647 5038
2648 1204
2648 2488
2648 3753
2648 5078
2649 1205
2649 2490
2649 3823
2649 5106
2650 1196
2650 2494
2650 3775
2650 5069
2651 1180
2651 2510
2651 3787
2651 5024
2652 1176
2652 2439
2652 3798
2652 5074
2653 1170
2653 2529
2653 3780
2653 5012
2654 1238
2654 2448
2654 3728
2654 5082
2655 1215
2655 2436
2655 3731
2655 5014
2656 1167
2656 2461
2656 3803
2656 5041
2657 1257
2657 2500
2657 3804
2657 5103
2658 1273
2658 2475
2658 3725
2658 5036
2659 1248
2659 2480
2659 3757
2659 5000
2660 1229
2660 2498
2660 3829
2660 5095
2661 1152
2661 2457
2661 3764
2661 5004
2662 1261
2662 2520
2662 3817
2662 5085
2663 1159
2663 2499
2663 3836
2663 4993
2664 1243
2664 2511
2664 3786
2664 5111
2665 1211
2665 2484
2665 3805
2665 5118
2666 1156
2666 2437
2666 3732
2666 5090
2667 1241
2667 2492
2667 3807
2667 4996
2668 1164
2668 2533
2668 3729
2668 5022
2669 1233
2669 2434
2669 3772
2669 5077
2670 1270
2670 2460
2670 3815
2670 5088
2671 1258
2671 2458
2671 3747
2671 5066
2672 1214
2672 2536
2672 3748
2672 5063
2673 1179
2673 2542
2673 3799
2673 5052
2674 1256
2674 2558
2674 3726
2674 5101
2675 1254
2675 2502
2675 3781
2675 5113
2676 1274
2676 2477
2676 3813
2676 5010
2677 1166
2677 2495
2677 3833
2677 5108
2678 1230
2678 2514
2678 3712
2678 5091
2679 1188
2679 2526
2679 3834
2679 5007
2680 1195
2680 2507
2680 3762
2680 5112
2681 1165
2681 2438
2681 3751
2681 5062
2682 1263
2682 2534
2682 3793
2682 5018
2683 1267
2683 2521
2683 3783
2683 5039
2684 1186
2684 2559
2684 3802
2684 5021
2685 1178
2685 2535
2685 3830
2685 5086
2686 1265
2686 2445
2686 3741
2686 5081
2687 1227
2687 2513
2687 3811
2687 5054
2688 1397
2688 2599
2688 3949
2688 5173
2689 1298
2689 2657
2689 3862
2689 5210
2690 1387
2690 2612
2690 3846
2690 5184
2691 1401
2691 2598
2691 3889
2691 5225
2692 1398
2692 2592
2692 3845
2692 5205
2693 1374
2693 2666
2693 3938
2693 5245
2694 1284
2694 2569
2694 3960
2694 5130
2695 1386
2695 2675
2695 3899
2695 5169
2696 1327
2696 2620
2696 3890
2696 5179
2697 1384
2697 2576
2697 3880
2697 5149
2698 1333
2698 2644
2698 3872
2698 5226
2699 1375
2699 2600
2699 3966
2699 5235
2700 1322
2700 2636
2700 3865
2700 5168
2701 1335
2701 2682
2701 3910
2701 5197
2702 1339
2702 2596
2702 3851
2702 5135
2703 1302
2703 2625
2703 3922
2703 5134
2704 1309
2704 2587
2704 3907
2704 5192
2705 1404
2705 2562
2705 3965
2705 5122
2706 1337
2706 2643
2706 3946
2706 5219
2707 1365
2707 2578
2707 3906
2707 5174
2708 1341
2708 2613
2708 3843
2708 5194
2709 1304
2709 2642
2709 3876
2709 5165
2710 1331
2710 2574
2710 3850
2710 5227
2711 1393
2711 2572
2711 3915
2711 5139
2712 1318
2712 2607
2712 3941
2712 5206
2713 1287
2713 2594
2713 3911
2713 5121
2714 1317
2714 2566
2714 3878
2714 5136
2715 1301
2715 2627
2715 3903
2715 5138
2716 1402
2716 2595
2716 3888
2716 5137
2717 1369
2717 2573
2717 3840
2717 5175
2718 1382
2718 2660
2718 3842
2718 5164
2719 1321
2719 2654
2719 3962
2719 5200
2720 1345
2720 2650
2720 3896
2720 5216
2721 1292
2721 2641
2721 3869
2721 5167
2722 1324
2722 2670
2722 3955
2722 5246
2723 1328
2723 2624
2723 3904
2723 5145
2724 1351
2724 2647
2724 3909
2724 5160
2725 1330
2725 2567
2725 3940
2725 5232
2726 1285
2726 2606
2726 3930
2726 5195
2727 1296
2727 2655
2727 3882
2727 5220
2728 1315
2728 2575
2728 3958
2728 5243
2729 1371
2729 2608
2729 3864
2729 5176
2730 1388
2730 2617
2730 3912
2730 5150
2731 1366
2731 2673
2731 3854
2731 5234
2732 1357
2732 2678
2732 3900
2732 5163
2733 1329
2733 2652
2733 3894
2733 5236
2734 1407
2734 2686
2734 3871
2734 5201
2735 1364
2735 2582
2735 3866
2735 5214
2736 1291
2736 2568
2736 3877
2736 5244
2737 1336
2737 2662
2737 3964
2737 5147
2738 1299
2738 2653
2738 3939
2738 5144
2739 1314
2739 2586
2739 3937
2739 5185
2740 1316
2740 2645
2740 3951
2740 5146
2741 1359
2741 2626
2741 3881
2741 5123
2742 1312
2742 2634
2742 3913
2742 5171
2743 1310
2743 2597
2743 3947
2743 5162
2744 1297
2744 2621
2744 3929
2744 5124
2745 1280
2745 2669
2745 3954
2745 5218
2746 1311
2746 2651
2746 3934
2746 5203
2747 1355
2747 2563
2747 3921
2747 5140
2748 1381
2748 2629
2748 3848
2748 5237
2749 1383
2749 2618
2749 3873
2749 5188
2750 1403
2750 2585
2750 3887
2750 5143
2751 1293
2751 2659
2751 3956
2751 5228
2752 1288
2752 2564
2752 3859
2752 5240
2753 1379
2753 2589
2753 3844
2753 5157
2754 1349
2754 2649
2754 3953
2754 5186
2755 1347
2755 2635
2755 3861
2755 5224
2756 1360
2756 2637
2756 3945
2756 5132
2757 1373
2757 2648
2757 3857
2757 5222
2758 1372
2758 2583
2758 3961
2758 5187
2759 1376
2759 2672
2759 3891
2759 5177
2760 1367
2760 2668
2760 3895
2760 5151
2761 1396
2761 2571
2761 3948
2761 5159
2762 1306
2762 2603
2762 3952
2762 5191
2763 1346
2763 2622
2763 3919
2763 5153
2764 1308
2764 2663
2764 3916
2764 5209
2765 1323
2765 2588
2765 3841
2765 5193
2766 1344
2766 2604
2766 3870
2766 5231
2767 1325
2767 2661
2767 3863
2767 5233
2768 1307
2768 2561
2768 3931
2768 5212
2769 1286
2769 2601
2769 3959
2769 5142
2770 1370
2770 2674
2770 3856
2770 5247
2771 1340
2771 2664
2771 3932
2771 5180
2772 1406
2772 2631
2772 3942
2772 5196
2773 1400
2773 2584
2773 3944
2773 5178
2774 1353
2774 2580
2774 3855
2774 5156
2775 1319
2775 2630
2775 3902
2775 5239
2776 1343
2776 2658
2776 3950
2776 5133
2777 1283
2777 2581
2777 3901
2777 5229
2778 1332
2778 2679
2778 3893
2778 5183
2779 1303
2779 2677
2779 3914
2779 5199
2780 1352
2780 2619
2780 3898
2780 5190
2781 1389
2781 2560
2781 3920
2781 5213
2782 1399
2782 2684
2782 3908
2782 5215
2783 1378
2783 2665
2783 3849
2783 5204
2784 1395
2784 2611
2784 3923
2784 5126
2785 1380
2785 2602
2785 3868
2785 5198
2786 1368
2786 2593
2786 3883
2786 5128
2787 1363
2787 2628
2787 3927
2787 5125
2788 1342
2788 2623
2788 3886
2788 5154
2789 1394
2789 2565
2789 3884
2789 5242
2790 1356
2790 2615
2790 3925
2790 5141
2791 1282
2791 2683
2791 3867
2791 5217
2792 1348
2792 2616
2792 3852
2792 5241
2793 1326
2793 2591
2793 3858
2793 5181
2794 1362
2794 2640
2794 3879
2794 5131
2795 1294
2795 2614
2795 3860
2795 5148
2796 1305
2796 2685
2796 3853
2796 5189
2797 1300
2797 2676
2797 3918
2797 5155
2798 1391
2798 2638
2798 3875
2798 5158
2799 1361
2799 2632
2799 3874
2799 5223
2800 1295
2800 2687
2800 3943
2800 5230
2801 1281
2801 2681
2801 3926
2801 5211
2802 1350
2802 2656
2802 3967
2802 5208
2803 1338
2803 2671
2803 3917
2803 5127
2804 1354
2804 2646
2804 3936
2804 5221
2805 1313
2805 2590
2805 3897
2805 5207
2806 1390
2806 2680
2806 3892
2806 5182
2807 1385
2807 2577
2807 3963
2807 5152
2808 1320
2808 2610
2808 3924
2808 5170
2809 1290
2809 2639
2809 3885
2809 5202
2810 1377
2810 2667
2810 3957
2810 5120
2811 1334
2811 2570
2811 3935
2811 5161
2812 1405
2812 2605
2812 3928
2812 5166
2813 1358
2813 2609
2813 3905
2813 5238
2814 1289
2814 2633
2814 3933
2814 5129
2815 1392
2815 2579
2815 3847
2815 5172
2816 29
2816 2600
2816 3734
2816 4960
2817 75
2817 2625
2817 3795
2817 4941
2818 39
2818 2618
2818 3836
2818 4971
2819 43
2819 2595
2819 3833
2819 4887
2820 30
2820 2594
2820 3794
2820 4947
2821 70
2821 2682
2821 3785
2821 4866
2822 74
2822 2641
2822 3784
2822 4954
2823 0
2823 2628
2823 3742
2823 4919
2824 11
2824 2574
2824 3713
2824 4929
2825 15
2825 2582
2825 3811
2825 4874
2826 10
2826 2564
2826 3786
2826 4881
2827 5
2827 2575
2827 3753
2827 4886
2828 69
2828 2656
2828 3758
2828 4918
2829 100
2829 2617
2829 3723
2829 4938
2830 91
2830 2616
2830 3834
2830 4912
2831 64
2831 2675
2831 3768
2831 4945
2832 121
2832 2563
2832 3725
2832 4864
2833 65
2833 2622
2833 3728
2833 4989
2834 46
2834 2605
2834 3719
2834 4928
2835 12
2835 2602
2835 3752
2835 4967
2836 124
2836 2598
2836 3741
2836 4890
2837 19
2837 2645
2837 3804
2837 4950
2838 68
2838 2670
2838 3712
2838 4903
2839 3
2839 2561
2839 3814
2839 4915
2840 51
2840 2579
2840 3821
2840 4916
2841 66
2841 2610
2841 3757
2841 4873
2842 87
2842 2659
2842 3726
2842 4935
2843 47
2843 2679
2843 3744
2843 4958
2844 77
2844 2589
2844 3715
2844 4868
2845 115
2845 2581
2845 3774
2845 4891
2846 98
2846 2640
2846 3745
2846 4924
2847 16
2847 2639
2847 3789
2847 4907
2848 116
2848 2586
2848 3716
2848 4930
2849 62
2849 2637
2849 3828
2849 4934
2850 105
2850 2648
2850 3838
2850 4966
2851 67
2851 2681
2851 3747
2851 4905
2852 41
2852 2671
2852 3819
2852 4978
2853 117
2853 2654
2853 3765
2853 4959
2854 84
2854 2644
2854 3761
2854 4917
2855 81
2855 2592
2855 3815
2855 4920
2856 123
2856 2677
2856 3783
2856 4956
2857 86
2857 2680
2857 3762
2857 4977
2858 55
2858 2603
2858 3826
2858 4884
2859 126
2859 2683
2859 3823
2859 4865
2860 4
2860 2684
2860 3729
2860 4902
2861 36
2861 2627
2861 3733
2861 4885
2862 34
2862 2609
2862 3810
2862 4888
2863 27
2863 2633
2863 3737
2863 4987
2864 118
2864 2591
2864 3777
2864 4913
2865 56
2865 2583
2865 3825
2865 4906
2866 40
2866 2569
2866 3738
2866 4976
2867 63
2867 2638
2867 3727
2867 4876
2868 17
2868 2615
2868 3755
2868 4878
2869 48
2869 2560
2869 3743
2869 4943
2870 37
2870 2660
2870 3772
2870 4925
2871 119
2871 2630
2871 3764
2871 4900
2872 120
2872 2665
2872 3778
2872 4970
2873 38
2873 2676
2873 3781
2873 4931
2874 122
2874 2570
2874 3805
2874 4986
2875 88
2875 2673
2875 3822
2875 4882
2876 14
2876 2612
2876 3820
2876 4975
2877 21
2877 2653
2877 3797
2877 4911
2878 72
2878 2657
2878 3817
2878 4870
2879 90
2879 2565
2879 3754
2879 4867
2880 20
2880 2590
2880 3830
2880 4875
2881 79
2881 2588
2881 3803
2881 4951
2882 33
2882 2619
2882 3813
2882 4904
2883 80
2883 2562
2883 3793
2883 4869
2884 125
2884 2636
2884 3750
2884 4927
2885 73
2885 2571
2885 3756
2885 4944
2886 42
2886 2635
2886 3775
2886 4895
2887 35
2887 2668
2887 3735
2887 4939
2888 44
2888 2566
2888 3717
2888 4974
2889 83
2889 2664
2889 3799
2889 4965
2890 49
2890 2597
2890 3751
2890 4933
2891 94
2891 2606
2891 3732
2891 4889
2892 28
2892 2655
2892 3791
2892 4880
2893 58
2893 2599
2893 3809
2893 4969
2894 82
2894 2613
2894 3779
2894 4899
2895 23
2895 2584
2895 3739
2895 4883
2896 18
2896 2669
2896 3818
2896 4910
2897 106
2897 2685
2897 3720
2897 4946
2898 95
2898 2573
2898 3782
2898 4972
2899 99
2899 2587
2899 3832
2899 4981
2900 110
2900 2666
2900 3816
2900 4991
2901 9
2901 2649
2901 3831
2901 4973
2902 92
2902 2652
2902 3721
2902 4984
2903 13
2903 2626
2903 3771
2903 4893
2904 109
2904 2661
2904 3746
2904 4937
2905 112
2905 2687
2905 3749
2905 4982
2906 96
2906 2623
2906 3787
2906 4962
2907 104
2907 2686
2907 3759
2907 4872
2908 107
2908 2643
2908 3790
2908 4877
2909 50
2909 2614
2909 3807
2909 4936
2910 32
2910 2642
2910 3766
2910 4979
2911 127
2911 2585
2911 3837
2911 4988
2912 108
2912 2646
2912 3760
2912 4909
2913 114
2913 2672
2913 3722
2913 4957
2914 78
2914 2568
2914 3740
2914 4961
2915 52
2915 2578
2915 3839
2915 4990
2916 57
2916 2601
2916 3801
2916 4901
2917 8
2917 2667
2917 3800
2917 4921
2918 60
2918 2678
2918 3806
2918 4932
2919 76
2919 2658
2919 3748
2919 4955
2920 102
2920 2632
2920 3718
2920 4968
2921 7
2921 2593
2921 3714
2921 4926
2922 22
2922 2607
2922 3829
2922 4980
2923 97
2923 2629
2923 3798
2923 4940
2924 71
2924 2647
2924 3802
2924 4871
2925 24
2925 2634
2925 3827
2925 4985
2926 45
2926 2620
2926 3788
2926 4952
2927 89
2927 2608
2927 3776
2927 4894
2928 111
2928 2631
2928 3824
2928 4896
2929 113
2929 2624
2929 3796
2929 4948
2930 93
2930 2572
2930 3736
2930 4897
2931 103
2931 2567
2931 3835
2931 4963
2932 26
2932 2662
2932 3780
2932 4983
2933 2
2933 2611
2933 3773
2933 4914
2934 6
2934 2651
2934 3767
2934 4922
2935 31
2935 2596
2935 3763
2935 4953
2936 1
2936 2576
2936 3730
2936 4949
2937 101
2937 2674
2937 3731
2937 4923
2938 59
2938 2580
2938 3792
2938 4942
2939 25
2939 2663
2939 3769
2939 4964
2940 53
2940 2577
2940 3724
2940 4908
2941 61
2941 2650
2941 3812
2941 4879
2942 54
2942 2621
2942 3808
2942 4898
2943 85
2943 2604
2943 3770
2943 4892
2944 166
2944 2763
2944 3875
2944 5030
2945 172
2945 2722
2945 3932
2945 5106
2946 136
2946 2761
2946 3891
2946 5028
2947 132
2947 2764
2947 3945
2947 5110
2948 227
2948 2749
2948 3961
2948 5102
2949 134
2949 2765
2949 3964
2949 5013
2950 226
2950 2723
2950 3944
2950 5011
2951 158
2951 2695
2951 3861
2951 5093
2952 204
2952 2762
2952 3894
2952 5086
2953 185
2953 2771
2953 3866
2953 5091
2954 221
2954 2810
2954 3907
2954 5113
2955 144
2955 2752
2955 3878
2955 5049
2956 196
2956 2721
2956 3851
2956 5096
2957 200
2957 2791
2957 3850
2957 5056
2958 139
2958 2700
2958 3855
2958 5060
2959 225
2959 2753
2959 3887
2959 5054
2960 212
2960 2691
2960 3841
2960 5114
2961 175
2961 2750
2961 3871
2961 5109
2962 198
2962 2714
2962 3936
2962 5079
2963 206
2963 2770
2963 3889
2963 5041
2964 148
2964 2775
2964 3881
2964 5043
2965 220
2965 2741
2965 3912
2965 5104
2966 135
2966 2712
2966 3848
2966 5067
2967 157
2967 2780
2967 3966
2967 5116
2968 254
2968 2812
2968 3854
2968 5038
2969 184
2969 2735
2969 3947
2969 5059
2970 252
2970 2720
2970 3927
2970 5039
2971 163
2971 2815
2971 3877
2971 5055
2972 217
2972 2694
2972 3920
2972 5119
2973 218
2973 2742
2973 3843
2973 5016
2974 213
2974 2718
2974 3965
2974 5095
2975 219
2975 2725
2975 3960
2975 4996
2976 150
2976 2766
2976 3872
2976 5084
2977 159
2977 2773
2977 3849
2977 5027
2978 197
2978 2717
2978 3885
2978 5072
2979 207
2979 2701
2979 3874
2979 5004
2980 244
2980 2688
2980 3870
2980 5015
2981 238
2981 2740
2981 3930
2981 5075
2982 229
2982 2698
2982 3913
2982 4999
2983 234
2983 2708
2983 3840
2983 5070
2984 162
2984 2781
2984 3902
2984 5118
2985 180
2985 2732
2985 3858
2985 5026
2986 173
2986 2805
2986 3844
2986 5089
2987 186
2987 2760
2987 3883
2987 5031
2988 194
2988 2737
2988 3904
2988 5046
2989 235
2989 2733
2989 3919
2989 4998
2990 190
2990 2807
2990 3867
2990 5061
2991 133
2991 2690
2991 3905
2991 5012
2992 149
2992 2734
2992 3967
2992 5010
2993 138
2993 2692
2993 3897
2993 5107
2994 160
2994 2729
2994 3937
2994 5108
2995 242
2995 2786
2995 3893
2995 5008
2996 170
2996 2813
2996 3922
2996 5037
2997 224
2997 2748
2997 3957
2997 4995
2998 222
2998 2795
2998 3896
2998 5006
2999 164
2999 2779
2999 3864
2999 5025
3000 201
3000 2785
3000 3954
3000 5003
3001 143
3001 2759
3001 3956
3001 5029
3002 233
3002 2697
3002 3846
3002 5033
3003 209
3003 2809
3003 3910
3003 5044
3004 154
3004 2702
3004 3955
3004 5034
3005 240
3005 2703
3005 3847
3005 5087
3006 202
3006 2728
3006 3898
3006 5047
3007 208
3007 2788
3007 3958
3007 5117
3008 130
3008 2808
3008 3911
3008 5083
3009 174
3009 2715
3009 3916
3009 5000
3010 187
3010 2793
3010 3865
3010 5115
3011 247
3011 2707
3011 3963
3011 4994
3012 183
3012 2716
3012 3921
3012 5014
3013 255
3013 2784
3013 3948
3013 5111
3014 250
3014 2745
3014 3928
3014 5071
3015 128
3015 2790
3015 3888
3015 5048
3016 228
3016 2799
3016 3876
3016 5076
3017 215
3017 2757
3017 3856
3017 5024
3018 243
3018 2704
3018 3882
3018 5080
3019 214
3019 2798
3019 3929
3019 5007
3020 141
3020 2754
3020 3915
3020 5082
3021 239
3021 2706
3021 3859
3021 5088
3022 140
3022 2756
3022 3899
3022 4992
3023 232
3023 2803
3023 3845
3023 4993
3024 146
3024 2792
3024 3914
3024 5064
3025 248
3025 2739
3025 3924
3025 5073
3026 152
3026 2758
3026 3880
3026 5019
3027 179
3027 2789
3027 3901
3027 5023
3028 181
3028 2711
3028 3940
3028 5020
3029 151
3029 2755
3029 3857
3029 5063
3030 236
3030 2736
3030 3953
3030 5078
3031 142
3031 2730
3031 3959
3031 5009
3032 188
3032 2709
3032 3939
3032 5021
3033 249
3033 2727
3033 3952
3033 5105
3034 203
3034 2782
3034 3933
3034 4997
3035 167
3035 2774
3035 3869
3035 5058
3036 182
3036 2811
3036 3935
3036 5101
3037 237
3037 2777
3037 3900
3037 5001
3038 246
3038 2796
3038 3946
3038 5074
3039 199
3039 2705
3039 3903
3039 5035
3040 241
3040 2747
3040 3931
3040 5081
3041 177
3041 2699
3041 3938
3041 5050
3042 231
3042 2772
3042 3926
3042 5057
3043 176
3043 2787
3043 3895
3043 5094
3044 216
3044 2778
3044 3923
3044 5065
3045 211
3045 2724
3045 3862
3045 5100
3046 192
3046 2768
3046 3943
3046 5018
3047 131
3047 2814
3047 3860
3047 5036
3048 193
3048 2713
3048 3942
3048 5045
3049 205
3049 2743
3049 3949
3049 5099
3050 189
3050 2746
3050 3853
3050 5005
3051 156
3051 2738
3051 3890
3051 5085
3052 195
3052 2800
3052 3884
3052 5068
3053 145
3053 2726
3053 3842
3053 5077
3054 253
3054 2751
3054 3892
3054 5112
3055 137
3055 2719
3055 3909
3055 5052
3056 168
3056 2689
3056 3852
3056 5051
3057 161
3057 2797
3057 3868
3057 5103
3058 147
3058 2767
3058 3934
3058 5002
3059 169
3059 2731
3059 3962
3059 5062
3060 191
3060 2696
3060 3886
3060 5022
3061 230
3061 2769
3061 3951
3061 5090
3062 129
3062 2801
3062 3917
3062 5032
3063 171
3063 2806
3063 3918
3063 5092
3064 223
3064 2744
3064 3925
3064 5040
3065 251
3065 2693
3065 3950
3065 5017
3066 153
3066 2783
3066 3863
3066 5098
3067 210
3067 2802
3067 3879
3067 5069
3068 165
3068 2776
3068 3941
3068 5042
3069 245
3069 2794
3069 3908
3069 5066
3070 155
3070 2804
3070 3873
3070 5097
3071 178
3071 2710
3071 3906
3071 5053
3072 289
3072 1446
3072 3968
3072 5241
3073 296
3073 1481
3073 4004
3073 5180
3074 356
3074 1535
3074 4032
3074 5228
3075 277
3075 1447
3075 4020
3075 5126
3076 286
3076 1468
3076 4059
3076 5125
3077 282
3077 1513
3077 3992
3077 5206
3078 288
3078 1501
3078 4068
3078 5233
3079 298
3079 1455
3079 4027
3079 5207
3080 338
3080 1517
3080 4073
3080 5232
3081 305
3081 1530
3081 4015
3081 5239
3082 317
3082 1415
3082 4083
3082 5191
3083 382
3083 1440
3083 4043
3083 5185
3084 336
3084 1465
3084 4066
3084 5170
3085 259
3085 1484
3085 4016
3085 5176
3086 327
3086 1414
3086 4081
3086 5121
3087 351
3087 1432
3087 4063
3087 5211
3088 313
3088 1503
3088 4029
3088 5177
3089 301
3089 1524
3089 4089
3089 5150
3090 306
3090 1423
3090 3972
3090 5188
3091 361
3091 1508
3091 4033
3091 5240
3092 326
3092 1488
3092 4037
3092 5213
3093 340
3093 1452
3093 4011
3093 5216
3094 312
3094 1442
3094 4091
3094 5230
3095 297
3095 1472
3095 4050
3095 5204
3096 362
3096 1450
3096 3976
3096 5124
3097 357
3097 1502
3097 4060
3097 5200
3098 353
3098 1528
3098 4069
3098 5205
3099 342
3099 1441
3099 4010
3099 5195
3100 371
3100 1431
3100 4095
3100 5193
3101 329
3101 1490
3101 4067
3101 5134
3102 381
3102 1510
3102 3991
3102 5128
3103 328
3103 1470
3103 4005
3103 5172
3104 346
3104 1489
3104 3990
3104 5192
3105 280
3105 1497
3105 4001
3105 5212
3106 355
3106 1458
3106 4092
3106 5146
3107 308
3107 1448
3107 4080
3107 5135
3108 318
3108 1433
3108 3988
3108 5231
3109 379
3109 1457
3109 4088
3109 5234
3110 343
3110 1471
3110 3974
3110 5236
3111 367
3111 1478
3111 4071
3111 5143
3112 314
3112 1494
3112 4049
3112 5194
3113 319
3113 1419
3113 4002
3113 5161
3114 375
3114 1456
3114 4062
3114 5226
3115 372
3115 1512
3115 4035
3115 5151
3116 290
3116 1467
3116 3977
3116 5219
3117 383
3117 1439
3117 4070
3117 5198
3118 307
3118 1438
3118 4019
3118 5229
3119 293
3119 1500
3119 4053
3119 5202
3120 303
3120 1463
3120 4018
3120 5224
3121 304
3121 1507
3121 4078
3121 5215
3122 373
3122 1526
3122 4093
3122 5156
3123 275
3123 1516
3123 4082
3123 5208
3124 273
3124 1411
3124 4023
3124 5159
3125 302
3125 1511
3125 3981
3125 5173
3126 269
3126 1480
3126 4077
3126 5242
3127 309
3127 1464
3127 4094
3127 5196
3128 368
3128 1466
3128 4046
3128 5190
3129 333
3129 1426
3129 4022
3129 5137
3130 258
3130 1504
3130 3987
3130 5132
3131 272
3131 1485
3131 4017
3131 5175
3132 330
3132 1487
3132 4007
3132 5153
3133 352
3133 1492
3133 4079
3133 5187
3134 322
3134 1421
3134 3971
3134 5214
3135 380
3135 1469
3135 4057
3135 5227
3136 378
3136 1495
3136 3973
3136 5171
3137 366
3137 1533
3137 3984
3137 5184
3138 260
3138 1498
3138 3983
3138 5155
3139 311
3139 1519
3139 4014
3139 5243
3140 377
3140 1529
3140 4036
3140 5122
3141 264
3141 1420
3141 4047
3141 5145
3142 345
3142 1499
3142 3969
3142 5163
3143 341
3143 1459
3143 4061
3143 5181
3144 374
3144 1527
3144 4072
3144 5167
3145 344
3145 1410
3145 4008
3145 5157
3146 339
3146 1520
3146 4026
3146 5147
3147 349
3147 1428
3147 4025
3147 5138
3148 299
3148 1417
3148 4044
3148 5164
3149 316
3149 1496
3149 4045
3149 5246
3150 295
3150 1518
3150 4038
3150 5179
3151 276
3151 1454
3151 3982
3151 5168
3152 283
3152 1427
3152 3975
3152 5136
3153 291
3153 1462
3153 4003
3153 5245
3154 365
3154 1525
3154 3995
3154 5223
3155 324
3155 1430
3155 4058
3155 5127
3156 285
3156 1409
3156 4034
3156 5199
3157 300
3157 1416
3157 3978
3157 5235
3158 321
3158 1429
3158 3997
3158 5165
3159 281
3159 1523
3159 4087
3159 5123
3160 332
3160 1474
3160 4056
3160 5152
3161 350
3161 1477
3161 4054
3161 5217
3162 266
3162 1436
3162 4064
3162 5144
3163 360
3163 1424
3163 4074
3163 5237
3164 271
3164 1522
3164 4065
3164 5149
3165 358
3165 1493
3165 4000
3165 5244
3166 335
3166 1482
3166 4021
3166 5130
3167 279
3167 1460
3167 4042
3167 5189
3168 334
3168 1413
3168 4012
3168 5210
3169 268
3169 1509
3169 4041
3169 5141
3170 278
3170 1408
3170 3999
3170 5203
3171 325
3171 1434
3171 4086
3171 5201
3172 294
3172 1521
3172 4039
3172 5148
3173 337
3173 1425
3173 3985
3173 5140
3174 263
3174 1483
3174 4076
3174 5154
3175 363
3175 1491
3175 3994
3175 5238
3176 376
3176 1531
3176 4031
3176 5225
3177 267
3177 1445
3177 3993
3177 5218
3178 261
3178 1437
3178 4051
3178 5209
3179 274
3179 1444
3179 4075
3179 5221
3180 287
3180 1532
3180 4013
3180 5166
3181 265
3181 1435
3181 4009
3181 5129
3182 292
3182 1449
3182 3996
3182 5182
3183 270
3183 1479
3183 3998
3183 5139
3184 284
3184 1412
3184 3986
3184 5178
3185 256
3185 1534
3185 4006
3185 5158
3186 331
3186 1418
3186 4028
3186 5162
3187 347
3187 1514
3187 4055
3187 5142
3188 310
3188 1475
3188 4040
3188 5131
3189 369
3189 1515
3189 4052
3189 5186
3190 315
3190 1476
3190 4048
3190 5220
3191 348
3191 1486
3191 3979
3191 5247
3192 354
3192 1443
3192 4085
3192 5174
3193 364
3193 1506
3193 4024
3193 5133
3194 323
3194 1461
3194 4030
3194 5183
3195 359
3195 1453
3195 3980
3195 5169
3196 262
3196 1422
3196 3989
3196 5197
3197 370
3197 1451
3197 4084
3197 5120
3198 320
3198 1473
3198 4090
3198 5160
3199 257
3199 1505
3199 3970
3199 5222
3200 411
3200 1587
3200 4186
3200 5338
3201 499
3201 1555
3201 4115
3201 5248
3202 397
3202 1642
3202 4223
3202 5294
3203 405
3203 1569
3203 4199
3203 5264
3204 482
3204 1637
3204 4105
3204 5282
3205 469
3205 1601
3205 4193
3205 5258
3206 396
3206 1572
3206 4131
3206 5259
3207 388
3207 1544
3207 4154
3207 5326
3208 496
3208 1537
3208 4134
3208 5352
3209 475
3209 1651
3209 4124
3209 5360
3210 443
3210 1631
3210 4121
3210 5254
3211 473
3211 1593
3211 4116
3211 5266
3212 508
3212 1571
3212 4217
3212 5287
3213 463
3213 1644
3213 4160
3213 5285
3214 458
3214 1655
3214 4194
3214 5295
3215 408
3215 1614
3215 4174
3215 5346
3216 503
3216 1611
3216 4123
3216 5344
3217 440
3217 1582
3217 4175
3217 5336
3218 428
3218 1585
3218 4103
3218 5280
3219 481
3219 1645
3219 4111
3219 5261
3220 497
3220 1588
3220 4189
3220 5284
3221 451
3221 1547
3221 4192
3221 5289
3222 492
3222 1633
3222 4159
3222 5275
3223 438
3223 1607
3223 4220
3223 5325
3224 459
3224 1632
3224 4104
3224 5309
3225 502
3225 1586
3225 4099
3225 5276
3226 449
3226 1641
3226 4172
3226 5333
3227 425
3227 1561
3227 4177
3227 5252
3228 466
3228 1559
3228 4108
3228 5273
3229 453
3229 1554
3229 4127
3229 5277
3230 444
3230 1660
3230 4150
3230 5300
3231 506
3231 1619
3231 4162
3231 5363
3232 412
3232 1621
3232 4163
3232 5367
3233 511
3233 1650
3233 4101
3233 5279
3234 441
3234 1540
3234 4140
3234 5297
3235 395
3235 1589
3235 4128
3235 5306
3236 410
3236 1562
3236 4164
3236 5328
3237 394
3237 1609
3237 4113
3237 5370
3238 448
3238 1636
3238 4222
3238 5299
3239 461
3239 1596
3239 4218
3239 5270
3240 479
3240 1615
3240 4107
3240 5353
3241 442
3241 1539
3241 4188
3241 5288
3242 392
3242 1591
3242 4136
3242 5315
3243 422
3243 1565
3243 4146
3243 5312
3244 401
3244 1646
3244 4202
3244 5368
3245 478
3245 1662
3245 4173
3245 5251
3246 400
3246 1628
3246 4214
3246 5364
3247 510
3247 1604
3247 4158
3247 5260
3248 493
3248 1597
3248 4167
3248 5334
3249 488
3249 1627
3249 4149
3249 5269
3250 389
3250 1617
3250 4196
3250 5354
3251 416
3251 1603
3251 4171
3251 5301
3252 486
3252 1577
3252 4151
3252 5274
3253 421
3253 1566
3253 4125
3253 5343
3254 385
3254 1648
3254 4114
3254 5321
3255 393
3255 1570
3255 4166
3255 5303
3256 490
3256 1558
3256 4142
3256 5365
3257 474
3257 1623
3257 4138
3257 5375
3258 402
3258 1629
3258 4148
3258 5348
3259 436
3259 1610
3259 4155
3259 5372
3260 487
3260 1553
3260 4096
3260 5330
3261 480
3261 1618
3261 4215
3261 5341
3262 390
3262 1635
3262 4206
3262 5272
3263 504
3263 1602
3263 4190
3263 5305
3264 415
3264 1590
3264 4204
3264 5290
3265 494
3265 1578
3265 4117
3265 5371
3266 426
3266 1549
3266 4210
3266 5369
3267 387
3267 1663
3267 4184
3267 5350
3268 484
3268 1557
3268 4211
3268 5366
3269 477
3269 1573
3269 4118
3269 5267
3270 452
3270 1624
3270 4122
3270 5358
3271 433
3271 1568
3271 4135
3271 5291
3272 409
3272 1575
3272 4191
3272 5351
3273 509
3273 1656
3273 4137
3273 5345
3274 462
3274 1647
3274 4132
3274 5356
3275 495
3275 1574
3275 4141
3275 5359
3276 476
3276 1545
3276 4221
3276 5278
3277 424
3277 1600
3277 4110
3277 5316
3278 500
3278 1579
3278 4219
3278 5250
3279 427
3279 1659
3279 4165
3279 5335
3280 505
3280 1552
3280 4180
3280 5308
3281 434
3281 1626
3281 4119
3281 5311
3282 391
3282 1542
3282 4147
3282 5322
3283 468
3283 1536
3283 4120
3283 5298
3284 399
3284 1613
3284 4129
3284 5317
3285 413
3285 1550
3285 4102
3285 5327
3286 446
3286 1599
3286 4183
3286 5320
3287 404
3287 1652
3287 4207
3287 5329
3288 431
3288 1639
3288 4198
3288 5323
3289 403
3289 1576
3289 4144
3289 5361
3290 417
3290 1560
3290 4100
3290 5357
3291 398
3291 1640
3291 4126
3291 5337
3292 406
3292 1583
3292 4133
3292 5283
3293 507
3293 1605
3293 4208
3293 5340
3294 437
3294 1551
3294 4187
3294 5255
3295 445
3295 1567
3295 4170
3295 5342
3296 429
3296 1643
3296 4156
3296 5307
3297 419
3297 1638
3297 4213
3297 5318
3298 386
3298 1584
3298 4169
3298 5257
3299 464
3299 1657
3299 4216
3299 5256
3300 467
3300 1541
3300 4112
3300 5304
3301 447
3301 1548
3301 4181
3301 5302
3302 439
3302 1556
3302 4145
3302 5296
3303 471
3303 1630
3303 4098
3303 5324
3304 460
3304 1634
3304 4139
3304 5271
3305 432
3305 1658
3305 4185
3305 5268
3306 491
3306 1592
3306 4205
3306 5331
3307 485
3307 1654
3307 4212
3307 5286
3308 465
3308 1564
3308 4178
3308 5249
3309 407
3309 1594
3309 4097
3309 5355
3310 483
3310 1616
3310 4168
3310 5332
3311 450
3311 1608
3311 4109
3311 5347
3312 470
3312 1538
3312 4182
3312 5319
3313 472
3313 1563
3313 4143
3313 5253
3314 430
3314 1622
3314 4161
3314 5373
3315 418
3315 1546
3315 4209
3315 5313
3316 457
3316 1612
3316 4195
3316 5292
3317 423
3317 1661
3317 4157
3317 5262
3318 454
3318 1653
3318 4130
3318 5265
3319 414
3319 1598
3319 4176
3319 5362
3320 384
3320 1620
3320 4201
3320 5263
3321 498
3321 1625
3321 4106
3321 5310
3322 489
3322 1606
3322 4203
3322 5281
3323 456
3323 1543
3323 4200
3323 5339
3324 455
3324 1581
3324 4153
3324 5349
3325 435
3325 1649
3325 4179
3325 5293
3326 420
3326 1580
3326 4197
3326 5374
3327 501
3327 1595
3327 4152
3327 5314
3328 631
3328 1726
3328 2830
3328 5399
3329 524
3329 1708
3329 2904
3329 5398
3330 562
3330 1773
3330 2821
3330 5448
3331 519
3331 1786
3331 2877
3331 5496
3332 548
3332 1743
3332 2919
3332 5437
3333 521
3333 1715
3333 2881
3333 5389
3334 597
3334 1675
3334 2925
3334 5440
3335 587
3335 1788
3335 2834
3335 5471
3336 577
3336 1712
3336 2865
3336 5413
3337 537
3337 1692
3337 2883
3337 5460
3338 530
3338 1669
3338 2884
3338 5482
3339 608
3339 1785
3339 2932
3339 5467
3340 516
3340 1724
3340 2889
3340 5390
3341 582
3341 1688
3341 2876
3341 5431
3342 627
3342 1727
3342 2900
3342 5493
3343 529
3343 1673
3343 2937
3343 5455
3344 632
3344 1671
3344 2913
3344 5501
3345 576
3345 1666
3345 2902
3345 5380
3346 563
3346 1697
3346 2873
3346 5404
3347 599
3347 1676
3347 2930
3347 5470
3348 535
3348 1701
3348 2894
3348 5464
3349 602
3349 1739
3349 2864
3349 5434
3350 556
3350 1703
3350 2938
3350 5383
3351 560
3351 1789
3351 2853
3351 5439
3352 630
3352 1709
3352 2893
3352 5432
3353 527
3353 1670
3353 2912
3353 5435
3354 538
3354 1684
3354 2929
3354 5419
3355 541
3355 1685
3355 2909
3355 5465
3356 633
3356 1677
3356 2861
3356 5407
3357 566
3357 1749
3357 2852
3357 5478
3358 565
3358 1765
3358 2872
3358 5385
3359 639
3359 1686
3359 2825
3359 5396
3360 583
3360 1665
3360 2907
3360 5425
3361 554
3361 1734
3361 2888
3361 5421
3362 564
3362 1769
3362 2941
3362 5423
3363 600
3363 1705
3363 2903
3363 5392
3364 607
3364 1761
3364 2838
3364 5499
3365 611
3365 1759
3365 2846
3365 5422
3366 588
3366 1732
3366 2933
3366 5447
3367 574
3367 1775
3367 2878
3367 5394
3368 584
3368 1664
3368 2833
3368 5376
3369 522
3369 1722
3369 2911
3369 5489
3370 544
3370 1756
3370 2843
3370 5490
3371 532
3371 1737
3371 2906
3371 5426
3372 555
3372 1718
3372 2926
3372 5387
3373 579
3373 1777
3373 2829
3373 5473
3374 589
3374 1695
3374 2858
3374 5475
3375 580
3375 1690
3375 2855
3375 5393
3376 540
3376 1750
3376 2828
3376 5481
3377 636
3377 1771
3377 2832
3377 5452
3378 591
3378 1745
3378 2863
3378 5491
3379 514
3379 1679
3379 2859
3379 5463
3380 553
3380 1702
3380 2816
3380 5411
3381 549
3381 1704
3381 2871
3381 5453
3382 624
3382 1707
3382 2928
3382 5382
3383 531
3383 1767
3383 2936
3383 5412
3384 612
3384 1711
3384 2831
3384 5430
3385 616
3385 1689
3385 2923
3385 5400
3386 518
3386 1674
3386 2866
3386 5406
3387 559
3387 1667
3387 2837
3387 5386
3388 596
3388 1699
3388 2823
3388 5409
3389 568
3389 1710
3389 2880
3389 5438
3390 615
3390 1723
3390 2897
3390 5468
3391 628
3391 1720
3391 2931
3391 5429
3392 570
3392 1752
3392 2915
3392 5405
3393 575
3393 1747
3393 2908
3393 5397
3394 517
3394 1683
3394 2899
3394 5484
3395 637
3395 1740
3395 2836
3395 5418
3396 552
3396 1753
3396 2918
3396 5451
3397 557
3397 1696
3397 2943
3397 5414
3398 619
3398 1700
3398 2920
3398 5474
3399 545
3399 1755
3399 2824
3399 5494
3400 578
3400 1678
3400 2896
3400 5485
3401 567
3401 1757
3401 2940
3401 5488
3402 551
3402 1725
3402 2874
3402 5415
3403 621
3403 1738
3403 2848
3403 5445
3404 546
3404 1672
3404 2934
3404 5403
3405 586
3405 1716
3405 2890
3405 5466
3406 626
3406 1729
3406 2927
3406 5472
3407 605
3407 1744
3407 2862
3407 5378
3408 513
3408 1763
3408 2882
3408 5458
3409 585
3409 1758
3409 2842
3409 5442
3410 595
3410 1764
3410 2860
3410 5441
3411 512
3411 1741
3411 2841
3411 5476
3412 606
3412 1772
3412 2840
3412 5479
3413 590
3413 1714
3413 2844
3413 5408
3414 525
3414 1735
3414 2854
3414 5417
3415 634
3415 1731
3415 2826
3415 5480
3416 571
3416 1728
3416 2892
3416 5462
3417 561
3417 1783
3417 2886
3417 5428
3418 603
3418 1778
3418 2905
3418 5486
3419 581
3419 1774
3419 2822
3419 5444
3420 609
3420 1706
3420 2942
3420 5461
3421 550
3421 1784
3421 2935
3421 5492
3422 618
3422 1680
3422 2839
3422 5477
3423 592
3423 1682
3423 2922
3423 5456
3424 610
3424 1694
3424 2817
3424 5391
3425 539
3425 1698
3425 2851
3425 5503
3426 533
3426 1791
3426 2819
3426 5450
3427 558
3427 1768
3427 2939
3427 5427
3428 604
3428 1742
3428 2818
3428 5395
3429 594
3429 1790
3429 2887
3429 5498
3430 614
3430 1687
3430 2891
3430 5388
3431 515
3431 1746
3431 2857
3431 5487
3432 534
3432 1779
3432 2820
3432 5454
3433 528
3433 1787
3433 2847
3433 5379
3434 547
3434 1693
3434 2875
3434 5495
3435 613
3435 1733
3435 2850
3435 5424
3436 601
3436 1730
3436 2924
3436 5384
3437 623
3437 1782
3437 2910
3437 5433
3438 569
3438 1721
3438 2849
3438 5449
3439 536
3439 1776
3439 2914
3439 5416
3440 598
3440 1691
3440 2885
3440 5469
3441 542
3441 1748
3441 2827
3441 5443
3442 573
3442 1760
3442 2835
3442 5410
3443 572
3443 1736
3443 2895
3443 5497
3444 617
3444 1719
3444 2916
3444 5446
3445 622
3445 1754
3445 2856
3445 5457
3446 520
3446 1780
3446 2921
3446 5502
3447 543
3447 1668
3447 2867
3447 5500
3448 526
3448 1766
3448 2869
3448 5401
3449 620
3449 1681
3449 2870
3449 5436
3450 629
3450 1751
3450 2898
3450 5483
3451 635
3451 1781
3451 2879
3451 5420
3452 523
3452 1717
3452 2845
3452 5381
3453 593
3453 1770
3453 2917
3453 5459
3454 638
3454 1762
3454 2901
3454 5402
3455 625
3455 1713
3455 2868
3455 5377
3456 672
3456 1856
3456 3014
3456 5620
3457 640
3457 1895
3457 3043
3457 5619
3458 758
3458 1851
3458 3046
3458 5571
3459 650
3459 1848
3459 3009
3459 5582
3460 757
3460 1919
3460 2963
3460 5526
3461 675
3461 1817
3461 3047
3461 5524
3462 708
3462 1824
3462 3070
3462 5534
3463 666
3463 1835
3463 2967
3463 5565
3464 765
3464 1858
3464 2999
3464 5514
3465 670
3465 1876
3465 2962
3465 5545
3466 696
3466 1849
3466 3056
3466 5530
3467 685
3467 1859
3467 3008
3467 5520
3468 763
3468 1908
3468 2985
3468 5562
3469 725
3469 1863
3469 2960
3469 5511
3470 713
3470 1809
3470 3069
3470 5544
3471 646
3471 1806
3471 2972
3471 5512
3472 671
3472 1837
3472 3055
3472 5540
3473 715
3473 1880
3473 3066
3473 5542
3474 683
3474 1904
3474 3017
3474 5628
3475 707
3475 1802
3475 2971
3475 5609
3476 751
3476 1912
3476 3029
3476 5554
3477 739
3477 1793
3477 2991
3477 5568
3478 720
3478 1825
3478 2993
3478 5626
3479 760
3479 1916
3479 2986
3479 5589
3480 714
3480 1843
3480 3038
3480 5553
3481 641
3481 1885
3481 2950
3481 5580
3482 652
3482 1799
3482 2978
3482 5617
3483 663
3483 1913
3483 3057
3483 5550
3484 748
3484 1910
3484 2975
3484 5616
3485 761
3485 1887
3485 3021
3485 5533
3486 654
3486 1805
3486 3022
3486 5504
3487 756
3487 1891
3487 2947
3487 5597
3488 644
3488 1900
3488 3035
3488 5622
3489 718
3489 1897
3489 3067
3489 5539
3490 762
3490 1800
3490 2958
3490 5586
3491 712
3491 1833
3491 3027
3491 5612
3492 735
3492 1841
3492 2982
3492 5507
3493 655
3493 1820
3493 3054
3493 5557
3494 719
3494 1840
3494 3059
3494 5515
3495 767
3495 1879
3495 2945
3495 5595
3496 676
3496 1832
3496 2987
3496 5611
3497 706
3497 1808
3497 3002
3497 5505
3498 662
3498 1884
3498 3042
3498 5574
3499 684
3499 1886
3499 3000
3499 5583
3500 738
3500 1865
3500 2976
3500 5519
3501 736
3501 1797
3501 3040
3501 5518
3502 701
3502 1892
3502 2969
3502 5506
3503 692
3503 1819
3503 3049
3503 5536
3504 681
3504 1896
3504 3062
3504 5564
3505 703
3505 1838
3505 2964
3505 5604
3506 695
3506 1813
3506 3003
3506 5629
3507 753
3507 1847
3507 3034
3507 5591
3508 716
3508 1818
3508 3024
3508 5570
3509 694
3509 1857
3509 3028
3509 5621
3510 651
3510 1810
3510 2988
3510 5593
3511 693
3511 1878
3511 2970
3511 5605
3512 698
3512 1875
3512 3005
3512 5567
3513 723
3513 1796
3513 3071
3513 5577
3514 686
3514 1881
3514 2983
3514 5618
3515 744
3515 1794
3515 3016
3515 5585
3516 747
3516 1792
3516 3037
3516 5614
3517 648
3517 1829
3517 2998
3517 5608
3518 755
3518 1839
3518 3048
3518 5560
3519 677
3519 1861
3519 3064
3519 5587
3520 682
3520 1866
3520 2980
3520 5631
3521 667
3521 1822
3521 2953
3521 5603
3522 734
3522 1917
3522 2952
3522 5531
3523 759
3523 1795
3523 3018
3523 5598
3524 697
3524 1915
3524 3065
3524 5576
3525 660
3525 1870
3525 3013
3525 5548
3526 649
3526 1903
3526 3052
3526 5513
3527 691
3527 1890
3527 2961
3527 5535
3528 659
3528 1874
3528 2979
3528 5510
3529 749
3529 1842
3529 2965
3529 5509
3530 750
3530 1898
3530 2995
3530 5552
3531 642
3531 1873
3531 3061
3531 5581
3532 688
3532 1850
3532 2996
3532 5584
3533 678
3533 1821
3533 2955
3533 5549
3534 754
3534 1804
3534 3032
3534 5523
3535 730
3535 1814
3535 3033
3535 5547
3536 733
3536 1893
3536 3068
3536 5555
3537 687
3537 1902
3537 2973
3537 5630
3538 668
3538 1914
3538 3039
3538 5575
3539 665
3539 1853
3539 3007
3539 5521
3540 764
3540 1831
3540 3063
3540 5578
3541 742
3541 1830
3541 3019
3541 5627
3542 711
3542 1823
3542 2948
3542 5623
3543 727
3543 1801
3543 3004
3543 5508
3544 746
3544 1811
3544 2966
3544 5573
3545 722
3545 1844
3545 2959
3545 5607
3546 745
3546 1906
3546 3011
3546 5522
3547 737
3547 1845
3547 2990
3547 5561
3548 679
3548 1812
3548 2957
3548 5606
3549 743
3549 1846
3549 3015
3549 5624
3550 702
3550 1894
3550 3010
3550 5569
3551 645
3551 1834
3551 3051
3551 5528
3552 717
3552 1836
3552 2956
3552 5613
3553 643
3553 1882
3553 2997
3553 5527
3554 732
3554 1869
3554 3036
3554 5572
3555 721
3555 1888
3555 3025
3555 5563
3556 699
3556 1907
3556 2974
3556 5599
3557 752
3557 1807
3557 2968
3557 5551
3558 740
3558 1918
3558 2981
3558 5590
3559 664
3559 1798
3559 2951
3559 5543
3560 710
3560 1826
3560 3020
3560 5559
3561 647
3561 1816
3561 3030
3561 5588
3562 653
3562 1855
3562 3045
3562 5538
3563 669
3563 1862
3563 3001
3563 5556
3564 689
3564 1828
3564 3050
3564 5600
3565 673
3565 1877
3565 3023
3565 5601
3566 728
3566 1803
3566 2949
3566 5594
3567 680
3567 1905
3567 3058
3567 5602
3568 731
3568 1852
3568 3060
3568 5610
3569 705
3569 1868
3569 3012
3569 5546
3570 724
3570 1860
3570 2954
3570 5529
3571 726
3571 1901
3571 3053
3571 5532
3572 729
3572 1871
3572 2946
3572 5592
3573 661
3573 1815
3573 3026
3573 5558
3574 766
3574 1911
3574 2984
3574 5579
3575 741
3575 1864
3575 3041
3575 5517
3576 674
3576 1899
3576 2994
3576 5625
3577 690
3577 1854
3577 2989
3577 5537
3578 709
3578 1889
3578 2992
3578 5516
3579 657
3579 1883
3579 3031
3579 5525
3580 700
3580 1867
3580 3006
3580 5541
3581 704
3581 1872
3581 2977
3581 5596
3582 658
3582 1827
3582 3044
3582 5615
3583 656
3583 1909
3583 2944
3583 5566
3584 836
3584 1955
3584 3145
3584 4303
3585 839
3585 2047
3585 3195
3585 4279
3586 804
3586 1966
3586 3179
3586 4312
3587 774
3587 1928
3587 3127
3587 4349
3588 773
3588 1962
3588 3125
3588 4248
3589 861
3589 2038
3589 3098
3589 4310
3590 807
3590 1996
3590 3186
3590 4340
3591 834
3591 1934
3591 3087
3591 4311
3592 868
3592 1989
3592 3111
3592 4252
3593 863
3593 1970
3593 3148
3593 4288
3594 805
3594 2017
3594 3169
3594 4240
3595 872
3595 2010
3595 3170
3595 4347
3596 838
3596 2030
3596 3199
3596 4345
3597 847
3597 1967
3597 3116
3597 4282
3598 791
3598 1976
3598 3182
3598 4287
3599 790
3599 1991
3599 3072
3599 4323
3600 894
3600 1920
3600 3154
3600 4318
3601 803
3601 2032
3601 3171
3601 4264
3602 857
3602 1992
3602 3107
3602 4265
3603 884
3603 2041
3603 3188
3603 4336
3604 889
3604 1975
3604 3080
3604 4242
3605 852
3605 1983
3605 3103
3605 4268
3606 871
3606 1980
3606 3161
3606 4233
3607 841
3607 1984
3607 3112
3607 4246
3608 781
3608 2037
3608 3196
3608 4231
3609 846
3609 2019
3609 3159
3609 4296
3610 874
3610 1937
3610 3136
3610 4250
3611 822
3611 1929
3611 3167
3611 4251
3612 793
3612 1936
3612 3137
3612 4334
3613 892
3613 2045
3613 3173
3613 4243
3614 888
3614 1944
3614 3122
3614 4299
3615 823
3615 2015
3615 3089
3615 4319
3616 777
3616 2039
3616 3172
3616 4342
3617 825
3617 1935
3617 3118
3617 4227
3618 770
3618 2022
3618 3074
3618 4301
3619 870
3619 1985
3619 3184
3619 4326
3620 792
3620 1954
3620 3164
3620 4238
3621 802
3621 2029
3621 3097
3621 4280
3622 843
3622 2031
3622 3177
3622 4302
3623 780
3623 1986
3623 3085
3623 4273
3624 881
3624 2011
3624 3141
3624 4291
3625 886
3625 1930
3625 3185
3625 4329
3626 818
3626 1950
3626 3176
3626 4335
3627 810
3627 2035
3627 3153
3627 4281
3628 837
3628 2026
3628 3192
3628 4226
3629 769
3629 2042
3629 3121
3629 4331
3630 795
3630 2003
3630 3086
3630 4262
3631 816
3631 1973
3631 3151
3631 4328
3632 775
3632 1999
3632 3084
3632 4249
3633 806
3633 2016
3633 3073
3633 4305
3634 882
3634 2033
3634 3123
3634 4330
3635 860
3635 2007
3635 3166
3635 4235
3636 848
3636 2020
3636 3150
3636 4314
3637 811
3637 2036
3637 3165
3637 4247
3638 865
3638 1987
3638 3106
3638 4230
3639 849
3639 1977
3639 3120
3639 4254
3640 813
3640 2000
3640 3077
3640 4261
3641 867
3641 1978
3641 3099
3641 4317
3642 858
3642 1994
3642 3174
3642 4315
3643 801
3643 1933
3643 3131
3643 4244
3644 869
3644 1960
3644 3197
3644 4289
3645 862
3645 1938
3645 3144
3645 4313
3646 887
3646 1942
3646 3075
3646 4237
3647 830
3647 1995
3647 3134
3647 4232
3648 844
3648 2025
3648 3155
3648 4350
3649 776
3649 1952
3649 3146
3649 4256
3650 796
3650 1951
3650 3175
3650 4332
3651 817
3651 1997
3651 3088
3651 4337
3652 827
3652 1932
3652 3109
3652 4341
3653 798
3653 2043
3653 3130
3653 4283
3654 779
3654 1925
3654 3147
3654 4263
3655 829
3655 1924
3655 3156
3655 4276
3656 840
3656 2044
3656 3194
3656 4351
3657 880
3657 2040
3657 3076
3657 4294
3658 854
3658 1956
3658 3093
3658 4304
3659 785
3659 1972
3659 3092
3659 4295
3660 856
3660 2005
3660 3079
3660 4228
3661 789
3661 1948
3661 3101
3661 4259
3662 845
3662 1947
3662 3094
3662 4290
3663 794
3663 1923
3663 3142
3663 4260
3664 893
3664 1943
3664 3102
3664 4316
3665 850
3665 1961
3665 3181
3665 4255
3666 799
3666 1964
3666 3193
3666 4269
3667 768
3667 1981
3667 3108
3667 4277
3668 786
3668 1957
3668 3140
3668 4338
3669 800
3669 1958
3669 3132
3669 4306
3670 876
3670 1968
3670 3189
3670 4339
3671 787
3671 2001
3671 3198
3671 4348
3672 855
3672 2046
3672 3114
3672 4253
3673 891
3673 1971
3673 3135
3673 4234
3674 831
3674 1988
3674 3081
3674 4275
3675 878
3675 1949
3675 3113
3675 4286
3676 815
3676 1990
3676 3180
3676 4258
3677 824
3677 2021
3677 3119
3677 4344
3678 877
3678 1941
3678 3105
3678 4272
3679 866
3679 2014
3679 3139
3679 4308
3680 885
3680 2023
3680 3126
3680 4239
3681 778
3681 1982
3681 3183
3681 4257
3682 864
3682 2008
3682 3078
3682 4346
3683 883
3683 1953
3683 3160
3683 4284
3684 788
3684 1965
3684 3157
3684 4325
3685 859
3685 1959
3685 3129
3685 4298
3686 828
3686 2028
3686 3178
3686 4229
3687 809
3687 2006
3687 3091
3687 4241
3688 895
3688 1922
3688 3117
3688 4224
3689 851
3689 2018
3689 3191
3689 4307
3690 835
3690 1969
3690 3138
3690 4320
3691 797
3691 2013
3691 3152
3691 4297
3692 814
3692 1963
3692 3163
3692 4266
3693 875
3693 1946
3693 3095
3693 4270
3694 771
3694 2004
3694 3100
3694 4343
3695 826
3695 1921
3695 3143
3695 4285
3696 853
3696 2024
3696 3149
3696 4278
3697 812
3697 2002
3697 3083
3697 4245
3698 821
3698 1945
3698 3187
3698 4271
3699 832
3699 1979
3699 3124
3699 4327
3700 842
3700 2012
3700 3110
3700 4267
3701 808
3701 1998
3701 3162
3701 4322
3702 782
3702 2009
3702 3168
3702 4333
3703 772
3703 1926
3703 3115
3703 4321
3704 784
3704 2027
3704 3104
3704 4274
3705 873
3705 1940
3705 3082
3705 4324
3706 783
3706 1974
3706 3090
3706 4236
3707 833
3707 1939
3707 3190
3707 4300
3708 890
3708 2034
3708 3133
3708 4309
3709 879
3709 1931
3709 3128
3709 4293
3710 820
3710 1993
3710 3096
3710 4292
3711 819
3711 1927
3711 3158
3711 4225
3712 929
3712 2076
3712 3235
3712 4423
3713 945
3713 2170
3713 3321
3713 4442
3714 917
3714 2094
3714 3275
3714 4352
3715 984
3715 2167
3715 3244
3715 4415
3716 973
3716 2110
3716 3280
3716 4405
3717 1004
3717 2117
3717 3271
3717 4421
3718 978
3718 2101
3718 3217
3718 4374
3719 950
3719 2111
3719 3238
3719 4365
3720 898
3720 2122
3720 3307
3720 4462
3721 982
3721 2066
3721 3231
3721 4475
3722 987
3722 2056
3722 3292
3722 4465
3723 905
3723 2153
3723 3319
3723 4425
3724 920
3724 2112
3724 3303
3724 4436
3725 968
3725 2084
3725 3251
3725 4431
3726 918
3726 2098
3726 3234
3726 4364
3727 922
3727 2095
3727 3221
3727 4411
3728 1022
3728 2050
3728 3273
3728 4366
3729 926
3729 2090
3729 3210
3729 4441
3730 940
3730 2081
3730 3256
3730 4447
3731 910
3731 2121
3731 3279
3731 4429
3732 1002
3732 2068
3732 3310
3732 4393
3733 989
3733 2099
3733 3286
3733 4389
3734 909
3734 2124
3734 3208
3734 4428
3735 913
3735 2133
3735 3297
3735 4476
3736 936
3736 2137
3736 3262
3736 4395
3737 1016
3737 2100
3737 3254
3737 4381
3738 995
3738 2166
3738 3201
3738 4360
3739 904
3739 2132
3739 3325
3739 4371
3740 990
3740 2083
3740 3215
3740 4420
3741 899
3741 2118
3741 3229
3741 4422
3742 1003
3742 2144
3742 3306
3742 4396
3743 1006
3743 2048
3743 3241
3743 4407
3744 915
3744 2054
3744 3276
3744 4471
3745 925
3745 2106
3745 3255
3745 4432
3746 991
3746 2115
3746 3305
3746 4434
3747 1013
3747 2069
3747 3257
3747 4474
3748 1012
3748 2160
3748 3316
3748 4419
3749 934
3749 2162
3749 3269
3749 4454
3750 921
3750 2113
3750 3320
3750 4478
3751 985
3751 2055
3751 3265
3751 4448
3752 971
3752 2146
3752 3299
3752 4416
3753 946
3753 2143
3753 3245
3753 4443
3754 1014
3754 2131
3754 3209
3754 4408
3755 902
3755 2156
3755 3222
3755 4413
3756 1023
3756 2129
3756 3236
3756 4412
3757 938
3757 2064
3757 3322
3757 4363
3758 980
3758 2140
3758 3212
3758 4470
3759 1001
3759 2092
3759 3284
3759 4467
3760 1007
3760 2067
3760 3225
3760 4357
3761 967
3761 2088
3761 3228
3761 4387
3762 993
3762 2119
3762 3274
3762 4355
3763 901
3763 2109
3763 3324
3763 4477
3764 930
3764 2169
3764 3313
3764 4433
3765 914
3765 2071
3765 3260
3765 4446
3766 960
3766 2052
3766 3289
3766 4427
3767 999
3767 2061
3767 3287
3767 4424
3768 937
3768 2149
3768 3205
3768 4388
3769 953
3769 2163
3769 3300
3769 4373
3770 963
3770 2051
3770 3304
3770 4383
3771 1005
3771 2105
3771 3314
3771 4382
3772 956
3772 2135
3772 3226
3772 4356
3773 974
3773 2173
3773 3282
3773 4479
3774 927
3774 2148
3774 3315
3774 4418
3775 986
3775 2157
3775 3298
3775 4426
3776 1021
3776 2079
3776 3293
3776 4367
3777 897
3777 2120
3777 3309
3777 4376
3778 1011
3778 2138
3778 3252
3778 4375
3779 988
3779 2089
3779 3202
3779 4456
3780 1010
3780 2141
3780 3272
3780 4354
3781 903
3781 2139
3781 3264
3781 4458
3782 979
3782 2155
3782 3267
3782 4372
3783 943
3783 2059
3783 3242
3783 4457
3784 977
3784 2086
3784 3240
3784 4404
3785 932
3785 2159
3785 3291
3785 4452
3786 1009
3786 2150
3786 3246
3786 4358
3787 896
3787 2075
3787 3230
3787 4378
3788 965
3788 2108
3788 3203
3788 4437
3789 959
3789 2136
3789 3268
3789 4369
3790 1017
3790 2104
3790 3283
3790 4438
3791 1015
3791 2060
3791 3223
3791 4409
3792 944
3792 2168
3792 3294
3792 4377
3793 957
3793 2070
3793 3227
3793 4384
3794 1018
3794 2175
3794 3224
3794 4444
3795 908
3795 2126
3795 3285
3795 4390
3796 919
3796 2123
3796 3281
3796 4394
3797 952
3797 2161
3797 3218
3797 4435
3798 941
3798 2072
3798 3237
3798 4414
3799 907
3799 2087
3799 3302
3799 4362
3800 996
3800 2074
3800 3327
3800 4450
3801 998
3801 2085
3801 3277
3801 4385
3802 931
3802 2065
3802 3249
3802 4460
3803 964
3803 2058
3803 3214
3803 4353
3804 928
3804 2062
3804 3318
3804 4410
3805 983
3805 2145
3805 3258
3805 4406
3806 976
3806 2165
3806 3247
3806 4386
3807 911
3807 2171
3807 3308
3807 4461
3808 958
3808 2152
3808 3200
3808 4399
3809 948
3809 2102
3809 3233
3809 4379
3810 997
3810 2130
3810 3216
3810 4359
3811 975
3811 2174
3811 3206
3811 4392
3812 961
3812 2077
3812 3243
3812 4468
3813 962
3813 2091
3813 3239
3813 4391
3814 900
3814 2151
3814 3312
3814 4464
3815 981
3815 2107
3815 3288
3815 4451
3816 1020
3816 2053
3816 3211
3816 4459
3817 954
3817 2172
3817 3263
3817 4463
3818 970
3818 2103
3818 3259
3818 4472
3819 924
3819 2063
3819 3213
3819 4469
3820 935
3820 2093
3820 3326
3820 4402
3821 966
3821 2082
3821 3270
3821 4439
3822 955
3822 2147
3822 3290
3822 4473
3823 1000
3823 2128
3823 3248
3823 4466
3824 994
3824 2080
3824 3323
3824 4380
3825 1008
3825 2049
3825 3207
3825 4398
3826 969
3826 2158
3826 3266
3826 4440
3827 951
3827 2096
3827 3311
3827 4370
3828 916
3828 2057
3828 3232
3828 4449
3829 942
3829 2097
3829 3253
3829 4361
3830 923
3830 2114
3830 3278
3830 4401
3831 906
3831 2125
3831 3250
3831 4455
3832 947
3832 2134
3832 3296
3832 4445
3833 992
3833 2116
3833 3204
3833 4453
3834 972
3834 2073
3834 3317
3834 4400
3835 949
3835 2154
3835 3219
3835 4430
3836 933
3836 2127
3836 3301
3836 4368
3837 912
3837 2078
3837 3261
3837 4403
3838 939
3838 2142
3838 3295
3838 4397
3839 1019
3839 2164
3839 3220
3839 4417
3840 1130
3840 2197
3840 3328
3840 4508
3841 1106
3841 2219
3841 3404
3841 4534
3842 1110
3842 2258
3842 3332
3842 4517
3843 1088
3843 2248
3843 3444
3843 4535
3844 1060
3844 2202
3844 3370
3844 4606
3845 1049
3845 2214
3845 3358
3845 4488
3846 1142
3846 2199
3846 3390
3846 4566
3847 1126
3847 2217
3847 3342
3847 4543
3848 1104
3848 2229
3848 3360
3848 4598
3849 1068
3849 2296
3849 3351
3849 4536
3850 1146
3850 2220
3850 3388
3850 4491
3851 1144
3851 2195
3851 3446
3851 4509
3852 1143
3852 2273
3852 3383
3852 4584
3853 1097
3853 2291
3853 3409
3853 4560
3854 1080
3854 2272
3854 3341
3854 4487
3855 1030
3855 2179
3855 3343
3855 4499
3856 1055
3856 2300
3856 3340
3856 4526
3857 1063
3857 2194
3857 3395
3857 4485
3858 1054
3858 2297
3858 3347
3858 4528
3859 1127
3859 2227
3859 3411
3859 4564
3860 1084
3860 2222
3860 3429
3860 4549
3861 1042
3861 2193
3861 3417
3861 4550
3862 1140
3862 2237
3862 3450
3862 4545
3863 1048
3863 2301
3863 3421
3863 4531
3864 1061
3864 2264
3864 3403
3864 4548
3865 1035
3865 2290
3865 3362
3865 4556
3866 1103
3866 2178
3866 3442
3866 4529
3867 1027
3867 2261
3867 3359
3867 4524
3868 1100
3868 2205
3868 3439
3868 4607
3869 1039
3869 2180
3869 3420
3869 4595
3870 1026
3870 2230
3870 3379
3870 4486
3871 1045
3871 2225
3871 3423
3871 4523
3872 1064
3872 2208
3872 3416
3872 4554
3873 1025
3873 2183
3873 3345
3873 4503
3874 1111
3874 2279
3874 3330
3874 4574
3875 1118
3875 2284
3875 3369
3875 4583
3876 1139
3876 2255
3876 3430
3876 4572
3877 1101
3877 2177
3877 3366
3877 4497
3878 1102
3878 2277
3878 3352
3878 4530
3879 1121
3879 2249
3879 3438
3879 4532
3880 1037
3880 2228
3880 3427
3880 4522
3881 1032
3881 2201
3881 3335
3881 4510
3882 1149
3882 2213
3882 3418
3882 4525
3883 1033
3883 2265
3883 3406
3883 4604
3884 1028
3884 2266
3884 3336
3884 4546
3885 1047
3885 2252
3885 3447
3885 4507
3886 1024
3886 2215
3886 3374
3886 4603
3887 1138
3887 2281
3887 3356
3887 4538
3888 1086
3888 2200
3888 3363
3888 4500
3889 1136
3889 2292
3889 3432
3889 4588
3890 1137
3890 2233
3890 3384
3890 4601
3891 1092
3891 2288
3891 3445
3891 4551
3892 1075
3892 2256
3892 3396
3892 4565
3893 1098
3893 2187
3893 3425
3893 4561
3894 1128
3894 2223
3894 3441
3894 4573
3895 1112
3895 2181
3895 3436
3895 4602
3896 1029
3896 2184
3896 3329
3896 4599
3897 1076
3897 2263
3897 3402
3897 4482
3898 1034
3898 2295
3898 3448
3898 4593
3899 1095
3899 2210
3899 3349
3899 4555
3900 1083
3900 2198
3900 3365
3900 4501
3901 1052
3901 2251
3901 3371
3901 4590
3902 1067
3902 2278
3902 3355
3902 4580
3903 1078
3903 2246
3903 3393
3903 4511
3904 1058
3904 2247
3904 3364
3904 4481
3905 1070
3905 2207
3905 3419
3905 4587
3906 1036
3906 2254
3906 3367
3906 4504
3907 1069
3907 2236
3907 3346
3907 4558
3908 1041
3908 2235
3908 3401
3908 4592
3909 1125
3909 2271
3909 3353
3909 4541
3910 1046
3910 2241
3910 3385
3910 4581
3911 1133
3911 2212
3911 3373
3911 4597
3912 1082
3912 2243
3912 3378
3912 4569
3913 1120
3913 2298
3913 3386
3913 4520
3914 1107
3914 2240
3914 3394
3914 4594
3915 1090
3915 2293
3915 3451
3915 4542
3916 1134
3916 2203
3916 3376
3916 4506
3917 1065
3917 2285
3917 3437
3917 4568
3918 1062
3918 2282
3918 3413
3918 4544
3919 1151
3919 2231
3919 3399
3919 4570
3920 1051
3920 2245
3920 3412
3920 4502
3921 1091
3921 2286
3921 3368
3921 4514
3922 1131
3922 2238
3922 3455
3922 4571
3923 1145
3923 2275
3923 3443
3923 4539
3924 1141
3924 2270
3924 3357
3924 4576
3925 1105
3925 2188
3925 3389
3925 4562
3926 1056
3926 2303
3926 3334
3926 4577
3927 1057
3927 2287
3927 3410
3927 4553
3928 1122
3928 2190
3928 3387
3928 4567
3929 1099
3929 2257
3929 3400
3929 4516
3930 1053
3930 2206
3930 3391
3930 4515
3931 1079
3931 2274
3931 3380
3931 4533
3932 1117
3932 2276
3932 3338
3932 4582
3933 1123
3933 2294
3933 3449
3933 4585
3934 1132
3934 2211
3934 3424
3934 4492
3935 1113
3935 2185
3935 3361
3935 4547
3936 1093
3936 2283
3936 3405
3936 4512
3937 1044
3937 2289
3937 3415
3937 4589
3938 1109
3938 2204
3938 3350
3938 4521
3939 1031
3939 2191
3939 3344
3939 4489
3940 1116
3940 2186
3940 3339
3940 4586
3941 1119
3941 2232
3941 3354
3941 4490
3942 1038
3942 2176
3942 3375
3942 4563
3943 1043
3943 2262
3943 3348
3943 4600
3944 1115
3944 2299
3944 3398
3944 4579
3945 1096
3945 2267
3945 3382
3945 4552
3946 1074
3946 2280
3946 3435
3946 4596
3947 1072
3947 2244
3947 3422
3947 4591
3948 1087
3948 2218
3948 3433
3948 4540
3949 1147
3949 2260
3949 3428
3949 4484
3950 1150
3950 2189
3950 3381
3950 4559
3951 1114
3951 2250
3951 3333
3951 4537
3952 1094
3952 2182
3952 3434
3952 4493
3953 1050
3953 2268
3953 3408
3953 4557
3954 1129
3954 2302
3954 3414
3954 4578
3955 1073
3955 2234
3955 3454
3955 4483
3956 1066
3956 2226
3956 3453
3956 4498
3957 1081
3957 2216
3957 3331
3957 4496
3958 1135
3958 2209
3958 3426
3958 4505
3959 1071
3959 2269
3959 3431
3959 4513
3960 1077
3960 2253
3960 3397
3960 4519
3961 1085
3961 2196
3961 3407
3961 4527
3962 1108
3962 2242
3962 3440
3962 4480
3963 1059
3963 2192
3963 3452
3963 4494
3964 1148
3964 2221
3964 3372
3964 4495
3965 1040
3965 2239
3965 3337
3965 4605
3966 1089
3966 2259
3966 3392
3966 4518
3967 1124
3967 2224
3967 3377
3967 4575
3968 1245
3968 2330
3968 3525
3968 4683
3969 1188
3969 2402
3969 3580
3969 4658
3970 1279
3970 2409
3970 3494
3970 4694
3971 1191
3971 2410
3971 3493
3971 4648
3972 1244
3972 2419
3972 3524
3972 4642
3973 1240
3973 2355
3973 3465
3973 4674
3974 1227
3974 2373
3974 3534
3974 4665
3975 1204
3975 2324
3975 3501
3975 4632
3976 1163
3976 2304
3976 3521
3976 4698
3977 1199
3977 2372
3977 3473
3977 4618
3978 1172
3978 2353
3978 3483
3978 4666
3979 1185
3979 2392
3979 3568
3979 4644
3980 1276
3980 2421
3980 3544
3980 4730
3981 1252
3981 2344
3981 3514
3981 4720
3982 1251
3982 2356
3982 3522
3982 4713
3983 1228
3983 2316
3983 3517
3983 4630
3984 1152
3984 2424
3984 3518
3984 4656
3985 1233
3985 2406
3985 3470
3985 4715
3986 1208
3986 2407
3986 3476
3986 4609
3987 1184
3987 2357
3987 3462
3987 4608
3988 1229
3988 2339
3988 3566
3988 4677
3989 1270
3989 2352
3989 3528
3989 4676
3990 1268
3990 2350
3990 3537
3990 4708
3991 1217
3991 2394
3991 3500
3991 4625
3992 1192
3992 2322
3992 3552
3992 4726
3993 1196
3993 2378
3993 3560
3993 4617
3994 1177
3994 2425
3994 3498
3994 4664
3995 1264
3995 2427
3995 3510
3995 4672
3996 1169
3996 2382
3996 3570
3996 4695
3997 1216
3997 2362
3997 3515
3997 4669
3998 1221
3998 2320
3998 3538
3998 4645
3999 1154
3999 2337
3999 3495
3999 4622
4000 1159
4000 2375
4000 3509
4000 4681
4001 1278
4001 2346
4001 3563
4001 4700
4002 1174
4002 2386
4002 3463
4002 4704
4003 1187
4003 2325
4003 3482
4003 4688
4004 1230
4004 2428
4004 3550
4004 4659
4005 1246
4005 2358
4005 3477
4005 4620
4006 1202
4006 2405
4006 3461
4006 4650
4007 1164
4007 2408
4007 3488
4007 4639
4008 1168
4008 2314
4008 3551
4008 4691
4009 1231
4009 2370
4009 3456
4009 4655
4010 1173
4010 2309
4010 3490
4010 4702
4011 1213
4011 2369
4011 3546
4011 4652
4012 1254
4012 2377
4012 3502
4012 4719
4013 1218
4013 2390
4013 3497
4013 4728
4014 1160
4014 2308
4014 3492
4014 4731
4015 1225
4015 2311
4015 3575
4015 4641
4016 1215
4016 2306
4016 3553
4016 4696
4017 1211
4017 2404
4017 3489
4017 4689
4018 1193
4018 2391
4018 3503
4018 4706
4019 1257
4019 2379
4019 3508
4019 4614
4020 1235
4020 2423
4020 3519
4020 4631
4021 1253
4021 2367
4021 3499
4021 4709
4022 1259
4022 2365
4022 3547
4022 4633
4023 1209
4023 2422
4023 3574
4023 4623
4024 1223
4024 2380
4024 3496
4024 4638
4025 1266
4025 2361
4025 3460
4025 4721
4026 1178
4026 2430
4026 3572
4026 4693
4027 1180
4027 2400
4027 3576
4027 4722
4028 1271
4028 2401
4028 3556
4028 4717
4029 1195
4029 2416
4029 3468
4029 4690
4030 1269
4030 2429
4030 3506
4030 4621
4031 1165
4031 2317
4031 3529
4031 4671
4032 1274
4032 2315
4032 3548
4032 4611
4033 1201
4033 2307
4033 3469
4033 4643
4034 1260
4034 2418
4034 3540
4034 4725
4035 1248
4035 2342
4035 3520
4035 4626
4036 1220
4036 2348
4036 3541
4036 4707
4037 1206
4037 2376
4037 3527
4037 4640
4038 1232
4038 2351
4038 3531
4038 4635
4039 1222
4039 2412
4039 3578
4039 4729
4040 1186
4040 2398
4040 3582
4040 4662
4041 1267
4041 2359
4041 3523
4041 4661
4042 1198
4042 2383
4042 3466
4042 4667
4043 1247
4043 2321
4043 3562
4043 4613
4044 1239
4044 2319
4044 3535
4044 4663
4045 1183
4045 2333
4045 3559
4045 4629
4046 1190
4046 2366
4046 3561
4046 4679
4047 1238
4047 2397
4047 3472
4047 4612
4048 1197
4048 2384
4048 3481
4048 4647
4049 1272
4049 2393
4049 3532
4049 4684
4050 1250
4050 2318
4050 3475
4050 4653
4051 1249
4051 2396
4051 3484
4051 4660
4052 1207
4052 2411
4052 3577
4052 4711
4053 1212
4053 2340
4053 3459
4053 4699
4054 1262
4054 2323
4054 3464
4054 4703
4055 1261
4055 2335
4055 3581
4055 4680
4056 1203
4056 2403
4056 3513
4056 4701
4057 1162
4057 2349
4057 3467
4057 4628
4058 1158
4058 2310
4058 3539
4058 4670
4059 1219
4059 2345
4059 3536
4059 4616
4060 1205
4060 2328
4060 3558
4060 4649
4061 1181
4061 2371
4061 3567
4061 4724
4062 1236
4062 2417
4062 3573
4062 4624
4063 1157
4063 2387
4063 3565
4063 4733
4064 1237
4064 2399
4064 3579
4064 4627
4065 1182
4065 2363
4065 3549
4065 4697
4066 1255
4066 2414
4066 3557
4066 4686
4067 1155
4067 2364
4067 3504
4067 4668
4068 1179
4068 2354
4068 3545
4068 4619
4069 1189
4069 2336
4069 3487
4069 4637
4070 1167
4070 2374
4070 3478
4070 4685
4071 1241
4071 2388
4071 3458
4071 4682
4072 1161
4072 2338
4072 3569
4072 4673
4073 1273
4073 2313
4073 3511
4073 4634
4074 1265
4074 2368
4074 3474
4074 4657
4075 1277
4075 2431
4075 3457
4075 4705
4076 1176
4076 2327
4076 3507
4076 4654
4077 1166
4077 2426
4077 3512
4077 4712
4078 1234
4078 2329
4078 3583
4078 4636
4079 1171
4079 2332
4079 3564
4079 4610
4080 1200
4080 2343
4080 3542
4080 4678
4081 1224
4081 2420
4081 3555
4081 4687
4082 1156
4082 2385
4082 3543
4082 4735
4083 1175
4083 2381
4083 3505
4083 4692
4084 1210
4084 2312
4084 3571
4084 4675
4085 1214
4085 2326
4085 3485
4085 4646
4086 1153
4086 2331
4086 3526
4086 4734
4087 1243
4087 2389
4087 3491
4087 4714
4088 1258
4088 2360
4088 3530
4088 4732
4089 1226
4089 2415
4089 3554
4089 4718
4090 1242
4090 2341
4090 3480
4090 4710
4091 1275
4091 2413
4091 3533
4091 4651
4092 1194
4092 2395
4092 3486
4092 4716
4093 1256
4093 2334
4093 3516
4093 4727
4094 1263
4094 2347
4094 3479
4094 4615
4095 1170
4095 2305
4095 3471
4095 4723
4096 1328
4096 2512
4096 3592
4096 4751
4097 1355
4097 2546
4097 3676
4097 4764
4098 1365
4098 2474
4098 3687
4098 4793
4099 1318
4099 2456
4099 3584
4099 4762
4100 1362
4100 2450
4100 3696
4100 4763
4101 1321
4101 2451
4101 3700
4101 4757
4102 1376
4102 2527
4102 3637
4102 4842
4103 1302
4103 2540
4103 3630
4103 4780
4104 1348
4104 2530
4104 3606
4104 4771
4105 1307
4105 2545
4105 3686
4105 4812
4106 1290
4106 2555
4106 3596
4106 4844
4107 1309
4107 2491
4107 3666
4107 4759
4108 1353
4108 2483
4108 3631
4108 4777
4109 1387
4109 2542
4109 3598
4109 4755
4110 1356
4110 2447
4110 3711
4110 4787
4111 1295
4111 2501
4111 3587
4111 4851
4112 1288
4112 2538
4112 3615
4112 4846
4113 1301
4113 2461
4113 3699
4113 4768
4114 1358
4114 2471
4114 3677
4114 4738
4115 1392
4115 2457
4115 3682
4115 4826
4116 1389
4116 2479
4116 3621
4116 4742
4117 1291
4117 2529
4117 3660
4117 4827
4118 1367
4118 2466
4118 3639
4118 4852
4119 1286
4119 2502
4119 3597
4119 4811
4120 1397
4120 2489
4120 3693
4120 4782
4121 1368
4121 2470
4121 3672
4121 4798
4122 1284
4122 2485
4122 3705
4122 4805
4123 1373
4123 2505
4123 3657
4123 4794
4124 1346
4124 2549
4124 3707
4124 4848
4125 1325
4125 2492
4125 3662
4125 4744
4126 1306
4126 2472
4126 3650
4126 4863
4127 1388
4127 2509
4127 3646
4127 4765
4128 1351
4128 2455
4128 3632
4128 4739
4129 1384
4129 2443
4129 3635
4129 4783
4130 1377
4130 2535
4130 3673
4130 4832
4131 1311
4131 2539
4131 3701
4131 4795
4132 1280
4132 2484
4132 3671
4132 4785
4133 1342
4133 2462
4133 3684
4133 4746
4134 1345
4134 2553
4134 3668
4134 4749
4135 1335
4135 2504
4135 3689
4135 4808
4136 1396
4136 2445
4136 3626
4136 4736
4137 1349
4137 2550
4137 3652
4137 4772
4138 1287
4138 2486
4138 3643
4138 4769
4139 1403
4139 2444
4139 3674
4139 4819
4140 1395
4140 2508
4140 3601
4140 4796
4141 1344
4141 2459
4141 3669
4141 4740
4142 1337
4142 2475
4142 3591
4142 4845
4143 1324
4143 2438
4143 3703
4143 4775
4144 1343
4144 2537
4144 3708
4144 4816
4145 1329
4145 2490
4145 3599
4145 4756
4146 1381
4146 2547
4146 3706
4146 4856
4147 1317
4147 2536
4147 3604
4147 4859
4148 1371
4148 2469
4148 3680
4148 4821
4149 1401
4149 2554
4149 3640
4149 4803
4150 1334
4150 2534
4150 3619
4150 4778
4151 1330
4151 2454
4151 3678
4151 4835
4152 1359
4152 2523
4152 3609
4152 4834
4153 1386
4153 2432
4153 3610
4153 4743
4154 1382
4154 2493
4154 3634
4154 4773
4155 1283
4155 2453
4155 3608
4155 4799
4156 1298
4156 2433
4156 3695
4156 4810
4157 1341
4157 2506
4157 3649
4157 4807
4158 1385
4158 2514
4158 3616
4158 4839
4159 1296
4159 2498
4159 3658
4159 4791
4160 1402
4160 2543
4160 3659
4160 4854
4161 1394
4161 2481
4161 3645
4161 4824
4162 1285
4162 2467
4162 3685
4162 4829
4163 1327
4163 2495
4163 3618
4163 4813
4164 1293
4164 2494
4164 3628
4164 4801
4165 1360
4165 2449
4165 3665
4165 4862
4166 1399
4166 2518
4166 3651
4166 4786
4167 1364
4167 2460
4167 3620
4167 4767
4168 1407
4168 2503
4168 3702
4168 4818
4169 1339
4169 2541
4169 3600
4169 4815
4170 1357
4170 2458
4170 3667
4170 4822
4171 1391
4171 2507
4171 3710
4171 4761
4172 1300
4172 2500
4172 3654
4172 4790
4173 1361
4173 2499
4173 3638
4173 4741
4174 1314
4174 2519
4174 3588
4174 4754
4175 1338
4175 2476
4175 3622
4175 4860
4176 1393
4176 2439
4176 3709
4176 4800
4177 1400
4177 2516
4177 3614
4177 4776
4178 1405
4178 2522
4178 3653
4178 4752
4179 1374
4179 2487
4179 3679
4179 4750
4180 1363
4180 2517
4180 3655
4180 4823
4181 1289
4181 2533
4181 3586
4181 4802
4182 1312
4182 2525
4182 3625
4182 4737
4183 1316
4183 2556
4183 3623
4183 4784
4184 1297
4184 2526
4184 3589
4184 4849
4185 1383
4185 2532
4185 3590
4185 4840
4186 1366
4186 2521
4186 3681
4186 4831
4187 1378
4187 2473
4187 3683
4187 4758
4188 1332
4188 2436
4188 3611
4188 4760
4189 1404
4189 2442
4189 3636
4189 4820
4190 1369
4190 2437
4190 3627
4190 4745
4191 1308
4191 2441
4191 3690
4191 4836
4192 1406
4192 2468
4192 3594
4192 4855
4193 1303
4193 2528
4193 3613
4193 4781
4194 1299
4194 2524
4194 3612
4194 4833
4195 1375
4195 2558
4195 3585
4195 4841
4196 1347
4196 2496
4196 3602
4196 4792
4197 1292
4197 2511
4197 3624
4197 4858
4198 1319
4198 2477
4198 3663
4198 4748
4199 1380
4199 2513
4199 3692
4199 4814
4200 1350
4200 2464
4200 3603
4200 4806
4201 1352
4201 2515
4201 3648
4201 4779
4202 1370
4202 2435
4202 3595
4202 4857
4203 1304
4203 2548
4203 3664
4203 4830
4204 1390
4204 2552
4204 3688
4204 4770
4205 1320
4205 2488
4205 3647
4205 4853
4206 1313
4206 2478
4206 3629
4206 4828
4207 1379
4207 2480
4207 3694
4207 4838
4208 1323
4208 2434
4208 3644
4208 4797
4209 1333
4209 2520
4209 3661
4209 4861
4210 1340
4210 2497
4210 3691
4210 4747
4211 1282
4211 2482
4211 3633
4211 4804
4212 1398
4212 2463
4212 3641
4212 4843
4213 1326
4213 2465
4213 3593
4213 4847
4214 1354
4214 2448
4214 3697
4214 4789
4215 1336
4215 2544
4215 3642
4215 4825
4216 1310
4216 2531
4216 3607
4216 4809
4217 1315
4217 2446
4217 3656
4217 4766
4218 1372
4218 2551
4218 3704
4218 4774
4219 1294
4219 2557
4219 3617
4219 4753
4220 1322
4220 2440
4220 3605
4220 4850
4221 1331
4221 2510
4221 3670
4221 4788
4222 1281
4222 2559
4222 3698
4222 4837
4223 1305
4223 2452
4223 3675
4223 4817
4224 78
4224 2442
4224 3478
4224 4481
4225 125
4225 2457
4225 3534
4225 4583
4226 115
4226 2432
4226 3542
4226 4561
4227 110
4227 2488
4227 3531
4227 4569
4228 84
4228 2503
4228 3563
4228 4602
4229 87
4229 2521
4229 3474
4229 4480
4230 58
4230 2535
4230 3569
4230 4549
4231 35
4231 2554
4231 3560
4231 4487
4232 13
4232 2550
4232 3509
4232 4597
4233 83
4233 2479
4233 3572
4233 4525
4234 30
4234 2512
4234 3555
4234 4513
4235 74
4235 2513
4235 3549
4235 4538
4236 106
4236 2544
4236 3550
4236 4501
4237 6
4237 2520
4237 3466
4237 4559
4238 100
4238 2436
4238 3469
4238 4570
4239 50
4239 2447
4239 3487
4239 4517
4240 121
4240 2505
4240 3460
4240 4607
4241 111
4241 2433
4241 3472
4241 4515
4242 42
4242 2458
4242 3547
4242 4493
4243 98
4243 2523
4243 3533
4243 4540
4244 29
4244 2477
4244 3488
4244 4552
4245 67
4245 2456
4245 3530
4245 4534
4246 122
4246 2556
4246 3477
4246 4504
4247 24
4247 2481
4247 3465
4247 4541
4248 31
4248 2526
4248 3571
4248 4548
4249 102
4249 2502
4249 3500
4249 4575
4250 119
4250 2438
4250 3528
4250 4580
4251 94
4251 2514
4251 3480
4251 4587
4252 48
4252 2537
4252 3456
4252 4498
4253 41
4253 2527
4253 3573
4253 4579
4254 54
4254 2482
4254 3537
4254 4554
4255 19
4255 2484
4255 3485
4255 4555
4256 93
4256 2492
4256 3565
4256 4606
4257 28
4257 2448
4257 3506
4257 4595
4258 11
4258 2508
4258 3536
4258 4510
4259 51
4259 2486
4259 3476
4259 4528
4260 104
4260 2516
4260 3579
4260 4508
4261 126
4261 2506
4261 3548
4261 4523
4262 123
4262 2483
4262 3496
4262 4516
4263 117
4263 2553
4263 3470
4263 4529
4264 61
4264 2474
4264 3516
4264 4531
4265 56
4265 2465
4265 3570
4265 4578
4266 70
4266 2452
4266 3518
4266 4502
4267 69
4267 2541
4267 3522
4267 4567
4268 38
4268 2538
4268 3578
4268 4605
4269 63
4269 2511
4269 3462
4269 4507
4270 44
4270 2498
4270 3499
4270 4499
4271 95
4271 2463
4271 3498
4271 4588
4272 40
4272 2543
4272 3495
4272 4547
4273 85
4273 2460
4273 3511
4273 4530
4274 18
4274 2546
4274 3532
4274 4581
4275 76
4275 2445
4275 3581
4275 4592
4276 22
4276 2473
4276 3475
4276 4520
4277 20
4277 2517
4277 3567
4277 4509
4278 14
4278 2444
4278 3540
4278 4524
4279 7
4279 2509
4279 3512
4279 4500
4280 80
4280 2478
4280 3558
4280 4492
4281 34
4281 2495
4281 3515
4281 4589
4282 79
4282 2453
4282 3479
4282 4514
4283 1
4283 2446
4283 3554
4283 4497
4284 53
4284 2557
4284 3524
4284 4571
4285 112
4285 2529
4285 3481
4285 4604
4286 4
4286 2530
4286 3489
4286 4557
4287 23
4287 2555
4287 3575
4287 4484
4288 113
4288 2536
4288 3544
4288 4522
4289 86
4289 2450
4289 3556
4289 4566
4290 43
4290 2499
4290 3583
4290 4488
4291 55
4291 2487
4291 3490
4291 4558
4292 90
4292 2489
4292 3538
4292 4574
4293 59
4293 2540
4293 3486
4293 4585
4294 15
4294 2449
4294 3574
4294 4533
4295 124
4295 2497
4295 3541
4295 4584
4296 33
4296 2468
4296 3491
4296 4600
4297 66
4297 2501
4297 3501
4297 4535
4298 77
4298 2559
4298 3535
4298 4568
4299 17
4299 2547
4299 3551
4299 4518
4300 62
4300 2475
4300 3459
4300 4593
4301 64
4301 2558
4301 3457
4301 4536
4302 107
4302 2510
4302 3483
4302 4505
4303 96
4303 2518
4303 3525
4303 4562
4304 72
4304 2551
4304 3503
4304 4543
4305 10
4305 2464
4305 3561
4305 4591
4306 81
4306 2496
4306 3464
4306 4483
4307 82
4307 2500
4307 3473
4307 4599
4308 120
4308 2519
4308 3543
4308 4537
4309 60
4309 2507
4309 3529
4309 4596
4310 36
4310 2485
4310 3471
4310 4560
4311 57
4311 2451
4311 3562
4311 4486
4312 68
4312 2466
4312 3508
4312 4526
4313 127
4313 2434
4313 3520
4313 4495
4314 39
4314 2490
4314 3545
4314 4553
4315 37
4315 2476
4315 3557
4315 4494
4316 27
4316 2459
4316 3468
4316 4519
4317 26
4317 2524
4317 3523
4317 4576
4318 2
4318 2443
4318 3513
4318 4572
4319 52
4319 2515
4319 3497
4319 4489
4320 5
4320 2435
4320 3559
4320 4586
4321 0
4321 2467
4321 3517
4321 4521
4322 99
4322 2504
4322 3484
4322 4485
4323 97
4323 2440
4323 3467
4323 4594
4324 8
4324 2533
4324 3461
4324 4539
4325 16
4325 2439
4325 3505
4325 4590
4326 21
4326 2472
4326 3493
4326 4601
4327 92
4327 2441
4327 3553
4327 4546
4328 65
4328 2471
4328 3482
4328 4545
4329 9
4329 2462
4329 3527
4329 4598
4330 25
4330 2491
4330 3492
4330 4496
4331 73
4331 2548
4331 3521
4331 4577
4332 45
4332 2454
4332 3514
4332 4551
4333 47
4333 2532
4333 3519
4333 4511
4334 12
4334 2542
4334 3494
4334 4491
4335 89
4335 2437
4335 3577
4335 4506
4336 108
4336 2545
4336 3526
4336 4573
4337 105
4337 2461
4337 3564
4337 4556
4338 116
4338 2522
4338 3507
4338 4482
4339 3
4339 2493
4339 3546
4339 4490
4340 91
4340 2552
4340 3510
4340 4503
4341 88
4341 2549
4341 3463
4341 4565
4342 49
4342 2494
4342 3539
4342 4542
4343 101
4343 2528
4343 3576
4343 4603
4344 114
4344 2525
4344 3504
4344 4564
4345 75
4345 2531
4345 3458
4345 4550
4346 71
4346 2480
4346 3580
4346 4563
4347 118
4347 2470
4347 3552
4347 4527
4348 109
4348 2469
4348 3566
4348 4532
4349 46
4349 2534
4349 3582
4349 4582
4350 103
4350 2455
4350 3568
4350 4512
4351 32
4351 2539
4351 3502
4351 4544
4352 171
4352 2653
4352 3690
4352 4662
4353 225
4353 2617
4353 3610
4353 4727
4354 174
4354 2632
4354 3625
4354 4669
4355 183
4355 2666
4355 3641
4355 4687
4356 180
4356 2687
4356 3628
4356 4714
4357 160
4357 2616
4357 3589
4357 4667
4358 234
4358 2627
4358 3609
4358 4691
4359 236
4359 2571
4359 3602
4359 4641
4360 216
4360 2592
4360 3683
4360 4657
4361 247
4361 2593
4361 3632
4361 4690
4362 175
4362 2573
4362 3654
4362 4649
4363 142
4363 2561
4363 3659
4363 4616
4364 139
4364 2560
4364 3656
4364 4728
4365 233
4365 2601
4365 3701
4365 4695
4366 135
4366 2661
4366 3593
4366 4655
4367 161
4367 2669
4367 3621
4367 4683
4368 184
4368 2580
4368 3617
4368 4729
4369 210
4369 2631
4369 3648
4369 4644
4370 198
4370 2614
4370 3639
4370 4673
4371 186
4371 2587
4371 3620
4371 4622
4372 168
4372 2618
4372 3655
4372 4680
4373 162
4373 2649
4373 3613
4373 4626
4374 241
4374 2612
4374 3652
4374 4652
4375 163
4375 2609
4375 3615
4375 4682
4376 143
4376 2671
4376 3599
4376 4698
4377 254
4377 2599
4377 3600
4377 4718
4378 202
4378 2676
4378 3669
4378 4621
4379 229
4379 2598
4379 3706
4379 4708
4380 131
4380 2624
4380 3705
4380 4712
4381 141
4381 2642
4381 3666
4381 4697
4382 228
4382 2636
4382 3650
4382 4707
4383 170
4383 2674
4383 3649
4383 4724
4384 140
4384 2569
4384 3623
4384 4628
4385 188
4385 2679
4385 3665
4385 4637
4386 255
4386 2589
4386 3710
4386 4613
4387 158
4387 2658
4387 3651
4387 4731
4388 205
4388 2596
4388 3681
4388 4623
4389 151
4389 2620
4389 3657
4389 4688
4390 248
4390 2685
4390 3596
4390 4627
4391 137
4391 2670
4391 3677
4391 4647
4392 220
4392 2564
4392 3601
4392 4638
4393 226
4393 2654
4393 3635
4393 4726
4394 182
4394 2667
4394 3671
4394 4675
4395 179
4395 2575
4395 3688
4395 4686
4396 227
4396 2680
4396 3624
4396 4630
4397 230
4397 2607
4397 3668
4397 4643
4398 155
4398 2594
4398 3679
4398 4609
4399 206
4399 2665
4399 3634
4399 4648
4400 250
4400 2574
4400 3707
4400 4646
4401 215
4401 2623
4401 3642
4401 4684
4402 192
4402 2656
4402 3658
4402 4635
4403 194
4403 2619
4403 3590
4403 4711
4404 177
4404 2634
4404 3645
4404 4666
4405 246
4405 2673
4405 3702
4405 4735
4406 150
4406 2608
4406 3684
4406 4700
4407 232
4407 2672
4407 3695
4407 4658
4408 244
4408 2606
4408 3637
4408 4679
4409 190
4409 2621
4409 3696
4409 4702
4410 148
4410 2659
4410 3619
4410 4720
4411 200
4411 2662
4411 3626
4411 4704
4412 187
4412 2681
4412 3700
4412 4631
4413 224
4413 2595
4413 3630
4413 4665
4414 133
4414 2641
4414 3611
4414 4660
4415 252
4415 2664
4415 3693
4415 4636
4416 153
4416 2663
4416 3633
4416 4733
4417 169
4417 2638
4417 3631
4417 4703
4418 181
4418 2657
4418 3698
4418 4715
4419 189
4419 2581
4419 3662
4419 4654
4420 144
4420 2640
4420 3680
4420 4685
4421 178
4421 2633
4421 3643
4421 4664
4422 146
4422 2647
4422 3595
4422 4651
4423 185
4423 2644
4423 3699
4423 4672
4424 134
4424 2684
4424 3661
4424 4719
4425 132
4425 2682
4425 3689
4425 4640
4426 211
4426 2565
4426 3704
4426 4624
4427 237
4427 2678
4427 3622
4427 4689
4428 152
4428 2605
4428 3584
4428 4694
4429 212
4429 2646
4429 3588
4429 4716
4430 166
4430 2630
4430 3608
4430 4612
4431 165
4431 2639
4431 3691
4431 4671
4432 176
4432 2603
4432 3594
4432 4617
4433 223
4433 2570
4433 3604
4433 4629
4434 243
4434 2668
4434 3670
4434 4678
4435 242
4435 2563
4435 3672
4435 4642
4436 191
4436 2591
4436 3627
4436 4706
4437 203
4437 2604
4437 3653
4437 4701
4438 164
4438 2650
4438 3692
4438 4619
4439 136
4439 2576
4439 3644
4439 4670
4440 214
4440 2600
4440 3682
4440 4696
4441 249
4441 2626
4441 3585
4441 4611
4442 156
4442 2597
4442 3663
4442 4656
4443 154
4443 2651
4443 3646
4443 4709
4444 253
4444 2645
4444 3603
4444 4699
4445 208
4445 2652
4445 3660
4445 4608
4446 218
4446 2567
4446 3614
4446 4618
4447 204
4447 2655
4447 3592
4447 4653
4448 222
4448 2562
4448 3606
4448 4615
4449 196
4449 2602
4449 3591
4449 4614
4450 221
4450 2615
4450 3708
4450 4732
4451 128
4451 2586
4451 3711
4451 4674
4452 235
4452 2611
4452 3676
4452 4625
4453 129
4453 2613
4453 3605
4453 4693
4454 157
4454 2579
4454 3674
4454 4632
4455 209
4455 2683
4455 3647
4455 4681
4456 238
4456 2610
4456 3685
4456 4705
4457 197
4457 2590
4457 3667
4457 4722
4458 149
4458 2643
4458 3694
4458 4677
4459 138
4459 2584
4459 3586
4459 4692
4460 251
4460 2629
4460 3629
4460 4676
4461 199
4461 2582
4461 3664
4461 4713
4462 201
4462 2660
4462 3697
4462 4663
4463 145
4463 2686
4463 3616
4463 4734
4464 193
4464 2648
4464 3612
4464 4610
4465 240
4465 2628
4465 3618
4465 4710
4466 239
4466 2675
4466 3687
4466 4668
4467 167
4467 2625
4467 3597
4467 4659
4468 147
4468 2583
4468 3703
4468 4645
4469 219
4469 2635
4469 3678
4469 4620
4470 217
4470 2637
4470 3636
4470 4725
4471 195
4471 2588
4471 3640
4471 4723
4472 207
4472 2585
4472 3673
4472 4721
4473 231
4473 2577
4473 3675
4473 4633
4474 172
4474 2566
4474 3638
4474 4634
4475 173
4475 2622
4475 3709
4475 4650
4476 130
4476 2578
4476 3587
4476 4730
4477 245
4477 2572
4477 3598
4477 4661
4478 159
4478 2677
4478 3607
4478 4639
4479 213
4479 2568
4479 3686
4479 4717
4480 274
4480 2789
4480 3717
4480 4807
4481 278
4481 2758
4481 3720
4481 4743
4482 336
4482 2705
4482 3793
4482 4821
4483 360
4483 2795
4483 3746
4483 4754
4484 315
4484 2785
4484 3726
4484 4840
4485 271
4485 2746
4485 3756
4485 4775
4486 356
4486 2805
4486 3796
4486 4803
4487 335
4487 2815
4487 3771
4487 4846
4488 266
4488 2782
4488 3722
4488 4809
4489 317
4489 2692
4489 3824
4489 4837
4490 298
4490 2743
4490 3791
4490 4742
4491 347
4491 2751
4491 3737
4491 4736
4492 339
4492 2763
4492 3814
4492 4792
4493 381
4493 2712
4493 3745
4493 4855
4494 306
4494 2809
4494 3730
4494 4794
4495 279
4495 2769
4495 3823
4495 4820
4496 286
4496 2804
4496 3799
4496 4777
4497 323
4497 2800
4497 3733
4497 4755
4498 370
4498 2702
4498 3765
4498 4839
4499 337
4499 2706
4499 3719
4499 4779
4500 300
4500 2757
4500 3764
4500 4844
4501 363
4501 2736
4501 3835
4501 4805
4502 270
4502 2744
4502 3773
4502 4808
4503 325
4503 2716
4503 3825
4503 4817
4504 333
4504 2798
4504 3724
4504 4800
4505 367
4505 2748
4505 3767
4505 4818
4506 383
4506 2774
4506 3806
4506 4756
4507 280
4507 2783
4507 3749
4507 4766
4508 344
4508 2754
4508 3774
4508 4745
4509 302
4509 2725
4509 3794
4509 4842
4510 378
4510 2704
4510 3754
4510 4764
4511 353
4511 2747
4511 3738
4511 4813
4512 265
4512 2719
4512 3839
4512 4784
4513 284
4513 2802
4513 3808
4513 4789
4514 311
4514 2755
4514 3783
4514 4862
4515 287
4515 2690
4515 3715
4515 4848
4516 272
4516 2728
4516 3795
4516 4738
4517 299
4517 2731
4517 3797
4517 4850
4518 294
4518 2794
4518 3807
4518 4845
4519 267
4519 2717
4519 3740
4519 4852
4520 372
4520 2713
4520 3725
4520 4804
4521 359
4521 2803
4521 3815
4521 4861
4522 258
4522 2709
4522 3821
4522 4778
4523 357
4523 2777
4523 3723
4523 4753
4524 338
4524 2762
4524 3712
4524 4859
4525 261
4525 2771
4525 3736
4525 4823
4526 275
4526 2799
4526 3792
4526 4791
4527 320
4527 2720
4527 3787
4527 4796
4528 285
4528 2786
4528 3748
4528 4770
4529 342
4529 2749
4529 3780
4529 4806
4530 322
4530 2714
4530 3831
4530 4828
4531 352
4531 2697
4531 3817
4531 4793
4532 305
4532 2759
4532 3781
4532 4772
4533 269
4533 2727
4533 3836
4533 4810
4534 292
4534 2750
4534 3735
4534 4782
4535 354
4535 2721
4535 3769
4535 4762
4536 368
4536 2693
4536 3778
4536 4827
4537 330
4537 2732
4537 3828
4537 4854
4538 276
4538 2718
4538 3755
4538 4773
4539 307
4539 2767
4539 3779
4539 4758
4540 377
4540 2779
4540 3739
4540 4795
4541 364
4541 2814
4541 3811
4541 4739
4542 376
4542 2773
4542 3732
4542 4819
4543 331
4543 2698
4543 3718
4543 4825
4544 282
4544 2700
4544 3805
4544 4760
4545 375
4545 2701
4545 3830
4545 4757
4546 316
4546 2734
4546 3838
4546 4790
4547 318
4547 2745
4547 3786
4547 4751
4548 288
4548 2761
4548 3753
4548 4748
4549 348
4549 2781
4549 3803
4549 4860
4550 362
4550 2708
4550 3775
4550 4783
4551 382
4551 2770
4551 3727
4551 4838
4552 256
4552 2790
4552 3763
4552 4769
4553 341
4553 2724
4553 3750
4553 4814
4554 293
4554 2807
4554 3810
4554 4843
4555 263
4555 2739
4555 3802
4555 4765
4556 264
4556 2813
4556 3760
4556 4829
4557 328
4557 2766
4557 3834
4557 4802
4558 308
4558 2691
4558 3801
4558 4824
4559 361
4559 2695
4559 3758
4559 4849
4560 301
4560 2793
4560 3788
4560 4737
4561 312
4561 2722
4561 3816
4561 4822
4562 321
4562 2696
4562 3784
4562 4815
4563 332
4563 2710
4563 3798
4563 4788
4564 324
4564 2753
4564 3751
4564 4836
4565 327
4565 2703
4565 3747
4565 4752
4566 296
4566 2808
4566 3759
4566 4786
4567 268
4567 2811
4567 3752
4567 4776
4568 303
4568 2707
4568 3818
4568 4858
4569 310
4569 2776
4569 3734
4569 4826
4570 283
4570 2792
4570 3800
4570 4812
4571 334
4571 2780
4571 3776
4571 4816
4572 380
4572 2689
4572 3813
4572 4841
4573 295
4573 2737
4573 3826
4573 4774
4574 340
4574 2752
4574 3785
4574 4780
4575 309
4575 2733
4575 3820
4575 4853
4576 326
4576 2784
4576 3762
4576 4744
4577 379
4577 2715
4577 3744
4577 4747
4578 259
4578 2775
4578 3804
4578 4763
4579 257
4579 2812
4579 3728
4579 4787
4580 304
4580 2797
4580 3766
4580 4832
4581 290
4581 2810
4581 3741
4581 4781
4582 371
4582 2741
4582 3790
4582 4761
4583 260
4583 2699
4583 3731
4583 4847
4584 277
4584 2740
4584 3721
4584 4831
4585 374
4585 2787
4585 3761
4585 4801
4586 329
4586 2738
4586 3782
4586 4863
4587 358
4587 2742
4587 3729
4587 4797
4588 319
4588 2778
4588 3742
4588 4811
4589 291
4589 2756
4589 3789
4589 4851
4590 262
4590 2806
4590 3770
4590 4799
4591 355
4591 2735
4591 3809
4591 4834
4592 369
4592 2688
4592 3827
4592 4798
4593 346
4593 2723
4593 3716
4593 4750
4594 289
4594 2730
4594 3714
4594 4759
4595 313
4595 2768
4595 3833
4595 4741
4596 345
4596 2694
4596 3812
4596 4740
4597 314
4597 2711
4597 3777
4597 4785
4598 349
4598 2788
4598 3819
4598 4857
4599 365
4599 2772
4599 3713
4599 4746
4600 373
4600 2760
4600 3822
4600 4749
4601 297
4601 2801
4601 3757
4601 4771
4602 281
4602 2726
4602 3829
4602 4833
4603 351
4603 2796
4603 3743
4603 4768
4604 350
4604 2764
4604 3768
4604 4835
4605 273
4605 2765
4605 3772
4605 4830
4606 366
4606 2791
4606 3832
4606 4767
4607 343
4607 2729
4607 3837
4607 4856
4608 482
4608 1506
4608 3866
4608 4953
4609 481
4609 1464
4609 3843
4609 4894
4610 511
4610 1441
4610 3844
4610 4978
4611 501
4611 1507
4611 3861
4611 4899
4612 386
4612 1453
4612 3922
4612 4884
4613 506
4613 1517
4613 3925
4613 4942
4614 490
4614 1467
4614 3891
4614 4889
4615 451
4615 1512
4615 3940
4615 4946
4616 397
4616 1448
4616 3917
4616 4902
4617 474
4617 1423
4617 3901
4617 4909
4618 405
4618 1501
4618 3897
4618 4990
4619 498
4619 1524
4619 3911
4619 4968
4620 452
4620 1477
4620 3924
4620 4963
4621 389
4621 1452
4621 3870
4621 4971
4622 414
4622 1530
4622 3936
4622 4959
4623 424
4623 1531
4623 3846
4623 4908
4624 420
4624 1457
4624 3955
4624 4914
4625 408
4625 1482
4625 3855
4625 4962
4626 479
4626 1415
4626 3909
4626 4880
4627 394
4627 1494
4627 3952
4627 4952
4628 486
4628 1433
4628 3963
4628 4893
4629 387
4629 1460
4629 3957
4629 4944
4630 427
4630 1487
4630 3881
4630 4975
4631 436
4631 1521
4631 3895
4631 4988
4632 477
4632 1439
4632 3961
4632 4964
4633 472
4633 1500
4633 3967
4633 4934
4634 439
4634 1478
4634 3849
4634 4965
4635 411
4635 1533
4635 3874
4635 4924
4636 416
4636 1474
4636 3867
4636 4882
4637 480
4637 1490
4637 3916
4637 4906
4638 442
4638 1495
4638 3871
4638 4928
4639 476
4639 1413
4639 3921
4639 4932
4640 462
4640 1408
4640 3896
4640 4900
4641 425
4641 1508
4641 3886
4641 4986
4642 456
4642 1515
4642 3946
4642 4960
4643 497
4643 1483
4643 3930
4643 4940
4644 475
4644 1496
4644 3876
4644 4907
4645 463
4645 1440
4645 3914
4645 4980
4646 399
4646 1473
4646 3928
4646 4927
4647 478
4647 1459
4647 3840
4647 4870
4648 391
4648 1528
4648 3845
4648 4891
4649 393
4649 1529
4649 3958
4649 4871
4650 495
4650 1481
4650 3960
4650 4961
4651 503
4651 1518
4651 3888
4651 4981
4652 464
4652 1520
4652 3910
4652 4958
4653 465
4653 1442
4653 3907
4653 4905
4654 473
4654 1428
4654 3927
4654 4911
4655 422
4655 1509
4655 3905
4655 4987
4656 469
4656 1504
4656 3868
4656 4888
4657 468
4657 1489
4657 3931
4657 4943
4658 493
4658 1514
4658 3954
4658 4947
4659 491
4659 1426
4659 3842
4659 4872
4660 438
4660 1499
4660 3938
4660 4941
4661 505
4661 1414
4661 3857
4661 4984
4662 507
4662 1445
4662 3912
4662 4945
4663 418
4663 1488
4663 3863
4663 4901
4664 461
4664 1435
4664 3949
4664 4879
4665 402
4665 1417
4665 3918
4665 4867
4666 455
4666 1527
4666 3882
4666 4890
4667 417
4667 1424
4667 3875
4667 4883
4668 500
4668 1485
4668 3956
4668 4915
4669 487
4669 1535
4669 3847
4669 4923
4670 428
4670 1451
4670 3852
4670 4969
4671 384
4671 1471
4671 3900
4671 4895
4672 433
4672 1503
4672 3943
4672 4955
4673 392
4673 1505
4673 3887
4673 4925
4674 492
4674 1431
4674 3889
4674 4983
4675 395
4675 1444
4675 3923
4675 4917
4676 460
4676 1419
4676 3951
4676 4874
4677 385
4677 1447
4677 3913
4677 4921
4678 454
4678 1522
4678 3950
4678 4885
4679 504
4679 1534
4679 3953
4679 4950
4680 388
4680 1461
4680 3915
4680 4937
4681 398
4681 1526
4681 3899
4681 4881
4682 419
4682 1450
4682 3878
4682 4933
4683 453
4683 1421
4683 3848
4683 4922
4684 390
4684 1438
4684 3890
4684 4972
4685 431
4685 1412
4685 3920
4685 4982
4686 406
4686 1480
4686 3892
4686 4886
4687 429
4687 1525
4687 3944
4687 4892
4688 435
4688 1436
4688 3926
4688 4898
4689 421
4689 1469
4689 3908
4689 4973
4690 437
4690 1497
4690 3933
4690 4869
4691 430
4691 1425
4691 3841
4691 4887
4692 509
4692 1519
4692 3959
4692 4875
4693 494
4693 1437
4693 3929
4693 4876
4694 508
4694 1449
4694 3941
4694 4954
4695 466
4695 1532
4695 3898
4695 4976
4696 488
4696 1472
4696 3945
4696 4936
4697 499
4697 1458
4697 3947
4697 4864
4698 485
4698 1465
4698 3850
4698 4904
4699 445
4699 1430
4699 3859
4699 4916
4700 483
4700 1416
4700 3948
4700 4910
4701 426
4701 1454
4701 3903
4701 4919
4702 484
4702 1516
4702 3965
4702 4939
4703 441
4703 1498
4703 3906
4703 4967
4704 450
4704 1443
4704 3935
4704 4951
4705 401
4705 1479
4705 3880
4705 4878
4706 443
4706 1456
4706 3872
4706 4929
4707 444
4707 1463
4707 3894
4707 4985
4708 400
4708 1427
4708 3962
4708 4979
4709 409
4709 1411
4709 3858
4709 4903
4710 432
4710 1486
4710 3869
4710 4991
4711 471
4711 1429
4711 3853
4711 4930
4712 404
4712 1466
4712 3860
4712 4931
4713 412
4713 1470
4713 3966
4713 4918
4714 502
4714 1484
4714 3854
4714 4956
4715 447
4715 1462
4715 3919
4715 4926
4716 458
4716 1446
4716 3873
4716 4974
4717 396
4717 1468
4717 3879
4717 4970
4718 496
4718 1523
4718 3885
4718 4935
4719 440
4719 1510
4719 3851
4719 4948
4720 457
4720 1476
4720 3932
4720 4989
4721 470
4721 1511
4721 3904
4721 4977
4722 510
4722 1475
4722 3942
4722 4896
4723 449
4723 1513
4723 3939
4723 4877
4724 467
4724 1409
4724 3937
4724 4873
4725 459
4725 1432
4725 3884
4725 4913
4726 448
4726 1491
4726 3964
4726 4966
4727 415
4727 1420
4727 3865
4727 4912
4728 423
4728 1492
4728 3864
4728 4865
4729 410
4729 1418
4729 3934
4729 4957
4730 407
4730 1410
4730 3856
4730 4949
4731 403
4731 1455
4731 3893
4731 4920
4732 489
4732 1502
4732 3877
4732 4868
4733 446
4733 1493
4733 3862
4733 4897
4734 413
4734 1422
4734 3883
4734 4866
4735 434
4735 1434
4735 3902
4735 4938
4736 589
4736 1642
4736 4001
4736 5042
4737 514
4737 1640
4737 3980
4737 5105
4738 548
4738 1600
4738 3993
4738 4997
4739 569
4739 1597
4739 3991
4739 5091
4740 576
4740 1628
4740 4011
4740 5096
4741 616
4741 1555
4741 4052
4741 5062
4742 604
4742 1557
4742 4006
4742 5028
4743 541
4743 1603
4743 4068
4743 5027
4744 615
4744 1633
4744 4023
4744 5103
4745 544
4745 1584
4745 4051
4745 5107
4746 574
4746 1571
4746 4084
4746 5009
4747 534
4747 1626
4747 4033
4747 5022
4748 512
4748 1569
4748 3975
4748 5109
4749 598
4749 1590
4749 4058
4749 5047
4750 540
4750 1618
4750 4012
4750 5065
4751 542
4751 1556
4751 3977
4751 4996
4752 620
4752 1563
4752 4086
4752 4992
4753 632
4753 1582
4753 4014
4753 5004
4754 515
4754 1572
4754 4000
4754 5102
4755 612
4755 1617
4755 4002
4755 5104
4756 603
4756 1593
4756 4020
4756 5055
4757 600
4757 1652
4757 3990
4757 5063
4758 622
4758 1542
4758 4029
4758 5075
4759 550
4759 1581
4759 4008
4759 4995
4760 513
4760 1578
4760 4065
4760 5092
4761 625
4761 1619
4761 3968
4761 5052
4762 633
4762 1587
4762 3992
4762 5043
4763 602
4763 1602
4763 4085
4763 5089
4764 532
4764 1648
4764 4036
4764 5072
4765 547
4765 1630
4765 4028
4765 5115
4766 585
4766 1604
4766 4071
4766 5003
4767 524
4767 1646
4767 4080
4767 5087
4768 555
4768 1601
4768 3978
4768 5071
4769 557
4769 1656
4769 3971
4769 5030
4770 631
4770 1551
4770 4005
4770 5078
4771 537
4771 1596
4771 4041
4771 5077
4772 587
4772 1543
4772 4042
4772 5117
4773 630
4773 1624
4773 3985
4773 5012
4774 553
4774 1663
4774 4073
4774 5050
4775 636
4775 1544
4775 4074
4775 5090
4776 606
4776 1589
4776 4088
4776 5076
4777 543
4777 1615
4777 4046
4777 5073
4778 563
4778 1643
4778 4079
4778 5097
4779 609
4779 1583
4779 4069
4779 5101
4780 571
4780 1623
4780 4063
4780 5118
4781 637
4781 1560
4781 4082
4781 5040
4782 586
4782 1616
4782 3988
4782 5098
4783 558
4783 1632
4783 4027
4783 5067
4784 623
4784 1549
4784 4037
4784 5001
4785 530
4785 1575
4785 3973
4785 5100
4786 564
4786 1573
4786 4056
4786 5061
4787 549
4787 1588
4787 4081
4787 5049
4788 545
4788 1537
4788 4047
4788 5064
4789 521
4789 1566
4789 4095
4789 5031
4790 593
4790 1606
4790 3981
4790 5023
4791 605
4791 1552
4791 4062
4791 5093
4792 635
4792 1634
4792 3997
4792 5016
4793 601
4793 1585
4793 4067
4793 5010
4794 577
4794 1645
4794 4093
4794 5033
4795 573
4795 1660
4795 4059
4795 5059
4796 627
4796 1608
4796 4026
4796 5083
4797 518
4797 1610
4797 4039
4797 5113
4798 519
4798 1662
4798 4094
4798 5054
4799 535
4799 1638
4799 4025
4799 5006
4800 556
4800 1550
4800 4021
4800 5019
4801 613
4801 1659
4801 3987
4801 5114
4802 517
4802 1574
4802 4061
4802 5084
4803 566
4803 1611
4803 3989
4803 5008
4804 575
4804 1558
4804 4024
4804 5000
4805 594
4805 1561
4805 4010
4805 5053
4806 533
4806 1554
4806 4032
4806 4993
4807 597
4807 1553
4807 4013
4807 5085
4808 628
4808 1567
4808 4019
4808 5099
4809 561
4809 1591
4809 3972
4809 5034
4810 529
4810 1599
4810 4064
4810 5005
4811 568
4811 1637
4811 4057
4811 5080
4812 554
4812 1577
4812 4031
4812 5119
4813 562
4813 1629
4813 4003
4813 5086
4814 567
4814 1647
4814 4017
4814 5094
4815 531
4815 1627
4815 4092
4815 5021
4816 583
4816 1631
4816 4090
4816 5025
4817 520
4817 1565
4817 4078
4817 5044
4818 590
4818 1641
4818 4015
4818 5081
4819 607
4819 1622
4819 4077
4819 5039
4820 559
4820 1562
4820 3976
4820 5056
4821 526
4821 1612
4821 4045
4821 5011
4822 525
4822 1580
4822 4034
4822 4998
4823 538
4823 1568
4823 3986
4823 5057
4824 608
4824 1546
4824 3995
4824 5029
4825 522
4825 1657
4825 4072
4825 5070
4826 624
4826 1655
4826 4053
4826 5032
4827 610
4827 1541
4827 3998
4827 5069
4828 588
4828 1605
4828 4076
4828 5026
4829 560
4829 1651
4829 4009
4829 5020
4830 551
4830 1564
4830 3994
4830 5017
4831 570
4831 1661
4831 4035
4831 5112
4832 565
4832 1536
4832 4030
4832 5074
4833 617
4833 1579
4833 4055
4833 5035
4834 626
4834 1586
4834 4007
4834 5066
4835 591
4835 1595
4835 4044
4835 5015
4836 523
4836 1540
4836 4091
4836 5116
4837 596
4837 1644
4837 3982
4837 5007
4838 599
4838 1539
4838 4043
4838 5013
4839 546
4839 1547
4839 4066
4839 4994
4840 611
4840 1607
4840 4083
4840 5108
4841 629
4841 1609
4841 4070
4841 5111
4842 539
4842 1658
4842 3974
4842 5082
4843 579
4843 1635
4843 3969
4843 5037
4844 536
4844 1598
4844 4054
4844 5095
4845 638
4845 1594
4845 4060
4845 5046
4846 582
4846 1639
4846 3970
4846 5088
4847 552
4847 1545
4847 4016
4847 5018
4848 619
4848 1576
4848 3979
4848 5068
4849 581
4849 1620
4849 4040
4849 5106
4850 614
4850 1592
4850 4049
4850 5036
4851 572
4851 1570
4851 4048
4851 5041
4852 618
4852 1613
4852 4089
4852 5024
4853 527
4853 1614
4853 3999
4853 5038
4854 578
4854 1538
4854 4087
4854 5051
4855 595
4855 1621
4855 4050
4855 5079
4856 592
4856 1559
4856 4038
4856 4999
4857 580
4857 1654
4857 4004
4857 5058
4858 639
4858 1625
4858 3983
4858 5002
4859 516
4859 1653
4859 3984
4859 5048
4860 584
4860 1649
4860 4075
4860 5060
4861 528
4861 1650
4861 3996
4861 5110
4862 621
4862 1548
4862 4022
4862 5014
4863 634
4863 1636
4863 4018
4863 5045
4864 733
4864 1677
4864 4159
4864 5121
4865 709
4865 1721
4865 4212
4865 5216
4866 690
4866 1758
4866 4156
4866 5196
4867 714
4867 1664
4867 4101
4867 5138
4868 736
4868 1720
4868 4102
4868 5180
4869 640
4869 1769
4869 4117
4869 5122
4870 663
4870 1733
4870 4202
4870 5219
4871 693
4871 1688
4871 4223
4871 5152
4872 726
4872 1754
4872 4200
4872 5247
4873 743
4873 1697
4873 4188
4873 5183
4874 758
4874 1759
4874 4192
4874 5142
4875 706
4875 1710
4875 4166
4875 5169
4876 764
4876 1752
4876 4143
4876 5160
4877 756
4877 1672
4877 4147
4877 5225
4878 707
4878 1762
4878 4139
4878 5149
4879 678
4879 1673
4879 4194
4879 5165
4880 759
4880 1764
4880 4175
4880 5194
4881 642
4881 1785
4881 4099
4881 5185
4882 748
4882 1737
4882 4173
4882 5153
4883 676
4883 1701
4883 4208
4883 5172
4884 710
4884 1693
4884 4210
4884 5133
4885 643
4885 1775
4885 4184
4885 5124
4886 651
4886 1684
4886 4118
4886 5217
4887 766
4887 1724
4887 4138
4887 5175
4888 700
4888 1779
4888 4130
4888 5227
4889 738
4889 1689
4889 4220
4889 5202
4890 731
4890 1748
4890 4213
4890 5234
4891 760
4891 1772
4891 4178
4891 5173
4892 746
4892 1741
4892 4196
4892 5182
4893 670
4893 1757
4893 4141
4893 5241
4894 762
4894 1687
4894 4106
4894 5208
4895 681
4895 1694
4895 4104
4895 5145
4896 730
4896 1755
4896 4163
4896 5187
4897 721
4897 1732
4897 4157
4897 5195
4898 719
4898 1714
4898 4217
4898 5229
4899 761
4899 1704
4899 4214
4899 5147
4900 698
4900 1786
4900 4174
4900 5135
4901 684
4901 1671
4901 4115
4901 5209
4902 657
4902 1715
4902 4150
4902 5158
4903 703
4903 1675
4903 4107
4903 5161
4904 691
4904 1707
4904 4186
4904 5164
4905 696
4905 1767
4905 4207
4905 5137
4906 704
4906 1692
4906 4191
4906 5146
4907 658
4907 1696
4907 4189
4907 5192
4908 679
4908 1770
4908 4127
4908 5206
4909 649
4909 1698
4909 4206
4909 5159
4910 735
4910 1784
4910 4148
4910 5235
4911 652
4911 1739
4911 4125
4911 5141
4912 646
4912 1728
4912 4108
4912 5144
4913 755
4913 1708
4913 4112
4913 5189
4914 754
4914 1750
4914 4218
4914 5242
4915 734
4915 1747
4915 4193
4915 5200
4916 695
4916 1745
4916 4137
4916 5213
4917 653
4917 1713
4917 4170
4917 5215
4918 673
4918 1682
4918 4182
4918 5154
4919 737
4919 1783
4919 4177
4919 5226
4920 745
4920 1666
4920 4201
4920 5221
4921 727
4921 1712
4921 4209
4921 5174
4922 757
4922 1678
4922 4129
4922 5240
4923 752
4923 1768
4923 4124
4923 5148
4924 686
4924 1706
4924 4134
4924 5150
4925 739
4925 1681
4925 4096
4925 5246
4926 674
4926 1789
4926 4180
4926 5162
4927 655
4927 1776
4927 4128
4927 5211
4928 753
4928 1668
4928 4097
4928 5184
4929 685
4929 1765
4929 4149
4929 5163
4930 750
4930 1738
4930 4176
4930 5233
4931 765
4931 1730
4931 4164
4931 5199
4932 645
4932 1787
4932 4215
4932 5166
4933 644
4933 1740
4933 4142
4933 5157
4934 725
4934 1778
4934 4172
4934 5212
4935 654
4935 1751
4935 4140
4935 5143
4936 666
4936 1705
4936 4135
4936 5201
4937 672
4937 1756
4937 4110
4937 5243
4938 702
4938 1771
4938 4185
4938 5132
4939 680
4939 1743
4939 4161
4939 5223
4940 650
4940 1722
4940 4162
4940 5179
4941 669
4941 1782
4941 4204
4941 5207
4942 661
4942 1686
4942 4121
4942 5236
4943 660
4943 1690
4943 4195
4943 5232
4944 675
4944 1760
4944 4219
4944 5128
4945 665
4945 1729
4945 4136
4945 5190
4946 683
4946 1726
4946 4109
4946 5237
4947 711
4947 1685
4947 4146
4947 5191
4948 741
4948 1766
4948 4167
4948 5139
4949 699
4949 1680
4949 4222
4949 5239
4950 717
4950 1718
4950 4158
4950 5204
4951 749
4951 1774
4951 4187
4951 5168
4952 763
4952 1761
4952 4131
4952 5171
4953 656
4953 1703
4953 4190
4953 5126
4954 724
4954 1669
4954 4165
4954 5155
4955 767
4955 1700
4955 4181
4955 5130
4956 705
4956 1667
4956 4153
4956 5231
4957 740
4957 1742
4957 4111
4957 5140
4958 667
4958 1670
4958 4169
4958 5120
4959 688
4959 1749
4959 4155
4959 5151
4960 728
4960 1717
4960 4211
4960 5136
4961 732
4961 1727
4961 4126
4961 5181
4962 729
4962 1716
4962 4205
4962 5188
4963 647
4963 1736
4963 4203
4963 5134
4964 694
4964 1790
4964 4098
4964 5222
4965 648
4965 1780
4965 4151
4965 5197
4966 641
4966 1788
4966 4179
4966 5177
4967 701
4967 1674
4967 4199
4967 5244
4968 742
4968 1719
4968 4116
4968 5129
4969 677
4969 1753
4969 4122
4969 5230
4970 715
4970 1735
4970 4152
4970 5220
4971 751
4971 1781
4971 4100
4971 5214
4972 722
4972 1665
4972 4171
4972 5203
4973 744
4973 1709
4973 4216
4973 5245
4974 713
4974 1791
4974 4145
4974 5156
4975 723
4975 1744
4975 4103
4975 5218
4976 664
4976 1702
4976 4198
4976 5167
4977 692
4977 1725
4977 4133
4977 5193
4978 712
4978 1731
4978 4120
4978 5210
4979 659
4979 1691
4979 4119
4979 5228
4980 662
4980 1777
4980 4132
4980 5178
4981 668
4981 1679
4981 4154
4981 5127
4982 747
4982 1746
4982 4197
4982 5186
4983 720
4983 1676
4983 4113
4983 5224
4984 689
4984 1763
4984 4123
4984 5123
4985 671
4985 1723
4985 4105
4985 5238
4986 716
4986 1773
4986 4144
4986 5125
4987 697
4987 1711
4987 4183
4987 5131
4988 708
4988 1695
4988 4114
4988 5198
4989 682
4989 1699
4989 4160
4989 5176
4990 718
4990 1683
4990 4221
4990 5205
4991 687
4991 1734
4991 4168
4991 5170
4992 868
4992 1847
4992 2870
4992 5353
4993 774
4993 1855
4993 2922
4993 5292
4994 795
4994 1909
4994 2938
4994 5375
4995 809
4995 1916
4995 2843
4995 5344
4996 787
4996 1910
4996 2911
4996 5313
4997 836
4997 1837
4997 2939
4997 5309
4998 840
4998 1918
4998 2818
4998 5284
4999 796
4999 1884
4999 2928
4999 5262
5000 781
5000 1796
5000 2893
5000 5266
5001 816
5001 1866
5001 2930
5001 5256
5002 801
5002 1858
5002 2832
5002 5358
5003 805
5003 1792
5003 2931
5003 5314
5004 788
5004 1803
5004 2845
5004 5299
5005 886
5005 1805
5005 2888
5005 5374
5006 824
5006 1860
5006 2826
5006 5347
5007 891
5007 1821
5007 2860
5007 5341
5008 877
5008 1881
5008 2858
5008 5306
5009 880
5009 1908
5009 2876
5009 5319
5010 846
5010 1898
5010 2914
5010 5271
5011 878
5011 1885
5011 2904
5011 5361
5012 797
5012 1802
5012 2880
5012 5275
5013 814
5013 1843
5013 2921
5013 5359
5014 843
5014 1813
5014 2902
5014 5303
5015 894
5015 1889
5015 2833
5015 5272
5016 893
5016 1869
5016 2916
5016 5305
5017 852
5017 1862
5017 2862
5017 5295
5018 808
5018 1812
5018 2822
5018 5258
5019 786
5019 1848
5019 2879
5019 5366
5020 854
5020 1845
5020 2920
5020 5315
5021 785
5021 1852
5021 2896
5021 5302
5022 807
5022 1831
5022 2839
5022 5263
5023 873
5023 1878
5023 2912
5023 5252
5024 782
5024 1832
5024 2929
5024 5301
5025 832
5025 1890
5025 2836
5025 5277
5026 820
5026 1875
5026 2855
5026 5291
5027 885
5027 1870
5027 2852
5027 5336
5028 772
5028 1896
5028 2910
5028 5331
5029 830
5029 1838
5029 2892
5029 5370
5030 864
5030 1816
5030 2913
5030 5329
5031 811
5031 1850
5031 2882
5031 5351
5032 777
5032 1794
5032 2903
5032 5257
5033 862
5033 1851
5033 2899
5033 5360
5034 844
5034 1861
5034 2917
5034 5357
5035 818
5035 1810
5035 2861
5035 5298
5036 848
5036 1830
5036 2829
5036 5293
5037 838
5037 1800
5037 2835
5037 5337
5038 829
5038 1874
5038 2926
5038 5330
5039 806
5039 1888
5039 2837
5039 5328
5040 798
5040 1863
5040 2905
5040 5348
5041 831
5041 1825
5041 2869
5041 5325
5042 802
5042 1907
5042 2849
5042 5364
5043 871
5043 1818
5043 2877
5043 5334
5044 792
5044 1817
5044 2895
5044 5304
5045 776
5045 1900
5045 2897
5045 5335
5046 783
5046 1828
5046 2886
5046 5365
5047 847
5047 1823
5047 2874
5047 5285
5048 770
5048 1846
5048 2894
5048 5333
5049 784
5049 1806
5049 2856
5049 5260
5050 842
5050 1879
5050 2932
5050 5317
5051 875
5051 1865
5051 2901
5051 5281
5052 869
5052 1892
5052 2898
5052 5339
5053 823
5053 1856
5053 2873
5053 5270
5054 865
5054 1826
5054 2817
5054 5372
5055 837
5055 1795
5055 2866
5055 5316
5056 768
5056 1857
5056 2919
5056 5280
5057 884
5057 1894
5057 2854
5057 5363
5058 804
5058 1880
5058 2941
5058 5278
5059 874
5059 1911
5059 2885
5059 5324
5060 815
5060 1899
5060 2890
5060 5321
5061 799
5061 1901
5061 2830
5061 5352
5062 812
5062 1893
5062 2865
5062 5288
5063 794
5063 1820
5063 2907
5063 5300
5064 790
5064 1876
5064 2825
5064 5290
5065 775
5065 1811
5065 2937
5065 5343
5066 883
5066 1807
5066 2925
5066 5373
5067 845
5067 1915
5067 2821
5067 5342
5068 870
5068 1819
5068 2867
5068 5320
5069 817
5069 1854
5069 2864
5069 5355
5070 867
5070 1877
5070 2850
5070 5367
5071 876
5071 1808
5071 2940
5071 5276
5072 855
5072 1883
5072 2943
5072 5259
5073 892
5073 1903
5073 2828
5073 5265
5074 860
5074 1867
5074 2819
5074 5369
5075 779
5075 1895
5075 2859
5075 5274
5076 810
5076 1835
5076 2891
5076 5268
5077 853
5077 1906
5077 2816
5077 5282
5078 778
5078 1859
5078 2909
5078 5310
5079 833
5079 1897
5079 2846
5079 5273
5080 819
5080 1839
5080 2927
5080 5346
5081 835
5081 1872
5081 2923
5081 5338
5082 825
5082 1809
5082 2883
5082 5289
5083 872
5083 1840
5083 2871
5083 5264
5084 793
5084 1814
5084 2884
5084 5308
5085 857
5085 1853
5085 2824
5085 5326
5086 826
5086 1849
5086 2924
5086 5254
5087 773
5087 1886
5087 2906
5087 5250
5088 856
5088 1914
5088 2863
5088 5269
5089 834
5089 1913
5089 2840
5089 5249
5090 827
5090 1841
5090 2900
5090 5253
5091 822
5091 1804
5091 2878
5091 5286
5092 881
5092 1824
5092 2875
5092 5332
5093 887
5093 1815
5093 2887
5093 5267
5094 800
5094 1799
5094 2889
5094 5279
5095 780
5095 1842
5095 2933
5095 5318
5096 789
5096 1793
5096 2942
5096 5255
5097 888
5097 1912
5097 2838
5097 5296
5098 866
5098 1891
5098 2848
5098 5261
5099 861
5099 1834
5099 2827
5099 5354
5100 791
5100 1833
5100 2868
5100 5283
5101 889
5101 1798
5101 2934
5101 5356
5102 859
5102 1797
5102 2853
5102 5350
5103 803
5103 1902
5103 2915
5103 5371
5104 769
5104 1904
5104 2872
5104 5327
5105 895
5105 1919
5105 2834
5105 5323
5106 813
5106 1873
5106 2844
5106 5340
5107 821
5107 1822
5107 2935
5107 5362
5108 841
5108 1871
5108 2847
5108 5248
5109 849
5109 1801
5109 2918
5109 5287
5110 858
5110 1882
5110 2823
5110 5349
5111 839
5111 1905
5111 2842
5111 5345
5112 851
5112 1836
5112 2881
5112 5307
5113 850
5113 1868
5113 2831
5113 5322
5114 863
5114 1829
5114 2857
5114 5368
5115 828
5115 1887
5115 2908
5115 5294
5116 771
5116 1827
5116 2820
5116 5297
5117 882
5117 1844
5117 2851
5117 5311
5118 879
5118 1917
5118 2936
5118 5251
5119 890
5119 1864
5119 2841
5119 5312
5120 976
5120 1968
5120 3046
5120 5391
5121 903
5121 1964
5121 2957
5121 5479
5122 957
5122 1987
5122 3018
5122 5396
5123 923
5123 1953
5123 2982
5123 5443
5124 974
5124 2044
5124 3019
5124 5465
5125 921
5125 2007
5125 3067
5125 5405
5126 939
5126 1971
5126 3013
5126 5487
5127 945
5127 1983
5127 2955
5127 5397
5128 1001
5128 1945
5128 3055
5128 5387
5129 938
5129 1936
5129 3068
5129 5400
5130 908
5130 2033
5130 3041
5130 5390
5131 910
5131 2028
5131 3017
5131 5501
5132 960
5132 2013
5132 3049
5132 5475
5133 905
5133 2019
5133 3065
5133 5453
5134 955
5134 1994
5134 3069
5134 5454
5135 992
5135 2024
5135 3020
5135 5376
5136 934
5136 2015
5136 3043
5136 5478
5137 1019
5137 1970
5137 2948
5137 5409
5138 1005
5138 1965
5138 3064
5138 5457
5139 994
5139 1934
5139 3006
5139 5382
5140 951
5140 1991
5140 2994
5140 5471
5141 917
5141 2034
5141 2966
5141 5497
5142 964
5142 2025
5142 3029
5142 5460
5143 1018
5143 1958
5143 3058
5143 5385
5144 912
5144 1923
5144 2947
5144 5490
5145 928
5145 1921
5145 2950
5145 5482
5146 988
5146 2012
5146 2951
5146 5381
5147 920
5147 2002
5147 3025
5147 5502
5148 924
5148 1947
5148 2981
5148 5389
5149 943
5149 2006
5149 2961
5149 5483
5150 947
5150 2043
5150 2967
5150 5503
5151 973
5151 2021
5151 3014
5151 5464
5152 913
5152 1975
5152 2989
5152 5484
5153 897
5153 2022
5153 3066
5153 5425
5154 1009
5154 1997
5154 3045
5154 5393
5155 980
5155 2032
5155 2952
5155 5491
5156 1010
5156 2026
5156 3044
5156 5434
5157 916
5157 2046
5157 3028
5157 5458
5158 952
5158 1995
5158 2991
5158 5406
5159 911
5159 1928
5159 3015
5159 5450
5160 985
5160 1989
5160 3036
5160 5414
5161 907
5161 1960
5161 3037
5161 5416
5162 961
5162 1944
5162 3033
5162 5388
5163 931
5163 1978
5163 3048
5163 5427
5164 975
5164 1946
5164 2984
5164 5403
5165 949
5165 2010
5165 3034
5165 5500
5166 956
5166 2003
5166 3050
5166 5469
5167 1022
5167 2039
5167 2993
5167 5492
5168 898
5168 1939
5168 3011
5168 5380
5169 909
5169 1969
5169 3021
5169 5433
5170 984
5170 2030
5170 2998
5170 5431
5171 941
5171 1955
5171 3040
5171 5447
5172 954
5172 1941
5172 3003
5172 5448
5173 927
5173 1961
5173 2975
5173 5411
5174 962
5174 1974
5174 2985
5174 5493
5175 925
5175 1924
5175 3047
5175 5413
5176 983
5176 1959
5176 2956
5176 5486
5177 970
5177 1981
5177 2992
5177 5399
5178 1002
5178 1988
5178 3024
5178 5468
5179 899
5179 2037
5179 3070
5179 5430
5180 948
5180 2008
5180 2983
5180 5480
5181 914
5181 1948
5181 2980
5181 5379
5182 999
5182 2004
5182 2972
5182 5485
5183 1020
5183 2005
5183 2965
5183 5498
5184 929
5184 2041
5184 2953
5184 5417
5185 1021
5185 1986
5185 2946
5185 5392
5186 906
5186 1999
5186 3023
5186 5424
5187 972
5187 1940
5187 2954
5187 5408
5188 968
5188 1925
5188 3031
5188 5495
5189 1014
5189 2031
5189 3063
5189 5456
5190 982
5190 1980
5190 2995
5190 5462
5191 958
5191 1963
5191 3059
5191 5467
5192 978
5192 1950
5192 2988
5192 5449
5193 1007
5193 1935
5193 3026
5193 5420
5194 986
5194 1943
5194 3016
5194 5423
5195 1023
5195 1949
5195 3035
5195 5451
5196 1011
5196 1984
5196 3000
5196 5428
5197 919
5197 1957
5197 3022
5197 5398
5198 902
5198 1985
5198 2971
5198 5488
5199 981
5199 2017
5199 3004
5199 5432
5200 979
5200 1992
5200 2996
5200 5446
5201 915
5201 2040
5201 2987
5201 5452
5202 1017
5202 1990
5202 2945
5202 5442
5203 932
5203 2023
5203 2962
5203 5441
5204 896
5204 2001
5204 2958
5204 5384
5205 1013
5205 1954
5205 3054
5205 5459
5206 967
5206 1951
5206 2986
5206 5407
5207 953
5207 2045
5207 3005
5207 5412
5208 1003
5208 1977
5208 3038
5208 5383
5209 989
5209 1962
5209 2976
5209 5438
5210 969
5210 1979
5210 2959
5210 5436
5211 900
5211 1967
5211 3032
5211 5499
5212 926
5212 1937
5212 3056
5212 5472
5213 959
5213 1929
5213 3060
5213 5410
5214 936
5214 2027
5214 2973
5214 5473
5215 935
5215 1922
5215 2964
5215 5481
5216 965
5216 1956
5216 3012
5216 5418
5217 1008
5217 2009
5217 2960
5217 5476
5218 922
5218 1993
5218 2944
5218 5440
5219 918
5219 1920
5219 3053
5219 5477
5220 904
5220 1930
5220 2997
5220 5461
5221 971
5221 2016
5221 3039
5221 5474
5222 930
5222 2036
5222 3001
5222 5421
5223 1004
5223 1973
5223 2977
5223 5395
5224 987
5224 1927
5224 3030
5224 5404
5225 1016
5225 1933
5225 2969
5225 5377
5226 942
5226 1932
5226 2970
5226 5470
5227 997
5227 1982
5227 3042
5227 5394
5228 1000
5228 1998
5228 2949
5228 5496
5229 933
5229 1996
5229 3071
5229 5455
5230 940
5230 2011
5230 3007
5230 5444
5231 995
5231 1976
5231 3002
5231 5437
5232 966
5232 1972
5232 3051
5232 5463
5233 996
5233 1952
5233 2978
5233 5386
5234 991
5234 2042
5234 3008
5234 5402
5235 1012
5235 2018
5235 2963
5235 5445
5236 993
5236 2038
5236 3061
5236 5426
5237 977
5237 1931
5237 3027
5237 5466
5238 1015
5238 1942
5238 3052
5238 5489
5239 950
5239 2014
5239 2968
5239 5378
5240 946
5240 2047
5240 2974
5240 5435
5241 937
5241 1938
5241 3062
5241 5429
5242 944
5242 2000
5242 3009
5242 5494
5243 990
5243 2029
5243 3057
5243 5419
5244 998
5244 2020
5244 2999
5244 5422
5245 963
5245 2035
5245 2990
5245 5439
5246 901
5246 1926
5246 3010
5246 5401
5247 1006
5247 1966
5247 2979
5247 5415
5248 1049
5248 2152
5248 3091
5248 5536
5249 1070
5249 2084
5249 3100
5249 5549
5250 1075
5250 2097
5250 3153
5250 5510
5251 1089
5251 2065
5251 3094
5251 5534
5252 1066
5252 2151
5252 3095
5252 5617
5253 1098
5253 2088
5253 3082
5253 5607
5254 1146
5254 2073
5254 3073
5254 5511
5255 1131
5255 2083
5255 3112
5255 5512
5256 1093
5256 2157
5256 3156
5256 5613
5257 1143
5257 2142
5257 3183
5257 5533
5258 1058
5258 2048
5258 3128
5258 5556
5259 1123
5259 2071
5259 3122
5259 5589
5260 1076
5260 2077
5260 3160
5260 5567
5261 1081
5261 2144
5261 3117
5261 5605
5262 1060
5262 2092
5262 3194
5262 5614
5263 1039
5263 2175
5263 3099
5263 5616
5264 1055
5264 2172
5264 3172
5264 5546
5265 1112
5265 2078
5265 3170
5265 5568
5266 1140
5266 2056
5266 3168
5266 5600
5267 1080
5267 2121
5267 3144
5267 5532
5268 1106
5268 2159
5268 3162
5268 5562
5269 1073
5269 2098
5269 3123
5269 5525
5270 1061
5270 2161
5270 3159
5270 5578
5271 1138
5271 2094
5271 3148
5271 5570
5272 1026
5272 2108
5272 3165
5272 5619
5273 1139
5273 2113
5273 3088
5273 5555
5274 1117
5274 2059
5274 3084
5274 5545
5275 1047
5275 2060
5275 3125
5275 5522
5276 1149
5276 2086
5276 3101
5276 5571
5277 1024
5277 2127
5277 3116
5277 5576
5278 1144
5278 2158
5278 3138
5278 5629
5279 1086
5279 2085
5279 3107
5279 5615
5280 1128
5280 2057
5280 3146
5280 5529
5281 1082
5281 2051
5281 3169
5281 5624
5282 1148
5282 2130
5282 3093
5282 5518
5283 1147
5283 2170
5283 3114
5283 5612
5284 1035
5284 2082
5284 3155
5284 5582
5285 1051
5285 2075
5285 3182
5285 5553
5286 1065
5286 2049
5286 3190
5286 5537
5287 1085
5287 2167
5287 3150
5287 5557
5288 1043
5288 2103
5288 3167
5288 5588
5289 1040
5289 2052
5289 3089
5289 5577
5290 1099
5290 2116
5290 3098
5290 5631
5291 1145
5291 2062
5291 3134
5291 5618
5292 1050
5292 2160
5292 3104
5292 5623
5293 1124
5293 2146
5293 3179
5293 5598
5294 1046
5294 2069
5294 3157
5294 5622
5295 1114
5295 2163
5295 3136
5295 5540
5296 1108
5296 2140
5296 3096
5296 5504
5297 1087
5297 2166
5297 3163
5297 5597
5298 1032
5298 2131
5298 3198
5298 5550
5299 1025
5299 2133
5299 3191
5299 5627
5300 1027
5300 2169
5300 3102
5300 5506
5301 1069
5301 2090
5301 3171
5301 5602
5302 1031
5302 2068
5302 3126
5302 5621
5303 1084
5303 2058
5303 3075
5303 5585
5304 1107
5304 2125
5304 3133
5304 5583
5305 1092
5305 2171
5305 3187
5305 5539
5306 1127
5306 2080
5306 3196
5306 5520
5307 1102
5307 2109
5307 3074
5307 5552
5308 1059
5308 2067
5308 3181
5308 5579
5309 1113
5309 2096
5309 3105
5309 5523
5310 1091
5310 2064
5310 3079
5310 5611
5311 1072
5311 2066
5311 3132
5311 5563
5312 1052
5312 2061
5312 3139
5312 5591
5313 1109
5313 2053
5313 3176
5313 5603
5314 1068
5314 2089
5314 3188
5314 5599
5315 1053
5315 2119
5315 3135
5315 5601
5316 1118
5316 2100
5316 3078
5316 5572
5317 1074
5317 2054
5317 3143
5317 5628
5318 1044
5318 2147
5318 3081
5318 5554
5319 1141
5319 2149
5319 3140
5319 5519
5320 1090
5320 2168
5320 3127
5320 5586
5321 1121
5321 2072
5321 3077
5321 5608
5322 1136
5322 2135
5322 3118
5322 5551
5323 1057
5323 2093
5323 3137
5323 5526
5324 1125
5324 2156
5324 3152
5324 5606
5325 1064
5325 2076
5325 3154
5325 5593
5326 1133
5326 2134
5326 3151
5326 5524
5327 1037
5327 2120
5327 3129
5327 5584
5328 1150
5328 2129
5328 3108
5328 5566
5329 1083
5329 2136
5329 3145
5329 5574
5330 1079
5330 2102
5330 3072
5330 5530
5331 1111
5331 2143
5331 3147
5331 5544
5332 1038
5332 2118
5332 3195
5332 5581
5333 1116
5333 2150
5333 3086
5333 5515
5334 1119
5334 2128
5334 3113
5334 5517
5335 1135
5335 2055
5335 3080
5335 5538
5336 1142
5336 2138
5336 3142
5336 5565
5337 1067
5337 2153
5337 3177
5337 5558
5338 1042
5338 2122
5338 3121
5338 5573
5339 1036
5339 2107
5339 3087
5339 5596
5340 1096
5340 2154
5340 3109
5340 5560
5341 1095
5341 2148
5341 3092
5341 5528
5342 1063
5342 2104
5342 3158
5342 5564
5343 1130
5343 2050
5343 3193
5343 5521
5344 1030
5344 2155
5344 3083
5344 5625
5345 1129
5345 2173
5345 3164
5345 5626
5346 1029
5346 2070
5346 3161
5346 5630
5347 1048
5347 2087
5347 3130
5347 5513
5348 1034
5348 2074
5348 3184
5348 5604
5349 1077
5349 2115
5349 3120
5349 5592
5350 1134
5350 2137
5350 3185
5350 5609
5351 1151
5351 2091
5351 3149
5351 5542
5352 1126
5352 2164
5352 3124
5352 5531
5353 1110
5353 2099
5353 3110
5353 5590
5354 1033
5354 2110
5354 3115
5354 5610
5355 1088
5355 2112
5355 3178
5355 5543
5356 1100
5356 2174
5356 3186
5356 5561
5357 1045
5357 2165
5357 3166
5357 5514
5358 1132
5358 2079
5358 3103
5358 5505
5359 1122
5359 2106
5359 3119
5359 5594
5360 1103
5360 2126
5360 3111
5360 5508
5361 1062
5361 2081
5361 3076
5361 5620
5362 1071
5362 2162
5362 3189
5362 5595
5363 1120
5363 2117
5363 3180
5363 5580
5364 1028
5364 2105
5364 3097
5364 5559
5365 1056
5365 2145
5365 3090
5365 5547
5366 1097
5366 2063
5366 3085
5366 5509
5367 1094
5367 2139
5367 3174
5367 5527
5368 1137
5368 2111
5368 3175
5368 5516
5369 1054
5369 2101
5369 3141
5369 5569
5370 1104
5370 2132
5370 3173
5370 5535
5371 1115
5371 2124
5371 3197
5371 5575
5372 1101
5372 2095
5372 3192
5372 5587
5373 1078
5373 2114
5373 3199
5373 5548
5374 1041
5374 2141
5374 3131
5374 5507
5375 1105
5375 2123
5375 3106
5375 5541
5376 1157
5376 2257
5376 3258
5376 4320
5377 1238
5377 2287
5377 3289
5377 4296
5378 1246
5378 2266
5378 3284
5378 4321
5379 1234
5379 2208
5379 3239
5379 4345
5380 1225
5380 2300
5380 3218
5380 4237
5381 1155
5381 2176
5381 3318
5381 4297
5382 1199
5382 2283
5382 3200
5382 4236
5383 1189
5383 2235
5383 3303
5383 4240
5384 1212
5384 2281
5384 3304
5384 4245
5385 1153
5385 2239
5385 3245
5385 4316
5386 1173
5386 2275
5386 3276
5386 4310
5387 1217
5387 2215
5387 3288
5387 4343
5388 1261
5388 2237
5388 3205
5388 4319
5389 1254
5389 2265
5389 3290
5389 4232
5390 1175
5390 2242
5390 3271
5390 4315
5391 1203
5391 2248
5391 3208
5391 4224
5392 1224
5392 2251
5392 3215
5392 4302
5393 1219
5393 2280
5393 3221
5393 4333
5394 1230
5394 2183
5394 3317
5394 4339
5395 1160
5395 2236
5395 3322
5395 4267
5396 1265
5396 2282
5396 3243
5396 4268
5397 1275
5397 2276
5397 3244
5397 4270
5398 1278
5398 2302
5398 3209
5398 4288
5399 1214
5399 2226
5399 3269
5399 4230
5400 1200
5400 2273
5400 3238
5400 4242
5401 1271
5401 2244
5401 3231
5401 4326
5402 1180
5402 2284
5402 3279
5402 4248
5403 1235
5403 2240
5403 3222
5403 4318
5404 1236
5404 2217
5404 3225
5404 4348
5405 1266
5405 2233
5405 3240
5405 4284
5406 1186
5406 2198
5406 3272
5406 4262
5407 1197
5407 2184
5407 3277
5407 4305
5408 1253
5408 2204
5408 3327
5408 4265
5409 1192
5409 2191
5409 3300
5409 4291
5410 1190
5410 2210
5410 3230
5410 4259
5411 1268
5411 2228
5411 3291
5411 4295
5412 1185
5412 2290
5412 3201
5412 4276
5413 1159
5413 2255
5413 3226
5413 4274
5414 1260
5414 2296
5414 3275
5414 4317
5415 1181
5415 2258
5415 3260
5415 4322
5416 1251
5416 2205
5416 3286
5416 4311
5417 1233
5417 2230
5417 3319
5417 4301
5418 1248
5418 2295
5418 3273
5418 4342
5419 1213
5419 2256
5419 3312
5419 4331
5420 1223
5420 2294
5420 3253
5420 4252
5421 1232
5421 2250
5421 3280
5421 4281
5422 1231
5422 2291
5422 3310
5422 4328
5423 1188
5423 2253
5423 3261
5423 4335
5424 1227
5424 2196
5424 3217
5424 4350
5425 1163
5425 2192
5425 3294
5425 4338
5426 1264
5426 2223
5426 3266
5426 4279
5427 1183
5427 2301
5427 3232
5427 4298
5428 1166
5428 2260
5428 3207
5428 4300
5429 1241
5429 2201
5429 3297
5429 4253
5430 1220
5430 2277
5430 3295
5430 4273
5431 1178
5431 2254
5431 3285
5431 4239
5432 1194
5432 2232
5432 3316
5432 4294
5433 1179
5433 2203
5433 3278
5433 4303
5434 1245
5434 2180
5434 3320
5434 4269
5435 1205
5435 2179
5435 3315
5435 4277
5436 1202
5436 2218
5436 3292
5436 4264
5437 1215
5437 2190
5437 3233
5437 4256
5438 1242
5438 2188
5438 3313
5438 4243
5439 1250
5439 2220
5439 3255
5439 4293
5440 1263
5440 2189
5440 3206
5440 4327
5441 1209
5441 2195
5441 3224
5441 4287
5442 1161
5442 2289
5442 3265
5442 4337
5443 1195
5443 2231
5443 3241
5443 4285
5444 1152
5444 2206
5444 3282
5444 4290
5445 1211
5445 2224
5445 3228
5445 4258
5446 1279
5446 2245
5446 3203
5446 4234
5447 1243
5447 2207
5447 3307
5447 4257
5448 1255
5448 2202
5448 3202
5448 4247
5449 1267
5449 2211
5449 3264
5449 4271
5450 1270
5450 2262
5450 3248
5450 4261
5451 1256
5451 2209
5451 3235
5451 4349
5452 1174
5452 2213
5452 3323
5452 4323
5453 1191
5453 2297
5453 3246
5453 4241
5454 1249
5454 2185
5454 3268
5454 4275
5455 1187
5455 2272
5455 3252
5455 4306
5456 1273
5456 2293
5456 3251
5456 4244
5457 1170
5457 2246
5457 3210
5457 4344
5458 1259
5458 2269
5458 3325
5458 4282
5459 1272
5459 2238
5459 3302
5459 4341
5460 1168
5460 2268
5460 3274
5460 4278
5461 1218
5461 2286
5461 3254
5461 4255
5462 1177
5462 2194
5462 3223
5462 4307
5463 1193
5463 2298
5463 3262
5463 4227
5464 1244
5464 2270
5464 3204
5464 4329
5465 1207
5465 2234
5465 3299
5465 4249
5466 1182
5466 2292
5466 3216
5466 4313
5467 1257
5467 2212
5467 3250
5467 4260
5468 1229
5468 2249
5468 3308
5468 4346
5469 1176
5469 2259
5469 3305
5469 4334
5470 1172
5470 2241
5470 3326
5470 4330
5471 1237
5471 2197
5471 3236
5471 4312
5472 1228
5472 2278
5472 3281
5472 4351
5473 1239
5473 2186
5473 3287
5473 4308
5474 1196
5474 2263
5474 3214
5474 4309
5475 1208
5475 2193
5475 3256
5475 4283
5476 1154
5476 2271
5476 3229
5476 4246
5477 1165
5477 2229
5477 3324
5477 4272
5478 1167
5478 2261
5478 3306
5478 4336
5479 1210
5479 2264
5479 3296
5479 4299
5480 1204
5480 2222
5480 3267
5480 4225
5481 1269
5481 2299
5481 3212
5481 4340
5482 1164
5482 2200
5482 3321
5482 4347
5483 1156
5483 2182
5483 3249
5483 4228
5484 1221
5484 2252
5484 3259
5484 4266
5485 1247
5485 2227
5485 3298
5485 4304
5486 1258
5486 2214
5486 3283
5486 4280
5487 1198
5487 2243
5487 3213
5487 4251
5488 1240
5488 2225
5488 3309
5488 4235
5489 1171
5489 2303
5489 3211
5489 4292
5490 1226
5490 2221
5490 3257
5490 4231
5491 1158
5491 2279
5491 3311
5491 4289
5492 1262
5492 2267
5492 3242
5492 4314
5493 1206
5493 2285
5493 3219
5493 4229
5494 1169
5494 2181
5494 3270
5494 4254
5495 1222
5495 2177
5495 3263
5495 4286
5496 1162
5496 2219
5496 3301
5496 4238
5497 1201
5497 2216
5497 3247
5497 4324
5498 1277
5498 2274
5498 3237
5498 4263
5499 1274
5499 2247
5499 3220
5499 4325
5500 1216
5500 2187
5500 3234
5500 4233
5501 1184
5501 2199
5501 3293
5501 4250
5502 1276
5502 2178
5502 3227
5502 4226
5503 1252
5503 2288
5503 3314
5503 4332
5504 1326
5504 2380
5504 3361
5504 4454
5505 1308
5505 2366
5505 3433
5505 4405
5506 1401
5506 2323
5506 3390
5506 4438
5507 1347
5507 2348
5507 3455
5507 4415
5508 1344
5508 2389
5508 3417
5508 4369
5509 1299
5509 2384
5509 3357
5509 4446
5510 1322
5510 2423
5510 3415
5510 4459
5511 1314
5511 2413
5511 3405
5511 4392
5512 1398
5512 2347
5512 3393
5512 4419
5513 1351
5513 2395
5513 3369
5513 4383
5514 1318
5514 2431
5514 3348
5514 4365
5515 1287
5515 2376
5515 3408
5515 4381
5516 1370
5516 2305
5516 3409
5516 4463
5517 1284
5517 2378
5517 3341
5517 4352
5518 1402
5518 2374
5518 3420
5518 4375
5519 1330
5519 2319
5519 3339
5519 4474
5520 1336
5520 2312
5520 3384
5520 4396
5521 1403
5521 2400
5521 3360
5521 4440
5522 1328
5522 2345
5522 3392
5522 4404
5523 1350
5523 2328
5523 3453
5523 4443
5524 1373
5524 2306
5524 3397
5524 4361
5525 1376
5525 2317
5525 3335
5525 4437
5526 1381
5526 2324
5526 3442
5526 4393
5527 1361
5527 2372
5527 3347
5527 4385
5528 1379
5528 2365
5528 3382
5528 4372
5529 1357
5529 2387
5529 3377
5529 4399
5530 1283
5530 2406
5530 3407
5530 4472
5531 1323
5531 2330
5531 3356
5531 4434
5532 1374
5532 2375
5532 3424
5532 4382
5533 1285
5533 2332
5533 3329
5533 4429
5534 1334
5534 2322
5534 3439
5534 4428
5535 1320
5535 2419
5535 3454
5535 4461
5536 1321
5536 2408
5536 3355
5536 4390
5537 1407
5537 2358
5537 3349
5537 4353
5538 1325
5538 2342
5538 3394
5538 4414
5539 1367
5539 2402
5539 3413
5539 4436
5540 1362
5540 2425
5540 3441
5540 4418
5541 1342
5541 2327
5541 3351
5541 4458
5542 1301
5542 2391
5542 3422
5542 4442
5543 1327
5543 2315
5543 3445
5543 4444
5544 1298
5544 2398
5544 3387
5544 4397
5545 1406
5545 2349
5545 3403
5545 4401
5546 1281
5546 2369
5546 3411
5546 4374
5547 1387
5547 2364
5547 3449
5547 4424
5548 1309
5548 2308
5548 3376
5548 4411
5549 1338
5549 2311
5549 3342
5549 4403
5550 1307
5550 2335
5550 3412
5550 4413
5551 1311
5551 2326
5551 3429
5551 4450
5552 1394
5552 2333
5552 3418
5552 4416
5553 1372
5553 2426
5553 3333
5553 4441
5554 1296
5554 2397
5554 3452
5554 4389
5555 1355
5555 2383
5555 3444
5555 4475
5556 1405
5556 2363
5556 3368
5556 4398
5557 1353
5557 2320
5557 3340
5557 4356
5558 1345
5558 2388
5558 3406
5558 4478
5559 1288
5559 2430
5559 3354
5559 4473
5560 1366
5560 2355
5560 3446
5560 4468
5561 1329
5561 2416
5561 3366
5561 4417
5562 1395
5562 2404
5562 3448
5562 4466
5563 1371
5563 2352
5563 3363
5563 4378
5564 1404
5564 2392
5564 3391
5564 4402
5565 1369
5565 2356
5565 3395
5565 4469
5566 1360
5566 2399
5566 3416
5566 4380
5567 1340
5567 2353
5567 3402
5567 4421
5568 1346
5568 2314
5568 3381
5568 4360
5569 1391
5569 2411
5569 3365
5569 4370
5570 1303
5570 2403
5570 3373
5570 4453
5571 1289
5571 2325
5571 3436
5571 4387
5572 1305
5572 2370
5572 3370
5572 4368
5573 1383
5573 2339
5573 3428
5573 4449
5574 1302
5574 2394
5574 3343
5574 4363
5575 1333
5575 2382
5575 3353
5575 4447
5576 1280
5576 2421
5576 3331
5576 4448
5577 1396
5577 2393
5577 3386
5577 4476
5578 1356
5578 2414
5578 3336
5578 4471
5579 1375
5579 2424
5579 3396
5579 4362
5580 1331
5580 2340
5580 3328
5580 4479
5581 1399
5581 2316
5581 3330
5581 4366
5582 1389
5582 2396
5582 3398
5582 4425
5583 1365
5583 2338
5583 3338
5583 4457
5584 1300
5584 2341
5584 3337
5584 4433
5585 1393
5585 2417
5585 3443
5585 4388
5586 1382
5586 2307
5586 3431
5586 4451
5587 1319
5587 2351
5587 3358
5587 4408
5588 1377
5588 2390
5588 3434
5588 4467
5589 1293
5589 2428
5589 3364
5589 4470
5590 1290
5590 2350
5590 3435
5590 4386
5591 1341
5591 2373
5591 3362
5591 4455
5592 1358
5592 2410
5592 3371
5592 4407
5593 1384
5593 2407
5593 3388
5593 4452
5594 1306
5594 2429
5594 3372
5594 4420
5595 1335
5595 2362
5595 3332
5595 4460
5596 1292
5596 2361
5596 3432
5596 4410
5597 1363
5597 2385
5597 3447
5597 4432
5598 1337
5598 2415
5598 3419
5598 4391
5599 1286
5599 2412
5599 3345
5599 4367
5600 1313
5600 2318
5600 3385
5600 4423
5601 1378
5601 2357
5601 3383
5601 4462
5602 1385
5602 2377
5602 3399
5602 4439
5603 1397
5603 2313
5603 3350
5603 4430
5604 1291
5604 2346
5604 3334
5604 4422
5605 1349
5605 2354
5605 3401
5605 4359
5606 1294
5606 2427
5606 3437
5606 4477
5607 1400
5607 2405
5607 3425
5607 4354
5608 1297
5608 2344
5608 3352
5608 4376
5609 1315
5609 2359
5609 3378
5609 4373
5610 1368
5610 2422
5610 3440
5610 4357
5611 1339
5611 2304
5611 3414
5611 4431
5612 1332
5612 2386
5612 3374
5612 4435
5613 1380
5613 2368
5613 3451
5613 4412
5614 1282
5614 2401
5614 3430
5614 4456
5615 1348
5615 2310
5615 3389
5615 4409
5616 1324
5616 2336
5616 3404
5616 4371
5617 1392
5617 2371
5617 3367
5617 4358
5618 1317
5618 2367
5618 3359
5618 4355
5619 1312
5619 2343
5619 3421
5619 4394
5620 1359
5620 2418
5620 3438
5620 4379
5621 1316
5621 2329
5621 3344
5621 4400
5622 1364
5622 2409
5622 3400
5622 4406
5623 1388
5623 2331
5623 3379
5623 4427
5624 1304
5624 2321
5624 3410
5624 4377
5625 1295
5625 2381
5625 3346
5625 4364
5626 1386
5626 2309
5626 3380
5626 4465
5627 1354
5627 2379
5627 3375
5627 4395
5628 1310
5628 2337
5628 3423
5628 4384
5629 1390
5629 2360
5629 3426
5629 4445
5630 1352
5630 2420
5630 3427
5630 4464
5631 1343
5631 2334
5631 3450
5631 4426
5632 9
5632 2321
5632 3321
5632 5568
5633 127
5633 2304
5633 3255
5633 5538
5634 57
5634 2329
5634 3204
5634 5547
5635 109
5635 2429
5635 3252
5635 5590
5636 26
5636 2371
5636 3308
5636 5630
5637 67
5637 2390
5637 3300
5637 5529
5638 94
5638 2400
5638 3313
5638 5540
5639 41
5639 2420
5639 3287
5639 5531
5640 21
5640 2364
5640 3311
5640 5625
5641 59
5641 2307
5641 3264
5641 5581
5642 11
5642 2342
5642 3299
5642 5580
5643 112
5643 2381
5643 3257
5643 5545
5644 35
5644 2315
5644 3271
5644 5602
5645 56
5645 2412
5645 3230
5645 5588
5646 86
5646 2345
5646 3265
5646 5595
5647 114
5647 2416
5647 3250
5647 5606
5648 78
5648 2427
5648 3213
5648 5619
5649 76
5649 2333
5649 3319
5649 5629
5650 61
5650 2388
5650 3243
5650 5610
5651 28
5651 2350
5651 3327
5651 5551
5652 31
5652 2343
5652 3274
5652 5562
5653 48
5653 2359
5653 3281
5653 5586
5654 50
5654 2365
5654 3266
5654 5599
5655 43
5655 2330
5655 3254
5655 5611
5656 29
5656 2337
5656 3237
5656 5535
5657 13
5657 2408
5657 3276
5657 5614
5658 73
5658 2417
5658 3221
5658 5516
5659 1
5659 2383
5659 3305
5659 5530
5660 101
5660 2338
5660 3301
5660 5596
5661 98
5661 2328
5661 3239
5661 5608
5662 38
5662 2322
5662 3202
5662 5542
5663 108
5663 2397
5663 3241
5663 5613
5664 107
5664 2325
5664 3310
5664 5506
5665 80
5665 2366
5665 3218
5665 5578
5666 58
5666 2425
5666 3269
5666 5554
5667 72
5667 2372
5667 3282
5667 5575
5668 45
5668 2392
5668 3231
5668 5508
5669 65
5669 2370
5669 3258
5669 5514
5670 102
5670 2415
5670 3293
5670 5550
5671 5
5671 2363
5671 3236
5671 5607
5672 96
5672 2346
5672 3296
5672 5591
5673 99
5673 2423
5673 3240
5673 5509
5674 113
5674 2395
5674 3306
5674 5576
5675 90
5675 2378
5675 3280
5675 5526
5676 40
5676 2380
5676 3207
5676 5584
5677 36
5677 2386
5677 3249
5677 5517
5678 4
5678 2305
5678 3245
5678 5573
5679 51
5679 2318
5679 3247
5679 5620
5680 89
5680 2406
5680 3286
5680 5507
5681 10
5681 2309
5681 3223
5681 5571
5682 75
5682 2369
5682 3206
5682 5553
5683 69
5683 2399
5683 3268
5683 5621
5684 77
5684 2414
5684 3244
5684 5616
5685 20
5685 2314
5685 3285
5685 5572
5686 87
5686 2358
5686 3246
5686 5536
5687 70
5687 2351
5687 3222
5687 5539
5688 60
5688 2398
5688 3315
5688 5558
5689 15
5689 2373
5689 3251
5689 5600
5690 12
5690 2407
5690 3261
5690 5525
5691 18
5691 2374
5691 3279
5691 5631
5692 126
5692 2375
5692 3224
5692 5570
5693 39
5693 2353
5693 3307
5693 5549
5694 106
5694 2368
5694 3278
5694 5523
5695 125
5695 2335
5695 3303
5695 5583
5696 116
5696 2376
5696 3325
5696 5579
5697 111
5697 2344
5697 3208
5697 5628
5698 24
5698 2426
5698 3295
5698 5513
5699 123
5699 2341
5699 3290
5699 5518
5700 119
5700 2411
5700 3200
5700 5556
5701 83
5701 2312
5701 3256
5701 5597
5702 100
5702 2402
5702 3215
5702 5604
5703 54
5703 2356
5703 3272
5703 5589
5704 47
5704 2410
5704 3203
5704 5603
5705 103
5705 2313
5705 3320
5705 5552
5706 82
5706 2394
5706 3242
5706 5557
5707 122
5707 2384
5707 3205
5707 5587
5708 71
5708 2418
5708 3216
5708 5541
5709 97
5709 2367
5709 3263
5709 5627
5710 105
5710 2326
5710 3312
5710 5511
5711 64
5711 2385
5711 3326
5711 5592
5712 104
5712 2317
5712 3288
5712 5521
5713 92
5713 2308
5713 3317
5713 5524
5714 52
5714 2382
5714 3228
5714 5534
5715 91
5715 2331
5715 3229
5715 5537
5716 49
5716 2393
5716 3238
5716 5563
5717 95
5717 2355
5717 3227
5717 5515
5718 66
5718 2377
5718 3304
5718 5566
5719 120
5719 2360
5719 3297
5719 5532
5720 46
5720 2334
5720 3314
5720 5560
5721 74
5721 2401
5721 3214
5721 5505
5722 63
5722 2323
5722 3322
5722 5548
5723 25
5723 2413
5723 3316
5723 5546
5724 17
5724 2320
5724 3324
5724 5594
5725 84
5725 2431
5725 3225
5725 5519
5726 62
5726 2357
5726 3253
5726 5617
5727 68
5727 2387
5727 3289
5727 5601
5728 44
5728 2340
5728 3209
5728 5512
5729 93
5729 2332
5729 3219
5729 5520
5730 19
5730 2396
5730 3277
5730 5609
5731 22
5731 2336
5731 3232
5731 5612
5732 7
5732 2361
5732 3233
5732 5543
5733 8
5733 2424
5733 3294
5733 5577
5734 32
5734 2311
5734 3267
5734 5565
5735 121
5735 2421
5735 3298
5735 5582
5736 124
5736 2419
5736 3309
5736 5622
5737 30
5737 2306
5737 3201
5737 5605
5738 6
5738 2362
5738 3217
5738 5569
5739 85
5739 2404
5739 3273
5739 5544
5740 0
5740 2310
5740 3262
5740 5561
5741 34
5741 2389
5741 3270
5741 5522
5742 88
5742 2422
5742 3283
5742 5598
5743 33
5743 2405
5743 3234
5743 5504
5744 115
5744 2430
5744 3275
5744 5528
5745 14
5745 2327
5745 3259
5745 5564
5746 16
5746 2339
5746 3291
5746 5585
5747 42
5747 2403
5747 3284
5747 5555
5748 81
5748 2316
5748 3220
5748 5615
5749 3
5749 2324
5749 3318
5749 5510
5750 2
5750 2391
5750 3211
5750 5533
5751 53
5751 2349
5751 3210
5751 5593
5752 110
5752 2319
5752 3235
5752 5618
5753 55
5753 2352
5753 3212
5753 5527
5754 37
5754 2354
5754 3323
5754 5624
5755 118
5755 2379
5755 3292
5755 5623
5756 79
5756 2409
5756 3226
5756 5626
5757 27
5757 2347
5757 3260
5757 5559
5758 117
5758 2428
5758 3302
5758 5567
5759 23
5759 2348
5759 3248
5759 5574
5760 185
5760 2479
5760 3376
5760 4344
5761 183
5761 2505
5761 3385
5761 4271
5762 247
5762 2553
5762 3370
5762 4224
5763 215
5763 2433
5763 3453
5763 4261
5764 134
5764 2540
5764 3361
5764 4246
5765 148
5765 2521
5765 3374
5765 4333
5766 158
5766 2450
5766 3440
5766 4254
5767 201
5767 2456
5767 3410
5767 4326
5768 229
5768 2471
5768 3335
5768 4316
5769 149
5769 2525
5769 3399
5769 4339
5770 169
5770 2449
5770 3421
5770 4286
5771 195
5771 2494
5771 3425
5771 4256
5772 143
5772 2439
5772 3395
5772 4342
5773 246
5773 2538
5773 3448
5773 4319
5774 237
5774 2547
5774 3388
5774 4348
5775 222
5775 2534
5775 3432
5775 4251
5776 180
5776 2542
5776 3428
5776 4301
5777 242
5777 2537
5777 3408
5777 4252
5778 172
5778 2557
5778 3390
5778 4279
5779 240
5779 2473
5779 3364
5779 4285
5780 253
5780 2527
5780 3340
5780 4225
5781 141
5781 2478
5781 3354
5781 4345
5782 239
5782 2444
5782 3349
5782 4312
5783 138
5783 2470
5783 3359
5783 4226
5784 181
5784 2475
5784 3384
5784 4314
5785 245
5785 2481
5785 3434
5785 4304
5786 147
5786 2460
5786 3369
5786 4324
5787 252
5787 2483
5787 3436
5787 4244
5788 189
5788 2554
5788 3411
5788 4236
5789 136
5789 2435
5789 3430
5789 4297
5790 131
5790 2528
5790 3372
5790 4273
5791 157
5791 2545
5791 3447
5791 4310
5792 154
5792 2524
5792 3338
5792 4228
5793 216
5793 2509
5793 3443
5793 4321
5794 249
5794 2492
5794 3449
5794 4269
5795 203
5795 2459
5795 3379
5795 4306
5796 130
5796 2516
5796 3407
5796 4322
5797 167
5797 2452
5797 3355
5797 4351
5798 202
5798 2476
5798 3423
5798 4275
5799 168
5799 2550
5799 3333
5799 4284
5800 175
5800 2498
5800 3413
5800 4277
5801 155
5801 2462
5801 3386
5801 4313
5802 225
5802 2491
5802 3383
5802 4341
5803 233
5803 2477
5803 3419
5803 4239
5804 151
5804 2468
5804 3439
5804 4331
5805 255
5805 2517
5805 3404
5805 4308
5806 140
5806 2506
5806 3339
5806 4247
5807 227
5807 2515
5807 3357
5807 4280
5808 244
5808 2541
5808 3347
5808 4346
5809 153
5809 2559
5809 3416
5809 4334
5810 164
5810 2501
5810 3438
5810 4278
5811 166
5811 2453
5811 3422
5811 4266
5812 220
5812 2442
5812 3348
5812 4243
5813 192
5813 2480
5813 3437
5813 4229
5814 137
5814 2457
5814 3375
5814 4317
5815 210
5815 2532
5815 3427
5815 4300
5816 212
5816 2445
5816 3396
5816 4248
5817 170
5817 2454
5817 3412
5817 4349
5818 193
5818 2513
5818 3351
5818 4238
5819 205
5819 2447
5819 3330
5819 4270
5820 145
5820 2486
5820 3346
5820 4235
5821 221
5821 2549
5821 3373
5821 4268
5822 162
5822 2472
5822 3337
5822 4318
5823 161
5823 2500
5823 3446
5823 4294
5824 128
5824 2529
5824 3393
5824 4288
5825 208
5825 2503
5825 3380
5825 4291
5826 198
5826 2533
5826 3405
5826 4332
5827 188
5827 2510
5827 3378
5827 4263
5828 211
5828 2502
5828 3387
5828 4264
5829 163
5829 2551
5829 3442
5829 4232
5830 142
5830 2511
5830 3344
5830 4255
5831 243
5831 2484
5831 3435
5831 4283
5832 197
5832 2464
5832 3329
5832 4293
5833 184
5833 2438
5833 3398
5833 4287
5834 179
5834 2531
5834 3403
5834 4299
5835 213
5835 2519
5835 3414
5835 4290
5836 146
5836 2487
5836 3415
5836 4327
5837 191
5837 2514
5837 3394
5837 4305
5838 190
5838 2461
5838 3424
5838 4259
5839 156
5839 2555
5839 3362
5839 4249
5840 234
5840 2536
5840 3431
5840 4302
5841 177
5841 2436
5841 3368
5841 4233
5842 187
5842 2488
5842 3417
5842 4338
5843 228
5843 2432
5843 3366
5843 4303
5844 186
5844 2530
5844 3352
5844 4340
5845 251
5845 2437
5845 3391
5845 4329
5846 196
5846 2495
5846 3345
5846 4253
5847 235
5847 2508
5847 3420
5847 4350
5848 199
5848 2552
5848 3451
5848 4343
5849 254
5849 2467
5849 3356
5849 4276
5850 133
5850 2466
5850 3367
5850 4260
5851 207
5851 2446
5851 3429
5851 4250
5852 219
5852 2512
5852 3343
5852 4325
5853 152
5853 2548
5853 3353
5853 4347
5854 135
5854 2558
5854 3350
5854 4245
5855 230
5855 2455
5855 3381
5855 4272
5856 182
5856 2465
5856 3400
5856 4241
5857 217
5857 2469
5857 3336
5857 4298
5858 232
5858 2496
5858 3360
5858 4265
5859 176
5859 2443
5859 3402
5859 4311
5860 129
5860 2493
5860 3406
5860 4234
5861 231
5861 2434
5861 3358
5861 4274
5862 200
5862 2497
5862 3328
5862 4315
5863 194
5863 2448
5863 3342
5863 4335
5864 165
5864 2518
5864 3433
5864 4323
5865 173
5865 2451
5865 3341
5865 4336
5866 238
5866 2482
5866 3389
5866 4258
5867 250
5867 2543
5867 3445
5867 4289
5868 174
5868 2535
5868 3454
5868 4309
5869 226
5869 2489
5869 3401
5869 4257
5870 160
5870 2522
5870 3418
5870 4281
5871 214
5871 2499
5871 3441
5871 4320
5872 178
5872 2463
5872 3392
5872 4230
5873 139
5873 2458
5873 3455
5873 4227
5874 224
5874 2441
5874 3365
5874 4262
5875 241
5875 2539
5875 3409
5875 4295
5876 206
5876 2440
5876 3444
5876 4292
5877 171
5877 2523
5877 3377
5877 4242
5878 132
5878 2474
5878 3426
5878 4337
5879 236
5879 2544
5879 3382
5879 4296
5880 150
5880 2490
5880 3363
5880 4307
5881 223
5881 2507
5881 3331
5881 4282
5882 248
5882 2526
5882 3334
5882 4328
5883 144
5883 2520
5883 3371
5883 4330
5884 159
5884 2504
5884 3450
5884 4237
5885 218
5885 2556
5885 3397
5885 4231
5886 209
5886 2546
5886 3452
5886 4240
5887 204
5887 2485
5887 3332
5887 4267
5888 345
5888 2673
5888 3538
5888 4450
5889 300
5889 2645
5889 3560
5889 4408
5890 368
5890 2626
5890 3504
5890 4462
5891 318
5891 2630
5891 3509
5891 4478
5892 256
5892 2683
5892 3553
5892 4428
5893 277
5893 2650
5893 3541
5893 4423
5894 271
5894 2664
5894 3460
5894 4360
5895 304
5895 2674
5895 3551
5895 4371
5896 336
5896 2656
5896 3475
5896 4437
5897 355
5897 2631
5897 3524
5897 4364
5898 263
5898 2679
5898 3477
5898 4376
5899 291
5899 2606
5899 3488
5899 4419
5900 369
5900 2597
5900 3578
5900 4440
5901 352
5901 2685
5901 3570
5901 4416
5902 278
5902 2615
5902 3474
5902 4385
5903 370
5903 2660
5903 3531
5903 4475
5904 267
5904 2574
5904 3513
5904 4352
5905 301
5905 2584
5905 3580
5905 4391
5906 282
5906 2657
5906 3481
5906 4392
5907 366
5907 2665
5907 3457
5907 4377
5908 375
5908 2618
5908 3472
5908 4410
5909 299
5909 2589
5909 3583
5909 4422
5910 341
5910 2573
5910 3555
5910 4445
5911 280
5911 2619
5911 3575
5911 4393
5912 312
5912 2609
5912 3495
5912 4353
5913 339
5913 2567
5913 3550
5913 4468
5914 329
5914 2661
5914 3507
5914 4367
5915 322
5915 2644
5915 3468
5915 4358
5916 308
5916 2651
5916 3519
5916 4460
5917 362
5917 2637
5917 3563
5917 4369
5918 307
5918 2598
5918 3548
5918 4411
5919 257
5919 2646
5919 3546
5919 4435
5920 313
5920 2639
5920 3557
5920 4461
5921 295
5921 2663
5921 3521
5921 4436
5922 323
5922 2605
5922 3559
5922 4443
5923 350
5923 2569
5923 3558
5923 4403
5924 315
5924 2595
5924 3485
5924 4394
5925 270
5925 2658
5925 3517
5925 4470
5926 377
5926 2579
5926 3520
5926 4413
5927 265
5927 2668
5927 3545
5927 4448
5928 260
5928 2666
5928 3522
5928 4395
5929 363
5929 2583
5929 3489
5929 4407
5930 346
5930 2634
5930 3579
5930 4386
5931 326
5931 2570
5931 3480
5931 4405
5932 319
5932 2670
5932 3533
5932 4414
5933 288
5933 2628
5933 3512
5933 4455
5934 302
5934 2648
5934 3567
5934 4383
5935 320
5935 2588
5935 3470
5935 4457
5936 287
5936 2642
5936 3535
5936 4444
5937 303
5937 2676
5937 3537
5937 4417
5938 382
5938 2590
5938 3544
5938 4398
5939 376
5939 2681
5939 3500
5939 4471
5940 340
5940 2682
5940 3473
5940 4469
5941 259
5941 2675
5941 3501
5941 4412
5942 294
5942 2611
5942 3494
5942 4424
5943 331
5943 2669
5943 3466
5943 4442
5944 357
5944 2655
5944 3461
5944 4458
5945 314
5945 2652
5945 3486
5945 4388
5946 327
5946 2581
5946 3505
5946 4474
5947 293
5947 2594
5947 3540
5947 4459
5948 367
5948 2653
5948 3459
5948 4425
5949 281
5949 2571
5949 3456
5949 4374
5950 290
5950 2578
5950 3576
5950 4476
5951 264
5951 2638
5951 3506
5951 4430
5952 258
5952 2667
5952 3552
5952 4401
5953 343
5953 2621
5953 3569
5953 4361
5954 283
5954 2602
5954 3566
5954 4381
5955 356
5955 2627
5955 3462
5955 4366
5956 373
5956 2629
5956 3518
5956 4432
5957 268
5957 2680
5957 3539
5957 4427
5958 310
5958 2641
5958 3503
5958 4396
5959 338
5959 2672
5959 3482
5959 4378
5960 364
5960 2612
5960 3577
5960 4372
5961 359
5961 2599
5961 3572
5961 4452
5962 361
5962 2607
5962 3529
5962 4355
5963 374
5963 2616
5963 3543
5963 4429
5964 317
5964 2565
5964 3491
5964 4421
5965 337
5965 2614
5965 3528
5965 4472
5966 372
5966 2592
5966 3499
5966 4420
5967 347
5967 2593
5967 3508
5967 4439
5968 316
5968 2632
5968 3471
5968 4426
5969 279
5969 2572
5969 3526
5969 4434
5970 328
5970 2677
5970 3502
5970 4456
5971 292
5971 2560
5971 3483
5971 4359
5972 306
5972 2563
5972 3510
5972 4399
5973 289
5973 2659
5973 3479
5973 4400
5974 371
5974 2585
5974 3484
5974 4406
5975 325
5975 2582
5975 3581
5975 4373
5976 383
5976 2625
5976 3565
5976 4431
5977 311
5977 2608
5977 3476
5977 4473
5978 379
5978 2662
5978 3467
5978 4454
5979 335
5979 2600
5979 3514
5979 4370
5980 358
5980 2604
5980 3515
5980 4446
5981 266
5981 2591
5981 3542
5981 4463
5982 285
5982 2577
5982 3534
5982 4464
5983 344
5983 2623
5983 3525
5983 4354
5984 273
5984 2601
5984 3523
5984 4379
5985 360
5985 2610
5985 3469
5985 4447
5986 286
5986 2568
5986 3536
5986 4453
5987 378
5987 2564
5987 3530
5987 4356
5988 342
5988 2613
5988 3487
5988 4466
5989 269
5989 2684
5989 3556
5989 4433
5990 351
5990 2562
5990 3554
5990 4402
5991 284
5991 2678
5991 3498
5991 4397
5992 381
5992 2635
5992 3496
5992 4418
5993 332
5993 2596
5993 3516
5993 4357
5994 324
5994 2586
5994 3547
5994 4465
5995 262
5995 2640
5995 3490
5995 4363
5996 276
5996 2561
5996 3497
5996 4365
5997 349
5997 2686
5997 3463
5997 4477
5998 330
5998 2636
5998 3571
5998 4438
5999 334
5999 2624
5999 3465
5999 4390
6000 296
6000 2643
6000 3458
6000 4409
6001 297
6001 2576
6001 3573
6001 4415
6002 333
6002 2575
6002 3478
6002 4479
6003 261
6003 2671
6003 3511
6003 4451
6004 298
6004 2580
6004 3549
6004 4362
6005 274
6005 2566
6005 3527
6005 4404
6006 309
6006 2654
6006 3568
6006 4384
6007 354
6007 2622
6007 3561
6007 4380
6008 305
6008 2647
6008 3464
6008 4368
6009 380
6009 2633
6009 3493
6009 4467
6010 275
6010 2587
6010 3574
6010 4389
6011 321
6011 2620
6011 3492
6011 4382
6012 365
6012 2617
6012 3564
6012 4449
6013 353
6013 2649
6013 3532
6013 4387
6014 348
6014 2687
6014 3582
6014 4375
6015 272
6015 2603
6015 3562
6015 4441
6016 502
6016 2763
6016 3622
6016 4526
6017 429
6017 2748
6017 3625
6017 4504
6018 401
6018 2767
6018 3701
6018 4531
6019 405
6019 2730
6019 3691
6019 4570
6020 498
6020 2803
6020 3627
6020 4551
6021 482
6021 2764
6021 3603
6021 4605
6022 402
6022 2739
6022 3612
6022 4545
6023 411
6023 2740
6023 3614
6023 4485
6024 508
6024 2733
6024 3656
6024 4499
6025 444
6025 2691
6025 3711
6025 4487
6026 480
6026 2692
6026 3705
6026 4547
6027 420
6027 2732
6027 3616
6027 4480
6028 475
6028 2810
6028 3692
6028 4607
6029 504
6029 2726
6029 3655
6029 4508
6030 426
6030 2798
6030 3631
6030 4506
6031 439
6031 2785
6031 3678
6031 4537
6032 398
6032 2736
6032 3596
6032 4543
6033 495
6033 2791
6033 3595
6033 4533
6034 388
6034 2805
6034 3657
6034 4492
6035 484
6035 2759
6035 3610
6035 4521
6036 459
6036 2743
6036 3634
6036 4490
6037 486
6037 2771
6037 3591
6037 4573
6038 447
6038 2709
6038 3618
6038 4606
6039 442
6039 2713
6039 3586
6039 4601
6040 441
6040 2714
6040 3585
6040 4512
6041 465
6041 2688
6041 3659
6041 4550
6042 418
6042 2700
6042 3690
6042 4518
6043 452
6043 2806
6043 3613
6043 4548
6044 410
6044 2716
6044 3598
6044 4535
6045 493
6045 2695
6045 3619
6045 4483
6046 393
6046 2696
6046 3688
6046 4561
6047 500
6047 2788
6047 3649
6047 4565
6048 438
6048 2708
6048 3604
6048 4513
6049 467
6049 2754
6049 3681
6049 4588
6050 506
6050 2813
6050 3600
6050 4591
6051 469
6051 2693
6051 3637
6051 4524
6052 448
6052 2712
6052 3703
6052 4555
6053 473
6053 2782
6053 3654
6053 4562
6054 419
6054 2768
6054 3672
6054 4542
6055 466
6055 2765
6055 3661
6055 4505
6056 427
6056 2772
6056 3587
6056 4510
6057 392
6057 2721
6057 3687
6057 4511
6058 424
6058 2758
6058 3644
6058 4544
6059 499
6059 2769
6059 3704
6059 4603
6060 477
6060 2738
6060 3698
6060 4559
6061 462
6061 2777
6061 3664
6061 4534
6062 483
6062 2778
6062 3606
6062 4602
6063 387
6063 2753
6063 3651
6063 4530
6064 510
6064 2789
6064 3588
6064 4481
6065 470
6065 2722
6065 3647
6065 4515
6066 428
6066 2706
6066 3660
6066 4576
6067 471
6067 2729
6067 3601
6067 4585
6068 386
6068 2811
6068 3608
6068 4520
6069 494
6069 2783
6069 3671
6069 4549
6070 434
6070 2723
6070 3696
6070 4582
6071 430
6071 2697
6071 3590
6071 4583
6072 400
6072 2795
6072 3694
6072 4501
6073 416
6073 2724
6073 3689
6073 4502
6074 505
6074 2701
6074 3684
6074 4552
6075 446
6075 2781
6075 3630
6075 4595
6076 408
6076 2784
6076 3645
6076 4566
6077 488
6077 2731
6077 3685
6077 4491
6078 445
6078 2802
6078 3607
6078 4494
6079 425
6079 2790
6079 3602
6079 4592
6080 413
6080 2746
6080 3682
6080 4497
6081 397
6081 2741
6081 3699
6081 4536
6082 399
6082 2814
6082 3665
6082 4522
6083 421
6083 2728
6083 3686
6083 4590
6084 440
6084 2734
6084 3679
6084 4486
6085 455
6085 2725
6085 3584
6085 4558
6086 468
6086 2799
6086 3648
6086 4593
6087 384
6087 2761
6087 3620
6087 4539
6088 451
6088 2720
6088 3670
6088 4575
6089 511
6089 2776
6089 3642
6089 4578
6090 385
6090 2773
6090 3709
6090 4571
6091 423
6091 2774
6091 3633
6091 4523
6092 432
6092 2815
6092 3615
6092 4584
6093 435
6093 2766
6093 3669
6093 4598
6094 461
6094 2718
6094 3641
6094 4527
6095 436
6095 2710
6095 3668
6095 4519
6096 476
6096 2797
6096 3693
6096 4604
6097 479
6097 2751
6097 3652
6097 4482
6098 443
6098 2762
6098 3636
6098 4569
6099 478
6099 2703
6099 3707
6099 4489
6100 487
6100 2737
6100 3667
6100 4516
6101 481
6101 2804
6101 3638
6101 4564
6102 464
6102 2779
6102 3640
6102 4554
6103 433
6103 2750
6103 3621
6103 4496
6104 412
6104 2757
6104 3677
6104 4557
6105 490
6105 2786
6105 3710
6105 4495
6106 491
6106 2807
6106 3653
6106 4484
6107 460
6107 2715
6107 3611
6107 4540
6108 507
6108 2794
6108 3609
6108 4553
6109 409
6109 2770
6109 3624
6109 4509
6110 389
6110 2800
6110 3594
6110 4596
6111 394
6111 2744
6111 3643
6111 4541
6112 489
6112 2793
6112 3702
6112 4560
6113 497
6113 2698
6113 3623
6113 4594
6114 501
6114 2809
6114 3632
6114 4568
6115 453
6115 2727
6115 3599
6115 4581
6116 390
6116 2742
6116 3658
6116 4546
6117 485
6117 2775
6117 3650
6117 4597
6118 456
6118 2747
6118 3666
6118 4500
6119 463
6119 2711
6119 3697
6119 4529
6120 474
6120 2689
6120 3676
6120 4488
6121 454
6121 2745
6121 3605
6121 4587
6122 404
6122 2756
6122 3635
6122 4525
6123 403
6123 2690
6123 3597
6123 4586
6124 449
6124 2749
6124 3706
6124 4600
6125 406
6125 2705
6125 3617
6125 4493
6126 472
6126 2787
6126 3646
6126 4574
6127 391
6127 2792
6127 3675
6127 4580
6128 415
6128 2808
6128 3680
6128 4532
6129 492
6129 2760
6129 3663
6129 4567
6130 503
6130 2704
6130 3629
6130 4498
6131 496
6131 2694
6131 3592
6131 4599
6132 437
6132 2801
6132 3674
6132 4589
6133 422
6133 2755
6133 3628
6133 4556
6134 407
6134 2812
6134 3639
6134 4528
6135 431
6135 2702
6135 3695
6135 4579
6136 457
6136 2735
6136 3593
6136 4563
6137 396
6137 2752
6137 3673
6137 4572
6138 509
6138 2707
6138 3708
6138 4577
6139 458
6139 2719
6139 3662
6139 4538
6140 450
6140 2699
6140 3683
6140 4503
6141 414
6141 2796
6141 3589
6141 4514
6142 417
6142 2780
6142 3626
6142 4517
6143 395
6143 2717
6143 3700
6143 4507
6144 564
6144 1527
6144 3722
6144 4722
6145 515
6145 1523
6145 3720
6145 4729
6146 538
6146 1500
6146 3742
6146 4655
6147 621
6147 1413
6147 3736
6147 4665
6148 595
6148 1419
6148 3758
6148 4686
6149 537
6149 1444
6149 3790
6149 4662
6150 546
6150 1521
6150 3754
6150 4668
6151 560
6151 1460
6151 3765
6151 4670
6152 539
6152 1497
6152 3837
6152 4678
6153 525
6153 1471
6153 3810
6153 4643
6154 593
6154 1476
6154 3730
6154 4683
6155 519
6155 1416
6155 3797
6155 4701
6156 578
6156 1455
6156 3839
6156 4618
6157 600
6157 1470
6157 3798
6157 4658
6158 551
6158 1488
6158 3819
6158 4688
6159 606
6159 1514
6159 3836
6159 4676
6160 533
6160 1493
6160 3729
6160 4709
6161 611
6161 1505
6161 3793
6161 4702
6162 549
6162 1468
6162 3787
6162 4671
6163 580
6163 1427
6163 3750
6163 4631
6164 575
6164 1439
6164 3780
6164 4667
6165 594
6165 1484
6165 3718
6165 4660
6166 557
6166 1499
6166 3763
6166 4614
6167 516
6167 1466
6167 3724
6167 4621
6168 522
6168 1469
6168 3838
6168 4694
6169 639
6169 1415
6169 3801
6169 4648
6170 602
6170 1532
6170 3745
6170 4654
6171 636
6171 1518
6171 3803
6171 4734
6172 517
6172 1502
6172 3832
6172 4728
6173 554
6173 1464
6173 3743
6173 4636
6174 570
6174 1448
6174 3771
6174 4615
6175 618
6175 1491
6175 3791
6175 4637
6176 534
6176 1410
6176 3818
6176 4623
6177 605
6177 1442
6177 3788
6177 4672
6178 619
6178 1434
6178 3807
6178 4674
6179 573
6179 1498
6179 3760
6179 4720
6180 536
6180 1457
6180 3821
6180 4719
6181 586
6181 1450
6181 3782
6181 4644
6182 603
6182 1477
6182 3767
6182 4703
6183 622
6183 1426
6183 3777
6183 4721
6184 587
6184 1510
6184 3770
6184 4692
6185 585
6185 1432
6185 3756
6185 4612
6186 543
6186 1467
6186 3835
6186 4624
6187 633
6187 1515
6187 3766
6187 4687
6188 637
6188 1436
6188 3817
6188 4664
6189 617
6189 1454
6189 3814
6189 4732
6190 630
6190 1531
6190 3805
6190 4680
6191 612
6191 1431
6191 3785
6191 4696
6192 584
6192 1526
6192 3833
6192 4608
6193 558
6193 1517
6193 3800
6193 4622
6194 607
6194 1420
6194 3813
6194 4684
6195 623
6195 1524
6195 3786
6195 4650
6196 547
6196 1456
6196 3751
6196 4711
6197 530
6197 1489
6197 3781
6197 4716
6198 583
6198 1506
6198 3806
6198 4651
6199 524
6199 1530
6199 3802
6199 4714
6200 599
6200 1520
6200 3779
6200 4653
6201 571
6201 1490
6201 3715
6201 4613
6202 527
6202 1411
6202 3830
6202 4730
6203 545
6203 1418
6203 3768
6203 4669
6204 563
6204 1522
6204 3816
6204 4727
6205 512
6205 1443
6205 3744
6205 4620
6206 632
6206 1525
6206 3755
6206 4646
6207 555
6207 1412
6207 3795
6207 4731
6208 569
6208 1430
6208 3714
6208 4647
6209 609
6209 1429
6209 3761
6209 4715
6210 588
6210 1496
6210 3796
6210 4717
6211 572
6211 1422
6211 3732
6211 4713
6212 548
6212 1473
6212 3799
6212 4726
6213 598
6213 1492
6213 3822
6213 4656
6214 565
6214 1458
6214 3783
6214 4635
6215 579
6215 1453
6215 3823
6215 4652
6216 576
6216 1533
6216 3735
6216 4677
6217 532
6217 1494
6217 3789
6217 4712
6218 608
6218 1535
6218 3769
6218 4682
6219 568
6219 1423
6219 3825
6219 4695
6220 561
6220 1516
6220 3738
6220 4626
6221 592
6221 1486
6221 3820
6221 4627
6222 614
6222 1528
6222 3784
6222 4633
6223 627
6223 1480
6223 3749
6223 4661
6224 625
6224 1421
6224 3739
6224 4675
6225 540
6225 1504
6225 3794
6225 4616
6226 523
6226 1534
6226 3831
6226 4663
6227 610
6227 1461
6227 3776
6227 4659
6228 631
6228 1508
6228 3753
6228 4735
6229 601
6229 1440
6229 3716
6229 4679
6230 616
6230 1459
6230 3808
6230 4691
6231 552
6231 1495
6231 3733
6231 4733
6232 542
6232 1472
6232 3772
6232 4693
6233 529
6233 1501
6233 3741
6233 4638
6234 541
6234 1446
6234 3824
6234 4689
6235 521
6235 1408
6235 3746
6235 4725
6236 566
6236 1409
6236 3828
6236 4617
6237 581
6237 1512
6237 3726
6237 4640
6238 531
6238 1519
6238 3827
6238 4673
6239 526
6239 1475
6239 3727
6239 4704
6240 514
6240 1513
6240 3719
6240 4681
6241 544
6241 1462
6241 3775
6241 4718
6242 635
6242 1451
6242 3731
6242 4707
6243 597
6243 1482
6243 3737
6243 4628
6244 590
6244 1424
6244 3725
6244 4708
6245 604
6245 1435
6245 3759
6245 4634
6246 629
6246 1452
6246 3804
6246 4619
6247 528
6247 1441
6247 3812
6247 4610
6248 550
6248 1509
6248 3717
6248 4611
6249 596
6249 1503
6249 3747
6249 4706
6250 620
6250 1447
6250 3748
6250 4699
6251 577
6251 1483
6251 3721
6251 4710
6252 559
6252 1529
6252 3764
6252 4645
6253 624
6253 1478
6253 3728
6253 4698
6254 589
6254 1485
6254 3712
6254 4724
6255 582
6255 1511
6255 3809
6255 4642
6256 553
6256 1425
6256 3757
6256 4697
6257 613
6257 1445
6257 3762
6257 4629
6258 556
6258 1463
6258 3713
6258 4705
6259 518
6259 1449
6259 3734
6259 4690
6260 591
6260 1428
6260 3774
6260 4641
6261 626
6261 1433
6261 3829
6261 4630
6262 638
6262 1479
6262 3752
6262 4685
6263 535
6263 1417
6263 3834
6263 4609
6264 628
6264 1465
6264 3826
6264 4700
6265 574
6265 1507
6265 3740
6265 4625
6266 520
6266 1438
6266 3811
6266 4657
6267 567
6267 1474
6267 3778
6267 4632
6268 615
6268 1481
6268 3723
6268 4649
6269 513
6269 1414
6269 3773
6269 4666
6270 634
6270 1487
6270 3792
6270 4723
6271 562
6271 1437
6271 3815
6271 4639
6272 641
6272 1628
6272 3867
6272 4842
6273 685
6273 1577
6273 3945
6273 4827
6274 645
6274 1625
6274 3849
6274 4838
6275 706
6275 1633
6275 3881
6275 4817
6276 650
6276 1663
6276 3959
6276 4814
6277 712
6277 1537
6277 3866
6277 4831
6278 721
6278 1562
6278 3885
6278 4811
6279 682
6279 1591
6279 3967
6279 4763
6280 750
6280 1579
6280 3864
6280 4770
6281 720
6281 1635
6281 3853
6281 4858
6282 764
6282 1605
6282 3855
6282 4773
6283 667
6283 1563
6283 3930
6283 4784
6284 644
6284 1623
6284 3903
6284 4857
6285 717
6285 1542
6285 3887
6285 4819
6286 763
6286 1595
6286 3891
6286 4781
6287 666
6287 1630
6287 3960
6287 4850
6288 756
6288 1632
6288 3868
6288 4801
6289 725
6289 1658
6289 3842
6289 4778
6290 672
6290 1538
6290 3865
6290 4793
6291 686
6291 1574
6291 3862
6291 4813
6292 702
6292 1600
6292 3920
6292 4859
6293 700
6293 1546
6293 3911
6293 4761
6294 752
6294 1638
6294 3946
6294 4786
6295 716
6295 1616
6295 3860
6295 4746
6296 710
6296 1612
6296 3916
6296 4846
6297 695
6297 1558
6297 3889
6297 4847
6298 664
6298 1541
6298 3877
6298 4833
6299 649
6299 1651
6299 3912
6299 4756
6300 713
6300 1620
6300 3840
6300 4760
6301 683
6301 1559
6301 3943
6301 4745
6302 736
6302 1631
6302 3926
6302 4815
6303 751
6303 1540
6303 3870
6303 4750
6304 675
6304 1648
6304 3905
6304 4828
6305 747
6305 1603
6305 3847
6305 4759
6306 662
6306 1598
6306 3896
6306 4826
6307 658
6307 1588
6307 3951
6307 4774
6308 709
6308 1584
6308 3893
6308 4860
6309 766
6309 1557
6309 3955
6309 4782
6310 694
6310 1554
6310 3859
6310 4848
6311 740
6311 1618
6311 3884
6311 4783
6312 657
6312 1566
6312 3915
6312 4791
6313 744
6313 1581
6313 3929
6313 4762
6314 742
6314 1624
6314 3919
6314 4742
6315 714
6315 1659
6315 3876
6315 4790
6316 698
6316 1622
6316 3913
6316 4807
6317 659
6317 1649
6317 3886
6317 4771
6318 718
6318 1571
6318 3941
6318 4841
6319 762
6319 1580
6319 3936
6319 4787
6320 648
6320 1572
6320 3880
6320 4747
6321 724
6321 1619
6321 3854
6321 4765
6322 723
6322 1650
6322 3909
6322 4802
6323 749
6323 1549
6323 3952
6323 4851
6324 655
6324 1609
6324 3934
6324 4809
6325 704
6325 1626
6325 3844
6325 4804
6326 730
6326 1547
6326 3950
6326 4854
6327 760
6327 1601
6327 3892
6327 4797
6328 722
6328 1592
6328 3874
6328 4795
6329 670
6329 1634
6329 3841
6329 4767
6330 741
6330 1590
6330 3894
6330 4810
6331 696
6331 1553
6331 3899
6331 4824
6332 684
6332 1543
6332 3924
6332 4843
6333 673
6333 1640
6333 3956
6333 4777
6334 674
6334 1657
6334 3927
6334 4853
6335 758
6335 1608
6335 3914
6335 4829
6336 653
6336 1636
6336 3923
6336 4739
6337 691
6337 1606
6337 3963
6337 4757
6338 719
6338 1611
6338 3910
6338 4844
6339 663
6339 1570
6339 3958
6339 4785
6340 640
6340 1621
6340 3953
6340 4741
6341 660
6341 1637
6341 3922
6341 4845
6342 745
6342 1617
6342 3928
6342 4816
6343 711
6343 1629
6343 3949
6343 4803
6344 726
6344 1569
6344 3869
6344 4799
6345 761
6345 1551
6345 3925
6345 4823
6346 701
6346 1583
6346 3933
6346 4849
6347 759
6347 1567
6347 3907
6347 4812
6348 656
6348 1604
6348 3932
6348 4808
6349 754
6349 1602
6349 3965
6349 4768
6350 690
6350 1544
6350 3901
6350 4822
6351 693
6351 1641
6351 3858
6351 4755
6352 687
6352 1561
6352 3873
6352 4861
6353 739
6353 1654
6353 3961
6353 4736
6354 671
6354 1587
6354 3890
6354 4856
6355 737
6355 1661
6355 3938
6355 4792
6356 703
6356 1545
6356 3848
6356 4751
6357 646
6357 1552
6357 3966
6357 4839
6358 668
6358 1662
6358 3937
6358 4776
6359 676
6359 1642
6359 3962
6359 4818
6360 715
6360 1645
6360 3895
6360 4780
6361 765
6361 1573
6361 3888
6361 4798
6362 732
6362 1613
6362 3902
6362 4835
6363 679
6363 1656
6363 3843
6363 4737
6364 731
6364 1653
6364 3871
6364 4855
6365 727
6365 1599
6365 3942
6365 4825
6366 652
6366 1548
6366 3904
6366 4862
6367 689
6367 1646
6367 3908
6367 4752
6368 697
6368 1539
6368 3954
6368 4769
6369 746
6369 1550
6369 3857
6369 4821
6370 767
6370 1610
6370 3878
6370 4840
6371 735
6371 1585
6371 3935
6371 4830
6372 733
6372 1589
6372 3852
6372 4779
6373 729
6373 1596
6373 3918
6373 4836
6374 651
6374 1568
6374 3851
6374 4789
6375 692
6375 1643
6375 3861
6375 4806
6376 677
6376 1555
6376 3906
6376 4834
6377 661
6377 1594
6377 3897
6377 4820
6378 708
6378 1575
6378 3940
6378 4758
6379 753
6379 1597
6379 3931
6379 4766
6380 642
6380 1639
6380 3846
6380 4794
6381 728
6381 1582
6381 3939
6381 4852
6382 654
6382 1627
6382 3947
6382 4772
6383 738
6383 1655
6383 3879
6383 4753
6384 705
6384 1586
6384 3900
6384 4764
6385 681
6385 1593
6385 3898
6385 4800
6386 669
6386 1615
6386 3850
6386 4743
6387 757
6387 1565
6387 3964
6387 4832
6388 665
6388 1660
6388 3948
6388 4754
6389 707
6389 1536
6389 3882
6389 4863
6390 734
6390 1564
6390 3845
6390 4805
6391 748
6391 1578
6391 3872
6391 4744
6392 680
6392 1644
6392 3921
6392 4749
6393 699
6393 1647
6393 3863
6393 4837
6394 743
6394 1652
6394 3944
6394 4788
6395 688
6395 1560
6395 3917
6395 4738
6396 647
6396 1607
6396 3957
6396 4748
6397 643
6397 1556
6397 3856
6397 4796
6398 755
6398 1576
6398 3883
6398 4740
6399 678
6399 1614
6399 3875
6399 4775
6400 814
6400 1725
6400 3970
6400 4891
6401 812
6401 1736
6401 4003
6401 4900
6402 832
6402 1782
6402 4054
6402 4987
6403 860
6403 1791
6403 4020
6403 4945
6404 850
6404 1665
6404 4012
6404 4888
6405 834
6405 1718
6405 4095
6405 4936
6406 823
6406 1776
6406 4026
6406 4955
6407 877
6407 1722
6407 4055
6407 4926
6408 841
6408 1772
6408 4056
6408 4912
6409 800
6409 1734
6409 4052
6409 4972
6410 773
6410 1713
6410 4071
6410 4870
6411 885
6411 1771
6411 4053
6411 4968
6412 828
6412 1732
6412 3985
6412 4871
6413 781
6413 1711
6413 4001
6413 4874
6414 784
6414 1763
6414 4016
6414 4933
6415 801
6415 1758
6415 3999
6415 4977
6416 820
6416 1739
6416 4042
6416 4879
6417 811
6417 1785
6417 4011
6417 4957
6418 790
6418 1672
6418 3973
6418 4916
6419 890
6419 1712
6419 4076
6419 4980
6420 884
6420 1781
6420 4028
6420 4971
6421 894
6421 1708
6421 4038
6421 4965
6422 837
6422 1687
6422 4008
6422 4892
6423 782
6423 1753
6423 4021
6423 4986
6424 836
6424 1766
6424 4027
6424 4896
6425 876
6425 1720
6425 4018
6425 4976
6426 785
6426 1717
6426 4034
6426 4910
6427 835
6427 1752
6427 4032
6427 4954
6428 777
6428 1740
6428 4010
6428 4983
6429 826
6429 1703
6429 3976
6429 4928
6430 838
6430 1770
6430 4017
6430 4897
6431 866
6431 1764
6431 3983
6431 4947
6432 874
6432 1706
6432 4048
6432 4904
6433 827
6433 1681
6433 4045
6433 4881
6434 794
6434 1768
6434 3982
6434 4873
6435 786
6435 1788
6435 4067
6435 4902
6436 779
6436 1668
6436 4043
6436 4907
6437 802
6437 1755
6437 3972
6437 4969
6438 795
6438 1728
6438 4068
6438 4966
6439 853
6439 1690
6439 4080
6439 4989
6440 840
6440 1742
6440 4037
6440 4964
6441 865
6441 1671
6441 3969
6441 4901
6442 803
6442 1727
6442 4090
6442 4899
6443 892
6443 1754
6443 4069
6443 4970
6444 771
6444 1759
6444 4062
6444 4868
6445 772
6445 1778
6445 3978
6445 4880
6446 852
6446 1680
6446 3968
6446 4882
6447 868
6447 1724
6447 4064
6447 4890
6448 816
6448 1670
6448 3981
6448 4963
6449 805
6449 1747
6449 3994
6449 4937
6450 824
6450 1756
6450 4059
6450 4913
6451 862
6451 1710
6451 4006
6451 4885
6452 783
6452 1701
6452 4039
6452 4908
6453 796
6453 1773
6453 4073
6453 4979
6454 809
6454 1744
6454 3971
6454 4918
6455 813
6455 1780
6455 4088
6455 4869
6456 844
6456 1686
6456 4079
6456 4934
6457 858
6457 1737
6457 4087
6457 4875
6458 843
6458 1698
6458 3989
6458 4865
6459 859
6459 1777
6459 4061
6459 4917
6460 864
6460 1673
6460 4074
6460 4893
6461 881
6461 1705
6461 3990
6461 4949
6462 871
6462 1760
6462 4013
6462 4942
6463 775
6463 1774
6463 3979
6463 4866
6464 768
6464 1691
6464 4075
6464 4921
6465 788
6465 1761
6465 4093
6465 4878
6466 819
6466 1751
6466 3988
6466 4884
6467 861
6467 1695
6467 4047
6467 4920
6468 867
6468 1709
6468 4084
6468 4935
6469 857
6469 1700
6469 4000
6469 4956
6470 882
6470 1731
6470 3975
6470 4887
6471 887
6471 1685
6471 4040
6471 4991
6472 842
6472 1786
6472 3987
6472 4952
6473 856
6473 1719
6473 4081
6473 4927
6474 851
6474 1790
6474 4065
6474 4962
6475 798
6475 1745
6475 4086
6475 4867
6476 821
6476 1775
6476 4004
6476 4914
6477 847
6477 1743
6477 3991
6477 4903
6478 810
6478 1749
6478 3980
6478 4872
6479 883
6479 1697
6479 4091
6479 4906
6480 807
6480 1693
6480 3993
6480 4941
6481 822
6481 1729
6481 4092
6481 4982
6482 778
6482 1746
6482 4005
6482 4922
6483 833
6483 1699
6483 4007
6483 4943
6484 791
6484 1733
6484 4063
6484 4978
6485 830
6485 1738
6485 4030
6485 4967
6486 817
6486 1767
6486 4072
6486 4959
6487 854
6487 1688
6487 4014
6487 4886
6488 799
6488 1784
6488 4019
6488 4905
6489 839
6489 1721
6489 3995
6489 4981
6490 808
6490 1765
6490 4089
6490 4931
6491 849
6491 1762
6491 4085
6491 4946
6492 829
6492 1694
6492 4035
6492 4915
6493 893
6493 1750
6493 3997
6493 4929
6494 875
6494 1683
6494 4066
6494 4919
6495 878
6495 1676
6495 4023
6495 4973
6496 863
6496 1723
6496 3984
6496 4877
6497 886
6497 1667
6497 4036
6497 4948
6498 770
6498 1677
6498 4033
6498 4932
6499 845
6499 1684
6499 4024
6499 4898
6500 846
6500 1779
6500 3998
6500 4960
6501 825
6501 1674
6501 4083
6501 4985
6502 776
6502 1669
6502 3977
6502 4889
6503 793
6503 1741
6503 4050
6503 4953
6504 855
6504 1692
6504 3974
6504 4951
6505 780
6505 1675
6505 4077
6505 4864
6506 797
6506 1757
6506 4041
6506 4988
6507 873
6507 1664
6507 4046
6507 4909
6508 848
6508 1769
6508 4009
6508 4895
6509 806
6509 1696
6509 4078
6509 4975
6510 870
6510 1704
6510 4070
6510 4876
6511 792
6511 1689
6511 4002
6511 4961
6512 872
6512 1678
6512 4082
6512 4938
6513 889
6513 1787
6513 4094
6513 4974
6514 818
6514 1666
6514 4025
6514 4944
6515 787
6515 1789
6515 3996
6515 4939
6516 891
6516 1702
6516 4057
6516 4930
6517 769
6517 1707
6517 4015
6517 4984
6518 815
6518 1726
6518 4031
6518 4990
6519 880
6519 1714
6519 3986
6519 4911
6520 774
6520 1716
6520 4029
6520 4940
6521 804
6521 1679
6521 3992
6521 4924
6522 831
6522 1783
6522 4022
6522 4925
6523 895
6523 1715
6523 4058
6523 4958
6524 879
6524 1748
6524 4044
6524 4923
6525 789
6525 1735
6525 4060
6525 4883
6526 888
6526 1682
6526 4049
6526 4950
6527 869
6527 1730
6527 4051
6527 4894
6528 917
6528 1820
6528 4152
6528 5077
6529 949
6529 1877
6529 4145
6529 5041
6530 914
6530 1865
6530 4137
6530 5030
6531 948
6531 1866
6531 4133
6531 5054
6532 963
6532 1883
6532 4115
6532 5021
6533 902
6533 1835
6533 4147
6533 5039
6534 968
6534 1901
6534 4181
6534 5095
6535 952
6535 1794
6535 4157
6535 5068
6536 980
6536 1914
6536 4205
6536 4992
6537 1005
6537 1823
6537 4185
6537 5065
6538 951
6538 1870
6538 4109
6538 4996
6539 978
6539 1857
6539 4119
6539 5022
6540 934
6540 1809
6540 4214
6540 5066
6541 990
6541 1876
6541 4148
6541 5090
6542 921
6542 1834
6542 4194
6542 5082
6543 897
6543 1910
6543 4184
6543 5106
6544 933
6544 1889
6544 4134
6544 5073
6545 961
6545 1888
6545 4111
6545 5103
6546 966
6546 1886
6546 4201
6546 5038
6547 960
6547 1804
6547 4122
6547 5110
6548 997
6548 1810
6548 4108
6548 5084
6549 982
6549 1879
6549 4162
6549 5093
6550 1007
6550 1849
6550 4099
6550 4993
6551 984
6551 1817
6551 4160
6551 5032
6552 932
6552 1850
6552 4138
6552 4998
6553 962
6553 1859
6553 4216
6553 5099
6554 937
6554 1819
6554 4110
6554 5081
6555 942
6555 1894
6555 4186
6555 5070
6556 903
6556 1801
6556 4179
6556 5057
6557 929
6557 1826
6557 4164
6557 5092
6558 945
6558 1827
6558 4213
6558 5079
6559 1015
6559 1897
6559 4123
6559 5005
6560 920
6560 1863
6560 4130
6560 5118
6561 1010
6561 1853
6561 4187
6561 5094
6562 927
6562 1831
6562 4127
6562 4995
6563 1018
6563 1844
6563 4174
6563 5072
6564 930
6564 1919
6564 4198
6564 5107
6565 909
6565 1875
6565 4150
6565 5119
6566 915
6566 1873
6566 4206
6566 5019
6567 911
6567 1797
6567 4144
6567 5042
6568 1023
6568 1905
6568 4188
6568 5088
6569 931
6569 1909
6569 4112
6569 5029
6570 913
6570 1798
6570 4218
6570 5102
6571 994
6571 1855
6571 4203
6571 5002
6572 900
6572 1898
6572 4202
6572 5004
6573 896
6573 1824
6573 4204
6573 5008
6574 925
6574 1848
6574 4143
6574 5027
6575 971
6575 1793
6575 4182
6575 5011
6576 956
6576 1803
6576 4107
6576 5117
6577 1003
6577 1840
6577 4098
6577 5069
6578 1013
6578 1885
6578 4097
6578 5000
6579 987
6579 1907
6579 4167
6579 5012
6580 1006
6580 1811
6580 4156
6580 5105
6581 991
6581 1868
6581 4141
6581 5062
6582 1000
6582 1893
6582 4211
6582 5018
6583 989
6583 1815
6583 4102
6583 5112
6584 938
6584 1814
6584 4191
6584 5085
6585 955
6585 1832
6585 4153
6585 5050
6586 974
6586 1864
6586 4172
6586 5003
6587 983
6587 1900
6587 4210
6587 5111
6588 970
6588 1867
6588 4171
6588 5056
6589 1014
6589 1828
6589 4178
6589 5091
6590 959
6590 1837
6590 4166
6590 5074
6591 992
6591 1911
6591 4173
6591 5059
6592 1021
6592 1882
6592 4193
6592 5116
6593 964
6593 1891
6593 4161
6593 5001
6594 907
6594 1880
6594 4114
6594 5061
6595 905
6595 1818
6595 4151
6595 5036
6596 898
6596 1846
6596 4155
6596 5071
6597 996
6597 1902
6597 4128
6597 4997
6598 977
6598 1904
6598 4177
6598 5101
6599 985
6599 1917
6599 4163
6599 5031
6600 958
6600 1841
6600 4140
6600 5096
6601 923
6601 1812
6601 4158
6601 5010
6602 943
6602 1807
6602 4113
6602 5076
6603 1008
6603 1916
6603 4132
6603 5097
6604 954
6604 1795
6604 4212
6604 5078
6605 1019
6605 1833
6605 4170
6605 5063
6606 965
6606 1896
6606 4222
6606 5025
6607 1011
6607 1836
6607 4207
6607 5098
6608 919
6608 1821
6608 4118
6608 5023
6609 935
6609 1854
6609 4192
6609 5017
6610 1009
6610 1838
6610 4131
6610 5028
6611 1022
6611 1808
6611 4129
6611 5083
6612 981
6612 1816
6612 4219
6612 5058
6613 1020
6613 1862
6613 4142
6613 5067
6614 995
6614 1829
6614 4135
6614 5044
6615 946
6615 1800
6615 4124
6615 5047
6616 1012
6616 1912
6616 4159
6616 5115
6617 999
6617 1881
6617 4223
6617 5113
6618 944
6618 1851
6618 4125
6618 5034
6619 1002
6619 1872
6619 4146
6619 5015
6620 988
6620 1822
6620 4165
6620 5108
6621 1001
6621 1802
6621 4126
6621 5049
6622 939
6622 1908
6622 4200
6622 5089
6623 957
6623 1843
6623 4209
6623 5055
6624 912
6624 1858
6624 4199
6624 4999
6625 922
6625 1860
6625 4105
6625 5016
6626 1017
6626 1830
6626 4190
6626 5006
6627 986
6627 1892
6627 4189
6627 5060
6628 975
6628 1895
6628 4101
6628 5104
6629 906
6629 1918
6629 4120
6629 5080
6630 993
6630 1852
6630 4221
6630 5048
6631 924
6631 1906
6631 4136
6631 5033
6632 969
6632 1861
6632 4169
6632 5075
6633 928
6633 1899
6633 4139
6633 5020
6634 910
6634 1915
6634 4154
6634 5046
6635 940
6635 1884
6635 4180
6635 5087
6636 976
6636 1847
6636 4196
6636 5045
6637 979
6637 1799
6637 4103
6637 5043
6638 936
6638 1839
6638 4117
6638 5014
6639 950
6639 1869
6639 4168
6639 5035
6640 899
6640 1903
6640 4175
6640 5026
6641 972
6641 1796
6641 4176
6641 5007
6642 901
6642 1806
6642 4100
6642 5053
6643 953
6643 1842
6643 4195
6643 5052
6644 947
6644 1871
6644 4197
6644 5109
6645 908
6645 1825
6645 4217
6645 5024
6646 904
6646 1856
6646 4183
6646 5051
6647 941
6647 1792
6647 4121
6647 5086
6648 973
6648 1874
6648 4104
6648 5013
6649 926
6649 1890
6649 4220
6649 5009
6650 1016
6650 1805
6650 4149
6650 5064
6651 918
6651 1887
6651 4106
6651 5037
6652 1004
6652 1878
6652 4096
6652 5040
6653 967
6653 1813
6653 4215
6653 5100
6654 916
6654 1845
6654 4208
6654 4994
6655 998
6655 1913
6655 4116
6655 5114
6656 1078
6656 2029
6656 2888
6656 5223
6657 1119
6657 1992
6657 2910
6657 5216
6658 1151
6658 1956
6658 2833
6658 5207
6659 1138
6659 1933
6659 2922
6659 5194
6660 1105
6660 1984
6660 2875
6660 5226
6661 1115
6661 2003
6661 2840
6661 5139
6662 1058
6662 2033
6662 2914
6662 5136
6663 1024
6663 1932
6663 2863
6663 5204
6664 1081
6664 1998
6664 2851
6664 5196
6665 1097
6665 1927
6665 2859
6665 5187
6666 1026
6666 1976
6666 2849
6666 5173
6667 1040
6667 1999
6667 2934
6667 5175
6668 1052
6668 1980
6668 2880
6668 5124
6669 1089
6669 2009
6669 2836
6669 5159
6670 1065
6670 2018
6670 2827
6670 5210
6671 1036
6671 2038
6671 2889
6671 5151
6672 1069
6672 2002
6672 2854
6672 5242
6673 1132
6673 1990
6673 2824
6673 5231
6674 1033
6674 1953
6674 2917
6674 5232
6675 1032
6675 1977
6675 2845
6675 5192
6676 1041
6676 1923
6676 2868
6676 5183
6677 1136
6677 2022
6677 2839
6677 5144
6678 1031
6678 2023
6678 2940
6678 5222
6679 1056
6679 1964
6679 2895
6679 5170
6680 1140
6680 1957
6680 2886
6680 5143
6681 1110
6681 1936
6681 2925
6681 5149
6682 1130
6682 1954
6682 2866
6682 5244
6683 1122
6683 1987
6683 2831
6683 5218
6684 1120
6684 2001
6684 2877
6684 5181
6685 1053
6685 1995
6685 2825
6685 5224
6686 1043
6686 1972
6686 2930
6686 5191
6687 1038
6687 2035
6687 2873
6687 5138
6688 1112
6688 2008
6688 2896
6688 5235
6689 1076
6689 2047
6689 2864
6689 5193
6690 1059
6690 1935
6690 2909
6690 5154
6691 1127
6691 1930
6691 2861
6691 5236
6692 1062
6692 2041
6692 2887
6692 5146
6693 1096
6693 1973
6693 2837
6693 5121
6694 1057
6694 2010
6694 2932
6694 5190
6695 1139
6695 1963
6695 2820
6695 5162
6696 1064
6696 1946
6696 2918
6696 5152
6697 1082
6697 1928
6697 2843
6697 5156
6698 1107
6698 1978
6698 2874
6698 5198
6699 1084
6699 2014
6699 2939
6699 5134
6700 1121
6700 1983
6700 2913
6700 5186
6701 1116
6701 1938
6701 2927
6701 5172
6702 1044
6702 2039
6702 2891
6702 5225
6703 1133
6703 1959
6703 2882
6703 5176
6704 1063
6704 1949
6704 2822
6704 5240
6705 1061
6705 1993
6705 2872
6705 5201
6706 1042
6706 2012
6706 2848
6706 5208
6707 1091
6707 1952
6707 2817
6707 5228
6708 1034
6708 1948
6708 2862
6708 5130
6709 1150
6709 2044
6709 2850
6709 5247
6710 1055
6710 1970
6710 2920
6710 5165
6711 1118
6711 2021
6711 2842
6711 5135
6712 1054
6712 1939
6712 2935
6712 5245
6713 1144
6713 2004
6713 2915
6713 5188
6714 1129
6714 1982
6714 2829
6714 5148
6715 1037
6715 1958
6715 2908
6715 5212
6716 1142
6716 2028
6716 2923
6716 5217
6717 1030
6717 1968
6717 2907
6717 5239
6718 1047
6718 1975
6718 2941
6718 5200
6719 1028
6719 1971
6719 2933
6719 5179
6720 1098
6720 1966
6720 2876
6720 5197
6721 1123
6721 2031
6721 2885
6721 5157
6722 1117
6722 2045
6722 2846
6722 5161
6723 1073
6723 1947
6723 2878
6723 5221
6724 1068
6724 2036
6724 2937
6724 5237
6725 1075
6725 2037
6725 2832
6725 5203
6726 1149
6726 1955
6726 2857
6726 5177
6727 1083
6727 2005
6727 2821
6727 5120
6728 1086
6728 1981
6728 2870
6728 5127
6729 1051
6729 1996
6729 2943
6729 5205
6730 1090
6730 1934
6730 2852
6730 5227
6731 1088
6731 1951
6731 2893
6731 5126
6732 1072
6732 1950
6732 2906
6732 5123
6733 1111
6733 2017
6733 2902
6733 5209
6734 1070
6734 1920
6734 2901
6734 5206
6735 1093
6735 2020
6735 2847
6735 5167
6736 1085
6736 2011
6736 2838
6736 5169
6737 1106
6737 2019
6737 2921
6737 5234
6738 1046
6738 1965
6738 2881
6738 5171
6739 1048
6739 1940
6739 2904
6739 5155
6740 1079
6740 1945
6740 2912
6740 5241
6741 1092
6741 2024
6741 2858
6741 5180
6742 1100
6742 1989
6742 2853
6742 5122
6743 1094
6743 2016
6743 2919
6743 5168
6744 1102
6744 2040
6744 2855
6744 5132
6745 1025
6745 1922
6745 2819
6745 5229
6746 1080
6746 1925
6746 2818
6746 5131
6747 1077
6747 2013
6747 2867
6747 5150
6748 1027
6748 1943
6748 2926
6748 5178
6749 1108
6749 1986
6749 2936
6749 5137
6750 1124
6750 1997
6750 2897
6750 5129
6751 1145
6751 1937
6751 2928
6751 5128
6752 1126
6752 1924
6752 2816
6752 5230
6753 1071
6753 1960
6753 2884
6753 5184
6754 1137
6754 1961
6754 2899
6754 5199
6755 1103
6755 1969
6755 2856
6755 5233
6756 1113
6756 1942
6756 2830
6756 5142
6757 1141
6757 1929
6757 2828
6757 5160
6758 1067
6758 1985
6758 2879
6758 5133
6759 1146
6759 2015
6759 2826
6759 5219
6760 1045
6760 2030
6760 2834
6760 5174
6761 1114
6761 2007
6761 2865
6761 5140
6762 1125
6762 2032
6762 2900
6762 5145
6763 1143
6763 1921
6763 2835
6763 5158
6764 1035
6764 1991
6764 2905
6764 5211
6765 1104
6765 2000
6765 2903
6765 5220
6766 1109
6766 2043
6766 2844
6766 5141
6767 1095
6767 2027
6767 2871
6767 5213
6768 1131
6768 1967
6768 2916
6768 5153
6769 1147
6769 1926
6769 2924
6769 5185
6770 1134
6770 2025
6770 2942
6770 5214
6771 1074
6771 1962
6771 2929
6771 5164
6772 1050
6772 2046
6772 2894
6772 5147
6773 1135
6773 1988
6773 2823
6773 5189
6774 1087
6774 2026
6774 2931
6774 5215
6775 1029
6775 2006
6775 2841
6775 5246
6776 1148
6776 1979
6776 2890
6776 5195
6777 1099
6777 2034
6777 2860
6777 5202
6778 1101
6778 1941
6778 2938
6778 5166
6779 1060
6779 1931
6779 2883
6779 5125
6780 1066
6780 2042
6780 2898
6780 5182
6781 1128
6781 1994
6781 2892
6781 5243
6782 1049
6782 1974
6782 2869
6782 5163
6783 1039
6783 1944
6783 2911
6783 5238
6784 1153
6784 2098
6784 3044
6784 5298
6785 1233
6785 2095
6785 3009
6785 5314
6786 1211
6786 2123
6786 3052
6786 5369
6787 1253
6787 2156
6787 3017
6787 5296
6788 1179
6788 2072
6788 2956
6788 5328
6789 1204
6789 2086
6789 3053
6789 5273
6790 1266
6790 2085
6790 3036
6790 5338
6791 1241
6791 2144
6791 2961
6791 5327
6792 1258
6792 2106
6792 3014
6792 5341
6793 1158
6793 2150
6793 3007
6793 5308
6794 1240
6794 2060
6794 2999
6794 5305
6795 1235
6795 2124
6795 3041
6795 5274
6796 1212
6796 2070
6796 2971
6796 5291
6797 1250
6797 2050
6797 3006
6797 5354
6798 1163
6798 2140
6798 3013
6798 5255
6799 1178
6799 2066
6799 2955
6799 5365
6800 1255
6800 2049
6800 3032
6800 5295
6801 1188
6801 2097
6801 2975
6801 5319
6802 1172
6802 2160
6802 2985
6802 5352
6803 1221
6803 2062
6803 3027
6803 5344
6804 1254
6804 2148
6804 2972
6804 5264
6805 1226
6805 2168
6805 2988
6805 5351
6806 1155
6806 2129
6806 3039
6806 5321
6807 1202
6807 2048
6807 2954
6807 5256
6808 1200
6808 2162
6808 3050
6808 5288
6809 1263
6809 2081
6809 3031
6809 5353
6810 1207
6810 2111
6810 2957
6810 5323
6811 1259
6811 2055
6811 2977
6811 5257
6812 1197
6812 2103
6812 2976
6812 5356
6813 1246
6813 2108
6813 2983
6813 5267
6814 1231
6814 2141
6814 2968
6814 5339
6815 1252
6815 2164
6815 2978
6815 5271
6816 1274
6816 2093
6816 3011
6816 5368
6817 1227
6817 2104
6817 2973
6817 5370
6818 1183
6818 2151
6818 3024
6818 5371
6819 1192
6819 2083
6819 2994
6819 5260
6820 1209
6820 2073
6820 3055
6820 5285
6821 1156
6821 2119
6821 2947
6821 5350
6822 1181
6822 2113
6822 2951
6822 5279
6823 1160
6823 2139
6823 3030
6823 5366
6824 1166
6824 2126
6824 2945
6824 5375
6825 1269
6825 2051
6825 2986
6825 5292
6826 1245
6826 2132
6826 3016
6826 5294
6827 1247
6827 2131
6827 3029
6827 5281
6828 1249
6828 2127
6828 3043
6828 5312
6829 1206
6829 2079
6829 2970
6829 5331
6830 1276
6830 2172
6830 2991
6830 5367
6831 1219
6831 2153
6831 3019
6831 5355
6832 1222
6832 2075
6832 3004
6832 5304
6833 1268
6833 2068
6833 3002
6833 5333
6834 1175
6834 2088
6834 3070
6834 5320
6835 1186
6835 2054
6835 3064
6835 5287
6836 1208
6836 2058
6836 2998
6836 5311
6837 1239
6837 2174
6837 3010
6837 5324
6838 1165
6838 2137
6838 2979
6838 5372
6839 1167
6839 2136
6839 3035
6839 5248
6840 1201
6840 2061
6840 3056
6840 5374
6841 1264
6841 2154
6841 3040
6841 5342
6842 1196
6842 2065
6842 2995
6842 5337
6843 1216
6843 2096
6843 3000
6843 5289
6844 1271
6844 2145
6844 2996
6844 5345
6845 1205
6845 2121
6845 2987
6845 5346
6846 1189
6846 2116
6846 2997
6846 5269
6847 1173
6847 2069
6847 2959
6847 5332
6848 1154
6848 2057
6848 2990
6848 5317
6849 1161
6849 2125
6849 2962
6849 5259
6850 1223
6850 2130
6850 3046
6850 5343
6851 1184
6851 2105
6851 3069
6851 5262
6852 1193
6852 2170
6852 3012
6852 5278
6853 1229
6853 2165
6853 3022
6853 5276
6854 1230
6854 2114
6854 3061
6854 5313
6855 1169
6855 2152
6855 2958
6855 5373
6856 1168
6856 2158
6856 3067
6856 5315
6857 1236
6857 2142
6857 2964
6857 5329
6858 1191
6858 2053
6858 3021
6858 5349
6859 1162
6859 2080
6859 3038
6859 5360
6860 1242
6860 2056
6860 2981
6860 5364
6861 1185
6861 2118
6861 3042
6861 5357
6862 1278
6862 2135
6862 2953
6862 5330
6863 1243
6863 2063
6863 2980
6863 5306
6864 1237
6864 2087
6864 3023
6864 5286
6865 1228
6865 2100
6865 2969
6865 5266
6866 1159
6866 2155
6866 2992
6866 5282
6867 1232
6867 2109
6867 3059
6867 5334
6868 1215
6868 2064
6868 3037
6868 5268
6869 1265
6869 2092
6869 2946
6869 5263
6870 1238
6870 2067
6870 3062
6870 5347
6871 1194
6871 2157
6871 3047
6871 5303
6872 1225
6872 2059
6872 2944
6872 5316
6873 1224
6873 2091
6873 3058
6873 5359
6874 1171
6874 2112
6874 3068
6874 5299
6875 1180
6875 2101
6875 3063
6875 5300
6876 1256
6876 2078
6876 3049
6876 5301
6877 1262
6877 2120
6877 3025
6877 5309
6878 1182
6878 2133
6878 3008
6878 5250
6879 1152
6879 2138
6879 3018
6879 5310
6880 1214
6880 2074
6880 3034
6880 5265
6881 1210
6881 2161
6881 2966
6881 5361
6882 1170
6882 2071
6882 3020
6882 5297
6883 1279
6883 2077
6883 3066
6883 5363
6884 1157
6884 2159
6884 2950
6884 5325
6885 1176
6885 2167
6885 3003
6885 5290
6886 1213
6886 2143
6886 2967
6886 5326
6887 1275
6887 2090
6887 3054
6887 5307
6888 1267
6888 2163
6888 3045
6888 5253
6889 1234
6889 2089
6889 3026
6889 5249
6890 1248
6890 2102
6890 3065
6890 5272
6891 1198
6891 2149
6891 3048
6891 5335
6892 1257
6892 2173
6892 3001
6892 5254
6893 1218
6893 2166
6893 3071
6893 5284
6894 1260
6894 2107
6894 3015
6894 5251
6895 1174
6895 2128
6895 3051
6895 5362
6896 1270
6896 2099
6896 2974
6896 5302
6897 1273
6897 2082
6897 2963
6897 5348
6898 1272
6898 2134
6898 2982
6898 5270
6899 1251
6899 2169
6899 3005
6899 5261
6900 1217
6900 2094
6900 3060
6900 5293
6901 1244
6901 2110
6901 2949
6901 5336
6902 1199
6902 2147
6902 2993
6902 5358
6903 1277
6903 2052
6903 3057
6903 5275
6904 1164
6904 2146
6904 2989
6904 5277
6905 1220
6905 2115
6905 2984
6905 5280
6906 1203
6906 2122
6906 2965
6906 5340
6907 1190
6907 2084
6907 2960
6907 5318
6908 1177
6908 2171
6908 3033
6908 5322
6909 1261
6909 2076
6909 3028
6909 5252
6910 1187
6910 2117
6910 2952
6910 5258
6911 1195
6911 2175
6911 2948
6911 5283
6912 1374
6912 2198
6912 3083
6912 5413
6913 1311
6913 2206
6913 3162
6913 5491
6914 1392
6914 2200
6914 3194
6914 5430
6915 1286
6915 2265
6915 3145
6915 5454
6916 1384
6916 2194
6916 3112
6916 5383
6917 1371
6917 2215
6917 3132
6917 5433
6918 1319
6918 2210
6918 3133
6918 5460
6919 1317
6919 2231
6919 3183
6919 5448
6920 1316
6920 2196
6920 3126
6920 5474
6921 1402
6921 2207
6921 3116
6921 5391
6922 1297
6922 2299
6922 3131
6922 5473
6923 1287
6923 2259
6923 3100
6923 5482
6924 1339
6924 2292
6924 3073
6924 5449
6925 1367
6925 2222
6925 3096
6925 5471
6926 1305
6926 2271
6926 3159
6926 5414
6927 1350
6927 2286
6927 3104
6927 5385
6928 1284
6928 2283
6928 3138
6928 5380
6929 1397
6929 2176
6929 3135
6929 5500
6930 1393
6930 2177
6930 3082
6930 5425
6931 1285
6931 2245
6931 3176
6931 5494
6932 1346
6932 2204
6932 3154
6932 5401
6933 1296
6933 2250
6933 3174
6933 5476
6934 1341
6934 2212
6934 3137
6934 5489
6935 1360
6935 2296
6935 3105
6935 5410
6936 1364
6936 2214
6936 3198
6936 5406
6937 1362
6937 2281
6937 3080
6937 5499
6938 1294
6938 2294
6938 3144
6938 5417
6939 1281
6939 2190
6939 3098
6939 5458
6940 1401
6940 2184
6940 3110
6940 5412
6941 1327
6941 2300
6941 3196
6941 5421
6942 1373
6942 2278
6942 3180
6942 5455
6943 1293
6943 2221
6943 3127
6943 5429
6944 1354
6944 2293
6944 3147
6944 5479
6945 1344
6945 2181
6945 3106
6945 5386
6946 1391
6946 2275
6946 3114
6946 5497
6947 1282
6947 2219
6947 3150
6947 5427
6948 1345
6948 2267
6948 3171
6948 5399
6949 1385
6949 2238
6949 3103
6949 5394
6950 1330
6950 2279
6950 3113
6950 5428
6951 1357
6951 2261
6951 3157
6951 5408
6952 1398
6952 2243
6952 3118
6952 5376
6953 1400
6953 2241
6953 3121
6953 5478
6954 1403
6954 2230
6954 3190
6954 5451
6955 1347
6955 2193
6955 3151
6955 5452
6956 1309
6956 2228
6956 3123
6956 5442
6957 1343
6957 2216
6957 3172
6957 5420
6958 1289
6958 2227
6958 3081
6958 5416
6959 1356
6959 2276
6959 3156
6959 5465
6960 1334
6960 2208
6960 3122
6960 5432
6961 1352
6961 2226
6961 3136
6961 5409
6962 1363
6962 2270
6962 3084
6962 5381
6963 1407
6963 2289
6963 3161
6963 5379
6964 1338
6964 2242
6964 3182
6964 5405
6965 1325
6965 2297
6965 3090
6965 5480
6966 1290
6966 2192
6966 3167
6966 5487
6967 1395
6967 2285
6967 3097
6967 5502
6968 1283
6968 2274
6968 3193
6968 5390
6969 1390
6969 2209
6969 3085
6969 5418
6970 1386
6970 2246
6970 3140
6970 5384
6971 1406
6971 2277
6971 3091
6971 5443
6972 1379
6972 2302
6972 3155
6972 5434
6973 1394
6973 2273
6973 3109
6973 5423
6974 1399
6974 2213
6974 3164
6974 5438
6975 1310
6975 2272
6975 3179
6975 5382
6976 1365
6976 2298
6976 3111
6976 5422
6977 1299
6977 2240
6977 3181
6977 5392
6978 1377
6978 2220
6978 3139
6978 5456
6979 1372
6979 2201
6979 3199
6979 5436
6980 1388
6980 2237
6980 3092
6980 5431
6981 1280
6981 2301
6981 3153
6981 5440
6982 1315
6982 2249
6982 3087
6982 5403
6983 1361
6983 2239
6983 3107
6983 5498
6984 1337
6984 2287
6984 3173
6984 5393
6985 1404
6985 2252
6985 3072
6985 5470
6986 1314
6986 2211
6986 3128
6986 5477
6987 1328
6987 2268
6987 3168
6987 5377
6988 1349
6988 2251
6988 3143
6988 5444
6989 1396
6989 2284
6989 3089
6989 5453
6990 1369
6990 2263
6990 3152
6990 5404
6991 1405
6991 2218
6991 3165
6991 5461
6992 1376
6992 2248
6992 3189
6992 5495
6993 1389
6993 2185
6993 3149
6993 5475
6994 1375
6994 2291
6994 3074
6994 5439
6995 1358
6995 2199
6995 3078
6995 5424
6996 1321
6996 2182
6996 3178
6996 5462
6997 1370
6997 2256
6997 3077
6997 5411
6998 1326
6998 2236
6998 3188
6998 5397
6999 1302
6999 2244
6999 3186
6999 5447
7000 1313
7000 2264
7000 3163
7000 5402
7001 1298
7001 2234
7001 3187
7001 5437
7002 1381
7002 2223
7002 3119
7002 5389
7003 1324
7003 2288
7003 3076
7003 5490
7004 1348
7004 2189
7004 3117
7004 5469
7005 1378
7005 2254
7005 3195
7005 5441
7006 1291
7006 2247
7006 3197
7006 5415
7007 1342
7007 2253
7007 3160
7007 5398
7008 1323
7008 2205
7008 3185
7008 5435
7009 1340
7009 2191
7009 3158
7009 5426
7010 1351
7010 2197
7010 3115
7010 5501
7011 1308
7011 2290
7011 3086
7011 5457
7012 1335
7012 2229
7012 3129
7012 5492
7013 1322
7013 2269
7013 3142
7013 5387
7014 1306
7014 2187
7014 3184
7014 5388
7015 1355
7015 2224
7015 3093
7015 5468
7016 1380
7016 2266
7016 3120
7016 5463
7017 1333
7017 2262
7017 3125
7017 5466
7018 1366
7018 2295
7018 3101
7018 5459
7019 1307
7019 2195
7019 3169
7019 5396
7020 1301
7020 2183
7020 3079
7020 5450
7021 1320
7021 2180
7021 3175
7021 5488
7022 1382
7022 2255
7022 3170
7022 5464
7023 1312
7023 2280
7023 3191
7023 5472
7024 1387
7024 2233
7024 3095
7024 5445
7025 1300
7025 2178
7025 3166
7025 5484
7026 1329
7026 2282
7026 3102
7026 5378
7027 1359
7027 2217
7027 3148
7027 5503
7028 1336
7028 2258
7028 3177
7028 5486
7029 1292
7029 2203
7029 3075
7029 5493
7030 1331
7030 2257
7030 3146
7030 5481
7031 1332
7031 2303
7031 3141
7031 5483
7032 1318
7032 2232
7032 3192
7032 5485
7033 1295
7033 2202
7033 3088
7033 5467
7034 1353
7034 2188
7034 3134
7034 5407
7035 1303
7035 2179
7035 3094
7035 5400
7036 1288
7036 2186
7036 3130
7036 5395
7037 1304
7037 2260
7037 3124
7037 5496
7038 1368
7038 2225
7038 3108
7038 5446
7039 1383
7039 2235
7039 3099
7039 5419
7040 72
7040 2263
7040 2954
7040 5229
7041 118
7041 2257
7041 3044
7041 5121
7042 84
7042 2271
7042 3005
7042 5189
7043 121
7043 2268
7043 3065
7043 5122
7044 104
7044 2276
7044 3025
7044 5211
7045 89
7045 2255
7045 2984
7045 5123
7046 31
7046 2200
7046 2975
7046 5213
7047 26
7047 2232
7047 3039
7047 5133
7048 82
7048 2284
7048 3042
7048 5203
7049 88
7049 2228
7049 3040
7049 5175
7050 90
7050 2252
7050 3016
7050 5209
7051 12
7051 2202
7051 3006
7051 5188
7052 112
7052 2291
7052 3032
7052 5230
7053 85
7053 2213
7053 2992
7053 5190
7054 55
7054 2221
7054 3027
7054 5233
7055 114
7055 2243
7055 2967
7055 5182
7056 5
7056 2269
7056 3013
7056 5163
7057 98
7057 2262
7057 3026
7057 5179
7058 125
7058 2248
7058 3049
7058 5151
7059 127
7059 2207
7059 2973
7059 5149
7060 67
7060 2286
7060 3063
7060 5198
7061 20
7061 2240
7061 2964
7061 5170
7062 71
7062 2265
7062 3046
7062 5169
7063 109
7063 2222
7063 2980
7063 5162
7064 52
7064 2182
7064 3003
7064 5144
7065 51
7065 2231
7065 2982
7065 5166
7066 68
7066 2281
7066 2950
7066 5142
7067 46
7067 2239
7067 2965
7067 5129
7068 103
7068 2219
7068 3055
7068 5247
7069 80
7069 2193
7069 2997
7069 5134
7070 100
7070 2245
7070 3000
7070 5146
7071 44
7071 2253
7071 2987
7071 5220
7072 50
7072 2249
7072 2990
7072 5152
7073 106
7073 2224
7073 3061
7073 5156
7074 70
7074 2279
7074 3035
7074 5131
7075 115
7075 2295
7075 3012
7075 5195
7076 108
7076 2244
7076 2979
7076 5147
7077 69
7077 2218
7077 3004
7077 5200
7078 73
7078 2298
7078 2996
7078 5207
7079 16
7079 2201
7079 3067
7079 5202
7080 75
7080 2246
7080 2986
7080 5159
7081 124
7081 2226
7081 3064
7081 5128
7082 7
7082 2293
7082 3053
7082 5154
7083 43
7083 2264
7083 2970
7083 5174
7084 33
7084 2183
7084 2944
7084 5183
7085 53
7085 2203
7085 3018
7085 5228
7086 120
7086 2290
7086 2972
7086 5160
7087 93
7087 2179
7087 3014
7087 5178
7088 49
7088 2242
7088 2962
7088 5226
7089 92
7089 2230
7089 3015
7089 5165
7090 2
7090 2194
7090 3052
7090 5196
7091 18
7091 2302
7091 3056
7091 5246
7092 13
7092 2241
7092 2957
7092 5168
7093 63
7093 2217
7093 3011
7093 5185
7094 47
7094 2285
7094 2971
7094 5137
7095 113
7095 2178
7095 3068
7095 5192
7096 107
7096 2206
7096 2955
7096 5136
7097 96
7097 2192
7097 3021
7097 5167
7098 126
7098 2258
7098 3030
7098 5232
7099 24
7099 2282
7099 2995
7099 5127
7100 65
7100 2197
7100 2949
7100 5224
7101 8
7101 2287
7101 3054
7101 5125
7102 56
7102 2211
7102 3038
7102 5205
7103 17
7103 2191
7103 2994
7103 5157
7104 110
7104 2251
7104 2989
7104 5231
7105 40
7105 2250
7105 2956
7105 5218
7106 32
7106 2198
7106 2953
7106 5244
7107 37
7107 2187
7107 2948
7107 5239
7108 61
7108 2210
7108 3008
7108 5161
7109 119
7109 2237
7109 3060
7109 5126
7110 79
7110 2196
7110 3037
7110 5120
7111 38
7111 2261
7111 2952
7111 5191
7112 10
7112 2209
7112 3023
7112 5180
7113 111
7113 2260
7113 3069
7113 5130
7114 77
7114 2208
7114 3009
7114 5201
7115 21
7115 2205
7115 2963
7115 5234
7116 41
7116 2235
7116 2945
7116 5227
7117 27
7117 2301
7117 2976
7117 5217
7118 101
7118 2229
7118 2985
7118 5139
7119 57
7119 2289
7119 3022
7119 5241
7120 54
7120 2275
7120 2961
7120 5243
7121 0
7121 2212
7121 3071
7121 5219
7122 22
7122 2176
7122 2974
7122 5204
7123 122
7123 2181
7123 3058
7123 5245
7124 9
7124 2204
7124 2977
7124 5176
7125 6
7125 2288
7125 3029
7125 5140
7126 74
7126 2238
7126 3019
7126 5194
7127 64
7127 2273
7127 3002
7127 5215
7128 48
7128 2216
7128 2998
7128 5199
7129 78
7129 2300
7129 3047
7129 5164
7130 87
7130 2254
7130 3024
7130 5138
7131 15
7131 2234
7131 2999
7131 5197
7132 34
7132 2215
7132 3057
7132 5221
7133 116
7133 2199
7133 3041
7133 5235
7134 105
7134 2296
7134 3033
7134 5173
7135 59
7135 2180
7135 3036
7135 5212
7136 99
7136 2277
7136 3043
7136 5206
7137 28
7137 2256
7137 2978
7137 5141
7138 4
7138 2294
7138 2969
7138 5222
7139 14
7139 2303
7139 3028
7139 5135
7140 60
7140 2195
7140 3050
7140 5237
7141 117
7141 2266
7141 2951
7141 5172
7142 35
7142 2185
7142 3048
7142 5216
7143 123
7143 2297
7143 3051
7143 5223
7144 36
7144 2280
7144 3062
7144 5171
7145 91
7145 2186
7145 3045
7145 5193
7146 58
7146 2274
7146 2993
7146 5158
7147 66
7147 2190
7147 2991
7147 5155
7148 94
7148 2177
7148 2981
7148 5240
7149 11
7149 2283
7149 3066
7149 5177
7150 83
7150 2259
7150 2988
7150 5187
7151 95
7151 2270
7151 2947
7151 5143
7152 30
7152 2214
7152 3001
7152 5208
7153 45
7153 2292
7153 3034
7153 5181
7154 81
7154 2267
7154 3010
7154 5186
7155 76
7155 2225
7155 2983
7155 5145
7156 3
7156 2278
7156 2968
7156 5150
7157 29
7157 2272
7157 2960
7157 5132
7158 39
7158 2189
7158 2959
7158 5225
7159 97
7159 2233
7159 3059
7159 5242
7160 42
7160 2299
7160 2958
7160 5238
7161 25
7161 2227
7161 3020
7161 5184
7162 23
7162 2184
7162 2966
7162 5236
7163 86
7163 2220
7163 3031
7163 5124
7164 19
7164 2247
7164 3070
7164 5210
7165 102
7165 2236
7165 3017
7165 5153
7166 62
7166 2223
7166 2946
7166 5148
7167 1
7167 2188
7167 3007
7167 5214
7168 236
7168 2329
7168 3190
7168 5288
7169 254
7169 2388
7169 3102
7169 5305
7170 227
7170 2401
7170 3164
7170 5263
7171 186
7171 2358
7171 3088
7171 5360
7172 155
7172 2351
7172 3137
7172 5375
7173 207
7173 2326
7173 3119
7173 5343
7174 148
7174 2349
7174 3160
7174 5342
7175 194
7175 2341
7175 3122
7175 5265
7176 160
7176 2313
7176 3126
7176 5297
7177 224
7177 2374
7177 3108
7177 5301
7178 210
7178 2396
7178 3183
7178 5355
7179 232
7179 2376
7179 3145
7179 5338
7180 220
7180 2337
7180 3128
7180 5337
7181 131
7181 2379
7181 3163
7181 5273
7182 201
7182 2375
7182 3161
7182 5334
7183 226
7183 2386
7183 3184
7183 5366
7184 181
7184 2317
7184 3167
7184 5300
7185 251
7185 2334
7185 3127
7185 5285
7186 209
7186 2371
7186 3075
7186 5353
7187 247
7187 2406
7187 3147
7187 5258
7188 183
7188 2347
7188 3197
7188 5281
7189 137
7189 2429
7189 3153
7189 5260
7190 154
7190 2391
7190 3168
7190 5322
7191 145
7191 2408
7191 3138
7191 5340
7192 202
7192 2431
7192 3124
7192 5370
7193 158
7193 2422
7193 3112
7193 5314
7194 130
7194 2331
7194 3157
7194 5275
7195 222
7195 2390
7195 3185
7195 5319
7196 255
7196 2348
7196 3149
7196 5373
7197 204
7197 2322
7197 3099
7197 5307
7198 235
7198 2345
7198 3077
7198 5372
7199 169
7199 2381
7199 3166
7199 5254
7200 197
7200 2370
7200 3181
7200 5344
7201 195
7201 2333
7201 3142
7201 5359
7202 246
7202 2399
7202 3120
7202 5304
7203 221
7203 2402
7203 3155
7203 5356
7204 170
7204 2420
7204 3151
7204 5248
7205 193
7205 2403
7205 3135
7205 5268
7206 182
7206 2387
7206 3116
7206 5308
7207 199
7207 2413
7207 3194
7207 5286
7208 218
7208 2427
7208 3093
7208 5266
7209 191
7209 2378
7209 3107
7209 5255
7210 225
7210 2400
7210 3175
7210 5295
7211 184
7211 2411
7211 3178
7211 5287
7212 172
7212 2367
7212 3080
7212 5253
7213 219
7213 2369
7213 3172
7213 5326
7214 152
7214 2339
7214 3100
7214 5302
7215 241
7215 2330
7215 3152
7215 5262
7216 242
7216 2393
7216 3196
7216 5282
7217 200
7217 2366
7217 3073
7217 5362
7218 147
7218 2363
7218 3094
7218 5323
7219 138
7219 2405
7219 3176
7219 5274
7220 135
7220 2373
7220 3117
7220 5293
7221 250
7221 2343
7221 3089
7221 5324
7222 243
7222 2395
7222 3125
7222 5294
7223 132
7223 2352
7223 3103
7223 5332
7224 177
7224 2428
7224 3192
7224 5298
7225 140
7225 2338
7225 3169
7225 5291
7226 196
7226 2423
7226 3097
7226 5354
7227 233
7227 2308
7227 3141
7227 5328
7228 153
7228 2315
7228 3095
7228 5349
7229 244
7229 2304
7229 3188
7229 5339
7230 205
7230 2404
7230 3084
7230 5367
7231 150
7231 2424
7231 3091
7231 5361
7232 223
7232 2350
7232 3130
7232 5321
7233 159
7233 2336
7233 3173
7233 5364
7234 208
7234 2365
7234 3150
7234 5283
7235 215
7235 2407
7235 3131
7235 5251
7236 212
7236 2382
7236 3198
7236 5249
7237 142
7237 2324
7237 3180
7237 5267
7238 198
7238 2316
7238 3139
7238 5261
7239 237
7239 2346
7239 3144
7239 5284
7240 168
7240 2412
7240 3148
7240 5320
7241 134
7241 2362
7241 3187
7241 5252
7242 180
7242 2312
7242 3078
7242 5290
7243 146
7243 2425
7243 3146
7243 5250
7244 229
7244 2410
7244 3083
7244 5277
7245 213
7245 2353
7245 3133
7245 5330
7246 187
7246 2361
7246 3193
7246 5317
7247 161
7247 2389
7247 3106
7247 5257
7248 162
7248 2372
7248 3179
7248 5329
7249 214
7249 2305
7249 3081
7249 5276
7250 252
7250 2392
7250 3191
7250 5352
7251 216
7251 2342
7251 3136
7251 5318
7252 176
7252 2360
7252 3170
7252 5289
7253 139
7253 2380
7253 3162
7253 5309
7254 185
7254 2354
7254 3165
7254 5333
7255 217
7255 2397
7255 3101
7255 5357
7256 238
7256 2383
7256 3115
7256 5313
7257 149
7257 2327
7257 3076
7257 5363
7258 167
7258 2325
7258 3105
7258 5303
7259 188
7259 2418
7259 3195
7259 5325
7260 143
7260 2377
7260 3199
7260 5358
7261 249
7261 2323
7261 3143
7261 5350
7262 179
7262 2364
7262 3092
7262 5335
7263 248
7263 2309
7263 3082
7263 5347
7264 231
7264 2398
7264 3104
7264 5312
7265 144
7265 2311
7265 3098
7265 5296
7266 234
7266 2419
7266 3171
7266 5365
7267 240
7267 2394
7267 3159
7267 5269
7268 230
7268 2320
7268 3121
7268 5299
7269 175
7269 2426
7269 3132
7269 5315
7270 171
7270 2340
7270 3186
7270 5280
7271 165
7271 2430
7271 3189
7271 5369
7272 141
7272 2328
7272 3109
7272 5327
7273 239
7273 2335
7273 3086
7273 5331
7274 173
7274 2319
7274 3090
7274 5292
7275 189
7275 2356
7275 3182
7275 5346
7276 178
7276 2318
7276 3096
7276 5259
7277 163
7277 2409
7277 3134
7277 5270
7278 192
7278 2421
7278 3156
7278 5279
7279 164
7279 2321
7279 3074
7279 5351
7280 129
7280 2344
7280 3174
7280 5310
7281 245
7281 2385
7281 3111
7281 5341
7282 190
7282 2332
7282 3158
7282 5272
7283 228
7283 2357
7283 3140
7283 5371
7284 157
7284 2310
7284 3110
7284 5345
7285 128
7285 2314
7285 3114
7285 5311
7286 151
7286 2384
7286 3154
7286 5256
7287 253
7287 2415
7287 3085
7287 5374
7288 206
7288 2416
7288 3113
7288 5271
7289 211
7289 2414
7289 3123
7289 5264
7290 174
7290 2368
7290 3072
7290 5348
7291 133
7291 2359
7291 3118
7291 5316
7292 156
7292 2306
7292 3129
7292 5336
7293 136
7293 2355
7293 3177
7293 5306
7294 166
7294 2417
7294 3079
7294 5278
7295 203
7295 2307
7295 3087
7295 5368
7296 369
7296 2524
7296 3272
7296 5479
7297 367
7297 2433
7297 3226
7297 5443
7298 278
7298 2548
7298 3276
7298 5382
7299 260
7299 2557
7299 3201
7299 5410
7300 311
7300 2436
7300 3268
7300 5434
7301 256
7301 2469
7301 3209
7301 5468
7302 349
7302 2457
7302 3204
7302 5494
7303 277
7303 2440
7303 3251
7303 5491
7304 300
7304 2446
7304 3219
7304 5478
7305 305
7305 2435
7305 3215
7305 5389
7306 288
7306 2462
7306 3247
7306 5481
7307 332
7307 2540
7307 3320
7307 5394
7308 264
7308 2543
7308 3224
7308 5489
7309 375
7309 2556
7309 3210
7309 5457
7310 271
7310 2527
7310 3267
7310 5401
7311 348
7311 2493
7311 3265
7311 5460
7312 359
7312 2500
7312 3217
7312 5396
7313 322
7313 2546
7313 3236
7313 5463
7314 299
7314 2502
7314 3298
7314 5428
7315 302
7315 2494
7315 3241
7315 5405
7316 342
7316 2525
7316 3299
7316 5461
7317 283
7317 2437
7317 3238
7317 5503
7318 320
7318 2518
7318 3303
7318 5378
7319 273
7319 2517
7319 3260
7319 5388
7320 308
7320 2554
7320 3288
7320 5488
7321 287
7321 2454
7321 3295
7321 5501
7322 353
7322 2438
7322 3235
7322 5421
7323 379
7323 2466
7323 3315
7323 5398
7324 319
7324 2551
7324 3312
7324 5412
7325 340
7325 2514
7325 3252
7325 5448
7326 304
7326 2510
7326 3324
7326 5446
7327 274
7327 2506
7327 3310
7327 5407
7328 314
7328 2513
7328 3307
7328 5435
7329 266
7329 2535
7329 3302
7329 5465
7330 275
7330 2476
7330 3212
7330 5420
7331 265
7331 2553
7331 3271
7331 5432
7332 310
7332 2449
7332 3296
7332 5486
7333 289
7333 2532
7333 3266
7333 5424
7334 312
7334 2485
7334 3256
7334 5430
7335 337
7335 2452
7335 3289
7335 5416
7336 303
7336 2479
7336 3223
7336 5487
7337 258
7337 2443
7337 3222
7337 5464
7338 296
7338 2484
7338 3327
7338 5483
7339 270
7339 2487
7339 3297
7339 5441
7340 338
7340 2519
7340 3228
7340 5381
7341 376
7341 2450
7341 3261
7341 5453
7342 282
7342 2441
7342 3208
7342 5403
7343 285
7343 2522
7343 3205
7343 5395
7344 315
7344 2547
7344 3254
7344 5458
7345 317
7345 2489
7345 3286
7345 5439
7346 334
7346 2499
7346 3242
7346 5473
7347 373
7347 2507
7347 3326
7347 5467
7348 259
7348 2477
7348 3319
7348 5404
7349 324
7349 2501
7349 3308
7349 5490
7350 352
7350 2523
7350 3250
7350 5462
7351 263
7351 2533
7351 3294
7351 5397
7352 272
7352 2538
7352 3282
7352 5447
7353 301
7353 2456
7353 3214
7353 5427
7354 323
7354 2504
7354 3246
7354 5496
7355 284
7355 2508
7355 3281
7355 5415
7356 344
7356 2464
7356 3325
7356 5390
7357 329
7357 2531
7357 3232
7357 5484
7358 309
7358 2559
7358 3280
7358 5436
7359 371
7359 2432
7359 3202
7359 5385
7360 370
7360 2552
7360 3244
7360 5440
7361 281
7361 2434
7361 3304
7361 5400
7362 331
7362 2491
7362 3216
7362 5406
7363 364
7363 2486
7363 3278
7363 5492
7364 345
7364 2474
7364 3301
7364 5459
7365 293
7365 2512
7365 3309
7365 5474
7366 307
7366 2534
7366 3253
7366 5469
7367 343
7367 2481
7367 3290
7367 5399
7368 354
7368 2468
7368 3311
7368 5472
7369 297
7369 2516
7369 3277
7369 5402
7370 298
7370 2461
7370 3262
7370 5485
7371 368
7371 2541
7371 3229
7371 5456
7372 339
7372 2521
7372 3291
7372 5383
7373 356
7373 2447
7373 3231
7373 5419
7374 294
7374 2453
7374 3321
7374 5422
7375 347
7375 2445
7375 3200
7375 5431
7376 341
7376 2488
7376 3285
7376 5423
7377 313
7377 2439
7377 3273
7377 5470
7378 383
7378 2442
7378 3220
7378 5498
7379 276
7379 2536
7379 3257
7379 5477
7380 290
7380 2497
7380 3259
7380 5414
7381 318
7381 2473
7381 3248
7381 5409
7382 279
7382 2555
7382 3316
7382 5411
7383 267
7383 2470
7383 3292
7383 5451
7384 326
7384 2530
7384 3237
7384 5437
7385 362
7385 2498
7385 3284
7385 5426
7386 358
7386 2467
7386 3317
7386 5497
7387 330
7387 2539
7387 3287
7387 5408
7388 351
7388 2509
7388 3270
7388 5425
7389 346
7389 2465
7389 3243
7389 5384
7390 257
7390 2451
7390 3258
7390 5482
7391 355
7391 2549
7391 3234
7391 5455
7392 262
7392 2550
7392 3211
7392 5444
7393 361
7393 2529
7393 3218
7393 5429
7394 280
7394 2495
7394 3264
7394 5442
7395 365
7395 2458
7395 3305
7395 5480
7396 306
7396 2503
7396 3225
7396 5379
7397 291
7397 2463
7397 3318
7397 5380
7398 366
7398 2511
7398 3213
7398 5499
7399 360
7399 2520
7399 3293
7399 5502
7400 325
7400 2492
7400 3269
7400 5386
7401 380
7401 2459
7401 3274
7401 5493
7402 269
7402 2542
7402 3255
7402 5387
7403 381
7403 2544
7403 3249
7403 5454
7404 295
7404 2472
7404 3313
7404 5377
7405 357
7405 2483
7405 3283
7405 5413
7406 378
7406 2460
7406 3233
7406 5495
7407 268
7407 2444
7407 3206
7407 5391
7408 327
7408 2545
7408 3221
7408 5392
7409 336
7409 2471
7409 3203
7409 5449
7410 335
7410 2478
7410 3306
7410 5418
7411 374
7411 2505
7411 3314
7411 5471
7412 350
7412 2496
7412 3323
7412 5417
7413 286
7413 2448
7413 3240
7413 5452
7414 333
7414 2537
7414 3279
7414 5376
7415 261
7415 2558
7415 3245
7415 5500
7416 321
7416 2482
7416 3275
7416 5438
7417 382
7417 2515
7417 3300
7417 5393
7418 372
7418 2480
7418 3207
7418 5476
7419 363
7419 2490
7419 3230
7419 5475
7420 328
7420 2528
7420 3263
7420 5433
7421 316
7421 2455
7421 3239
7421 5450
7422 292
7422 2526
7422 3227
7422 5466
7423 377
7423 2475
7423 3322
7423 5445
7424 388
7424 2588
7424 3333
7424 5578
7425 406
7425 2678
7425 3366
7425 5517
7426 451
7426 2682
7426 3365
7426 5557
7427 432
7427 2658
7427 3356
7427 5627
7428 481
7428 2624
7428 3434
7428 5573
7429 457
7429 2575
7429 3400
7429 5506
7430 493
7430 2560
7430 3415
7430 5537
7431 487
7431 2581
7431 3410
7431 5551
7432 444
7432 2650
7432 3396
7432 5518
7433 408
7433 2618
7433 3381
7433 5576
7434 395
7434 2630
7434 3367
7434 5505
7435 443
7435 2566
7435 3442
7435 5527
7436 502
7436 2608
7436 3421
7436 5579
7437 389
7437 2561
7437 3364
7437 5611
7438 387
7438 2683
7438 3344
7438 5541
7439 423
7439 2684
7439 3336
7439 5533
7440 511
7440 2667
7440 3449
7440 5602
7441 471
7441 2574
7441 3454
7441 5574
7442 490
7442 2629
7442 3347
7442 5604
7443 434
7443 2580
7443 3455
7443 5582
7444 500
7444 2573
7444 3398
7444 5608
7445 446
7445 2643
7445 3406
7445 5522
7446 501
7446 2607
7446 3452
7446 5614
7447 449
7447 2603
7447 3430
7447 5562
7448 414
7448 2680
7448 3369
7448 5561
7449 509
7449 2617
7449 3450
7449 5575
7450 407
7450 2611
7450 3416
7450 5515
7451 385
7451 2564
7451 3331
7451 5599
7452 384
7452 2639
7452 3352
7452 5549
7453 462
7453 2602
7453 3351
7453 5545
7454 505
7454 2663
7454 3328
7454 5603
7455 510
7455 2628
7455 3386
7455 5520
7456 472
7456 2677
7456 3405
7456 5600
7457 482
7457 2668
7457 3436
7457 5601
7458 454
7458 2600
7458 3428
7458 5547
7459 397
7459 2614
7459 3388
7459 5532
7460 439
7460 2585
7460 3446
7460 5613
7461 427
7461 2605
7461 3423
7461 5624
7462 401
7462 2648
7462 3393
7462 5507
7463 467
7463 2571
7463 3368
7463 5588
7464 440
7464 2673
7464 3414
7464 5523
7465 506
7465 2562
7465 3380
7465 5531
7466 452
7466 2636
7466 3391
7466 5559
7467 437
7467 2572
7467 3376
7467 5577
7468 400
7468 2641
7468 3339
7468 5540
7469 425
7469 2674
7469 3342
7469 5628
7470 496
7470 2591
7470 3433
7470 5513
7471 392
7471 2623
7471 3371
7471 5536
7472 442
7472 2613
7472 3354
7472 5594
7473 480
7473 2651
7473 3441
7473 5525
7474 474
7474 2646
7474 3348
7474 5616
7475 498
7475 2632
7475 3426
7475 5630
7476 441
7476 2599
7476 3448
7476 5605
7477 447
7477 2637
7477 3411
7477 5543
7478 484
7478 2563
7478 3408
7478 5619
7479 420
7479 2622
7479 3435
7479 5625
7480 494
7480 2578
7480 3341
7480 5595
7481 485
7481 2627
7481 3432
7481 5530
7482 465
7482 2594
7482 3397
7482 5546
7483 469
7483 2652
7483 3350
7483 5556
7484 415
7484 2604
7484 3419
7484 5572
7485 429
7485 2612
7485 3330
7485 5629
7486 405
7486 2565
7486 3385
7486 5526
7487 409
7487 2576
7487 3404
7487 5508
7488 507
7488 2577
7488 3440
7488 5554
7489 413
7489 2656
7489 3338
7489 5609
7490 436
7490 2619
7490 3362
7490 5617
7491 495
7491 2587
7491 3373
7491 5528
7492 426
7492 2620
7492 3378
7492 5584
7493 412
7493 2671
7493 3355
7493 5591
7494 398
7494 2626
7494 3349
7494 5560
7495 503
7495 2675
7495 3390
7495 5510
7496 475
7496 2653
7496 3361
7496 5521
7497 416
7497 2592
7497 3360
7497 5615
7498 488
7498 2672
7498 3437
7498 5524
7499 456
7499 2615
7499 3409
7499 5598
7500 459
7500 2616
7500 3418
7500 5519
7501 402
7501 2597
7501 3431
7501 5539
7502 393
7502 2649
7502 3422
7502 5542
7503 455
7503 2595
7503 3399
7503 5516
7504 445
7504 2582
7504 3395
7504 5509
7505 468
7505 2685
7505 3375
7505 5631
7506 476
7506 2570
7506 3346
7506 5610
7507 419
7507 2638
7507 3394
7507 5504
7508 479
7508 2642
7508 3377
7508 5552
7509 492
7509 2657
7509 3374
7509 5590
7510 477
7510 2601
7510 3417
7510 5618
7511 478
7511 2634
7511 3439
7511 5586
7512 418
7512 2568
7512 3425
7512 5567
7513 486
7513 2625
7513 3429
7513 5558
7514 448
7514 2644
7514 3447
7514 5621
7515 463
7515 2664
7515 3445
7515 5620
7516 466
7516 2645
7516 3382
7516 5568
7517 499
7517 2666
7517 3402
7517 5606
7518 453
7518 2659
7518 3372
7518 5544
7519 489
7519 2676
7519 3444
7519 5612
7520 428
7520 2598
7520 3407
7520 5597
7521 497
7521 2662
7521 3379
7521 5583
7522 431
7522 2633
7522 3403
7522 5596
7523 394
7523 2584
7523 3384
7523 5581
7524 504
7524 2679
7524 3424
7524 5571
7525 483
7525 2596
7525 3359
7525 5570
7526 461
7526 2661
7526 3340
7526 5535
7527 430
7527 2567
7527 3363
7527 5622
7528 450
7528 2593
7528 3353
7528 5564
7529 404
7529 2655
7529 3413
7529 5538
7530 435
7530 2583
7530 3329
7530 5534
7531 473
7531 2686
7531 3443
7531 5555
7532 438
7532 2606
7532 3332
7532 5607
7533 399
7533 2681
7533 3412
7533 5589
7534 391
7534 2621
7534 3335
7534 5550
7535 390
7535 2654
7535 3420
7535 5511
7536 458
7536 2579
7536 3453
7536 5566
7537 421
7537 2687
7537 3343
7537 5565
7538 396
7538 2589
7538 3451
7538 5592
7539 386
7539 2670
7539 3389
7539 5563
7540 460
7540 2610
7540 3345
7540 5587
7541 464
7541 2647
7541 3358
7541 5580
7542 508
7542 2586
7542 3383
7542 5529
7543 411
7543 2569
7543 3392
7543 5514
7544 410
7544 2590
7544 3357
7544 5593
7545 417
7545 2631
7545 3387
7545 5623
7546 424
7546 2669
7546 3337
7546 5569
7547 422
7547 2665
7547 3438
7547 5512
7548 491
7548 2609
7548 3334
7548 5553
7549 433
7549 2640
7549 3401
7549 5626
7550 403
7550 2635
7550 3427
7550 5548
7551 470
7551 2660
7551 3370
7551 5585
7552 596
7552 2798
7552 3561
7552 4296
7553 580
7553 2735
7553 3508
7553 4240
7554 521
7554 2799
7554 3522
7554 4282
7555 517
7555 2733
7555 3572
7555 4241
7556 594
7556 2789
7556 3496
7556 4348
7557 625
7557 2718
7557 3537
7557 4312
7558 528
7558 2688
7558 3552
7558 4226
7559 635
7559 2709
7559 3540
7559 4333
7560 598
7560 2788
7560 3485
7560 4322
7561 561
7561 2763
7561 3523
7561 4299
7562 571
7562 2808
7562 3491
7562 4341
7563 583
7563 2719
7563 3487
7563 4262
7564 514
7564 2702
7564 3546
7564 4247
7565 638
7565 2755
7565 3549
7565 4304
7566 541
7566 2780
7566 3469
7566 4298
7567 589
7567 2728
7567 3481
7567 4231
7568 556
7568 2786
7568 3475
7568 4339
7569 610
7569 2776
7569 3488
7569 4287
7570 599
7570 2802
7570 3526
7570 4291
7571 593
7571 2758
7571 3551
7571 4276
7572 546
7572 2745
7572 3478
7572 4271
7573 518
7573 2738
7573 3558
7573 4321
7574 628
7574 2769
7574 3568
7574 4278
7575 626
7575 2772
7575 3563
7575 4309
7576 627
7576 2809
7576 3559
7576 4336
7577 563
7577 2811
7577 3530
7577 4255
7578 526
7578 2726
7578 3479
7578 4332
7579 620
7579 2724
7579 3564
7579 4228
7580 595
7580 2766
7580 3507
7580 4345
7581 512
7581 2805
7581 3542
7581 4248
7582 551
7582 2753
7582 3482
7582 4295
7583 615
7583 2711
7583 3480
7583 4318
7584 515
7584 2707
7584 3466
7584 4308
7585 581
7585 2773
7585 3534
7585 4254
7586 519
7586 2790
7586 3483
7586 4314
7587 585
7587 2750
7587 3575
7587 4310
7588 588
7588 2800
7588 3515
7588 4328
7589 531
7589 2768
7589 3580
7589 4279
7590 562
7590 2712
7590 3582
7590 4244
7591 606
7591 2710
7591 3502
7591 4273
7592 523
7592 2812
7592 3524
7592 4327
7593 524
7593 2754
7593 3489
7593 4234
7594 572
7594 2701
7594 3459
7594 4315
7595 522
7595 2715
7595 3547
7595 4313
7596 574
7596 2784
7596 3557
7596 4337
7597 597
7597 2716
7597 3460
7597 4238
7598 565
7598 2752
7598 3501
7598 4251
7599 609
7599 2734
7599 3556
7599 4280
7600 604
7600 2760
7600 3562
7600 4293
7601 602
7601 2737
7601 3517
7601 4301
7602 567
7602 2764
7602 3458
7602 4340
7603 637
7603 2761
7603 3577
7603 4288
7604 527
7604 2774
7604 3457
7604 4306
7605 632
7605 2731
7605 3541
7605 4334
7606 636
7606 2767
7606 3510
7606 4285
7607 613
7607 2806
7607 3461
7607 4257
7608 570
7608 2722
7608 3494
7608 4302
7609 555
7609 2787
7609 3550
7609 4316
7610 533
7610 2691
7610 3573
7610 4275
7611 592
7611 2797
7611 3571
7611 4320
7612 605
7612 2792
7612 3579
7612 4303
7613 623
7613 2759
7613 3467
7613 4229
7614 557
7614 2801
7614 3566
7614 4330
7615 550
7615 2810
7615 3499
7615 4252
7616 535
7616 2741
7616 3518
7616 4350
7617 607
7617 2695
7617 3468
7617 4264
7618 545
7618 2725
7618 3474
7618 4265
7619 559
7619 2700
7619 3505
7619 4272
7620 624
7620 2720
7620 3553
7620 4323
7621 538
7621 2714
7621 3539
7621 4347
7622 578
7622 2814
7622 3497
7622 4266
7623 573
7623 2747
7623 3532
7623 4268
7624 576
7624 2689
7624 3545
7624 4335
7625 600
7625 2807
7625 3463
7625 4224
7626 634
7626 2749
7626 3495
7626 4250
7627 630
7627 2778
7627 3535
7627 4311
7628 564
7628 2697
7628 3512
7628 4294
7629 540
7629 2746
7629 3565
7629 4249
7630 622
7630 2815
7630 3525
7630 4338
7631 631
7631 2696
7631 3533
7631 4349
7632 586
7632 2779
7632 3506
7632 4286
7633 603
7633 2785
7633 3516
7633 4270
7634 558
7634 2704
7634 3462
7634 4253
7635 537
7635 2729
7635 3536
7635 4305
7636 560
7636 2765
7636 3529
7636 4281
7637 590
7637 2739
7637 3528
7637 4232
7638 618
7638 2813
7638 3470
7638 4325
7639 543
7639 2723
7639 3574
7639 4259
7640 569
7640 2692
7640 3471
7640 4284
7641 617
7641 2748
7641 3511
7641 4242
7642 582
7642 2698
7642 3486
7642 4274
7643 554
7643 2703
7643 3514
7643 4227
7644 619
7644 2762
7644 3503
7644 4342
7645 568
7645 2796
7645 3490
7645 4346
7646 612
7646 2699
7646 3465
7646 4297
7647 629
7647 2693
7647 3484
7647 4319
7648 525
7648 2770
7648 3569
7648 4283
7649 547
7649 2783
7649 3504
7649 4245
7650 601
7650 2732
7650 3570
7650 4351
7651 577
7651 2751
7651 3576
7651 4289
7652 608
7652 2771
7652 3456
7652 4277
7653 534
7653 2727
7653 3544
7653 4324
7654 549
7654 2791
7654 3500
7654 4343
7655 633
7655 2713
7655 3560
7655 4256
7656 616
7656 2782
7656 3581
7656 4225
7657 532
7657 2690
7657 3472
7657 4317
7658 591
7658 2706
7658 3531
7658 4329
7659 587
7659 2743
7659 3509
7659 4230
7660 536
7660 2730
7660 3548
7660 4331
7661 575
7661 2717
7661 3493
7661 4236
7662 639
7662 2795
7662 3538
7662 4258
7663 539
7663 2736
7663 3476
7663 4307
7664 611
7664 2775
7664 3492
7664 4261
7665 553
7665 2803
7665 3473
7665 4300
7666 529
7666 2781
7666 3567
7666 4292
7667 520
7667 2793
7667 3464
7667 4290
7668 548
7668 2705
7668 3578
7668 4260
7669 542
7669 2721
7669 3498
7669 4326
7670 552
7670 2694
7670 3527
7670 4239
7671 621
7671 2794
7671 3555
7671 4263
7672 579
7672 2744
7672 3543
7672 4243
7673 513
7673 2740
7673 3583
7673 4246
7674 584
7674 2804
7674 3513
7674 4233
7675 566
7675 2777
7675 3519
7675 4269
7676 544
7676 2756
7676 3520
7676 4235
7677 516
7677 2757
7677 3477
7677 4237
7678 614
7678 2708
7678 3554
7678 4344
7679 530
7679 2742
7679 3521
7679 4267
7680 720
7680 1518
7680 3685
7680 4391
7681 711
7681 1430
7681 3674
7681 4366
7682 683
7682 1411
7682 3703
7682 4377
7683 675
7683 1428
7683 3676
7683 4384
7684 723
7684 1524
7684 3707
7684 4422
7685 766
7685 1531
7685 3688
7685 4466
7686 674
7686 1442
7686 3658
7686 4409
7687 760
7687 1431
7687 3599
7687 4469
7688 731
7688 1437
7688 3595
7688 4382
7689 754
7689 1517
7689 3613
7689 4449
7690 733
7690 1421
7690 3642
7690 4396
7691 745
7691 1479
7691 3678
7691 4402
7692 641
7692 1444
7692 3660
7692 4360
7693 648
7693 1478
7693 3694
7693 4420
7694 738
7694 1472
7694 3603
7694 4450
7695 678
7695 1484
7695 3683
7695 4462
7696 762
7696 1412
7696 3639
7696 4458
7697 761
7697 1471
7697 3640
7697 4374
7698 642
7698 1480
7698 3596
7698 4456
7699 709
7699 1516
7699 3687
7699 4417
7700 739
7700 1494
7700 3593
7700 4368
7701 667
7701 1454
7701 3656
7701 4425
7702 657
7702 1510
7702 3588
7702 4451
7703 669
7703 1525
7703 3709
7703 4426
7704 684
7704 1420
7704 3597
7704 4463
7705 658
7705 1492
7705 3619
7705 4372
7706 699
7706 1512
7706 3637
7706 4373
7707 748
7707 1456
7707 3621
7707 4424
7708 688
7708 1414
7708 3664
7708 4412
7709 747
7709 1408
7709 3672
7709 4380
7710 689
7710 1511
7710 3645
7710 4427
7711 649
7711 1438
7711 3630
7711 4364
7712 651
7712 1533
7712 3669
7712 4447
7713 730
7713 1501
7713 3681
7713 4478
7714 697
7714 1439
7714 3634
7714 4362
7715 735
7715 1534
7715 3641
7715 4378
7716 721
7716 1468
7716 3636
7716 4408
7717 728
7717 1476
7717 3697
7717 4437
7718 729
7718 1440
7718 3708
7718 4479
7719 716
7719 1477
7719 3587
7719 4397
7720 643
7720 1469
7720 3609
7720 4452
7721 673
7721 1502
7721 3584
7721 4359
7722 663
7722 1521
7722 3625
7722 4476
7723 718
7723 1443
7723 3655
7723 4403
7724 742
7724 1419
7724 3635
7724 4413
7725 701
7725 1491
7725 3651
7725 4445
7726 662
7726 1429
7726 3592
7726 4401
7727 763
7727 1509
7727 3700
7727 4442
7728 677
7728 1535
7728 3601
7728 4388
7729 664
7729 1482
7729 3689
7729 4464
7730 698
7730 1505
7730 3617
7730 4376
7731 693
7731 1526
7731 3585
7731 4455
7732 704
7732 1532
7732 3611
7732 4429
7733 751
7733 1474
7733 3610
7733 4406
7734 741
7734 1515
7734 3702
7734 4470
7735 737
7735 1410
7735 3633
7735 4438
7736 758
7736 1493
7736 3686
7736 4419
7737 660
7737 1495
7737 3612
7737 4443
7738 712
7738 1519
7738 3652
7738 4454
7739 654
7739 1504
7739 3699
7739 4441
7740 665
7740 1488
7740 3647
7740 4367
7741 695
7741 1530
7741 3670
7741 4448
7742 652
7742 1499
7742 3644
7742 4411
7743 681
7743 1415
7743 3591
7743 4355
7744 685
7744 1475
7744 3638
7744 4415
7745 682
7745 1457
7745 3614
7745 4390
7746 653
7746 1490
7746 3706
7746 4477
7747 724
7747 1413
7747 3649
7747 4473
7748 646
7748 1417
7748 3673
7748 4385
7749 722
7749 1496
7749 3598
7749 4370
7750 710
7750 1497
7750 3650
7750 4352
7751 713
7751 1451
7751 3666
7751 4432
7752 670
7752 1455
7752 3710
7752 4468
7753 715
7753 1498
7753 3606
7753 4354
7754 753
7754 1448
7754 3643
7754 4439
7755 694
7755 1507
7755 3627
7755 4387
7756 696
7756 1425
7756 3622
7756 4423
7757 690
7757 1470
7757 3620
7757 4358
7758 650
7758 1416
7758 3667
7758 4392
7759 736
7759 1453
7759 3615
7759 4414
7760 727
7760 1418
7760 3665
7760 4394
7761 764
7761 1464
7761 3696
7761 4418
7762 707
7762 1489
7762 3684
7762 4467
7763 749
7763 1486
7763 3659
7763 4389
7764 692
7764 1523
7764 3646
7764 4357
7765 726
7765 1458
7765 3589
7765 4461
7766 640
7766 1433
7766 3695
7766 4353
7767 714
7767 1426
7767 3605
7767 4404
7768 752
7768 1450
7768 3632
7768 4361
7769 666
7769 1503
7769 3704
7769 4444
7770 757
7770 1424
7770 3661
7770 4400
7771 686
7771 1465
7771 3608
7771 4459
7772 725
7772 1441
7772 3631
7772 4375
7773 680
7773 1514
7773 3657
7773 4465
7774 644
7774 1445
7774 3690
7774 4399
7775 676
7775 1513
7775 3705
7775 4428
7776 656
7776 1409
7776 3616
7776 4395
7777 691
7777 1487
7777 3590
7777 4416
7778 756
7778 1449
7778 3711
7778 4381
7779 734
7779 1467
7779 3628
7779 4471
7780 672
7780 1527
7780 3693
7780 4446
7781 700
7781 1446
7781 3604
7781 4453
7782 647
7782 1522
7782 3677
7782 4379
7783 702
7783 1506
7783 3653
7783 4386
7784 740
7784 1466
7784 3600
7784 4363
7785 703
7785 1434
7785 3602
7785 4460
7786 706
7786 1436
7786 3662
7786 4433
7787 705
7787 1500
7787 3607
7787 4405
7788 744
7788 1473
7788 3618
7788 4472
7789 708
7789 1459
7789 3626
7789 4407
7790 679
7790 1461
7790 3671
7790 4383
7791 719
7791 1508
7791 3594
7791 4369
7792 767
7792 1432
7792 3680
7792 4431
7793 759
7793 1520
7793 3668
7793 4430
7794 659
7794 1460
7794 3698
7794 4371
7795 717
7795 1447
7795 3623
7795 4393
7796 661
7796 1452
7796 3663
7796 4436
7797 755
7797 1529
7797 3701
7797 4440
7798 687
7798 1423
7798 3675
7798 4421
7799 743
7799 1422
7799 3654
7799 4398
7800 668
7800 1463
7800 3629
7800 4475
7801 645
7801 1483
7801 3679
7801 4356
7802 655
7802 1435
7802 3691
7802 4474
7803 765
7803 1485
7803 3682
7803 4434
7804 671
7804 1528
7804 3624
7804 4457
7805 750
7805 1462
7805 3692
7805 4365
7806 746
7806 1427
7806 3648
7806 4435
7807 732
7807 1481
7807 3586
7807 4410
7808 851
7808 1632
7808 3798
7808 4557
7809 778
7809 1577
7809 3727
7809 4499
7810 771
7810 1641
7810 3768
7810 4588
7811 891
7811 1655
7811 3788
7811 4607
7812 895
7812 1617
7812 3830
7812 4593
7813 799
7813 1564
7813 3745
7813 4501
7814 883
7814 1585
7814 3777
7814 4541
7815 797
7815 1566
7815 3837
7815 4514
7816 894
7816 1547
7816 3721
7816 4544
7817 805
7817 1582
7817 3832
7817 4526
7818 855
7818 1610
7818 3756
7818 4511
7819 840
7819 1627
7819 3790
7819 4562
7820 809
7820 1572
7820 3716
7820 4595
7821 859
7821 1553
7821 3726
7821 4518
7822 823
7822 1631
7822 3785
7822 4529
7823 865
7823 1594
7823 3810
7823 4524
7824 846
7824 1536
7824 3800
7824 4487
7825 870
7825 1624
7825 3725
7825 4498
7826 772
7826 1640
7826 3828
7826 4516
7827 850
7827 1592
7827 3831
7827 4590
7828 798
7828 1619
7828 3748
7828 4538
7829 888
7829 1575
7829 3791
7829 4601
7830 806
7830 1595
7830 3780
7830 4549
7831 843
7831 1541
7831 3808
7831 4568
7832 824
7832 1599
7832 3820
7832 4586
7833 787
7833 1657
7833 3712
7833 4517
7834 802
7834 1563
7834 3827
7834 4500
7835 807
7835 1554
7835 3818
7835 4545
7836 774
7836 1548
7836 3792
7836 4512
7837 775
7837 1588
7837 3764
7837 4592
7838 868
7838 1569
7838 3715
7838 4502
7839 842
7839 1608
7839 3751
7839 4527
7840 808
7840 1555
7840 3819
7840 4509
7841 849
7841 1580
7841 3740
7841 4606
7842 835
7842 1549
7842 3797
7842 4554
7843 816
7843 1648
7843 3734
7843 4482
7844 773
7844 1584
7844 3728
7844 4605
7845 788
7845 1633
7845 3730
7845 4481
7846 854
7846 1574
7846 3823
7846 4508
7847 777
7847 1629
7847 3816
7847 4536
7848 828
7848 1568
7848 3812
7848 4585
7849 864
7849 1590
7849 3799
7849 4575
7850 879
7850 1591
7850 3801
7850 4584
7851 811
7851 1546
7851 3805
7851 4546
7852 819
7852 1604
7852 3719
7852 4561
7853 885
7853 1583
7853 3839
7853 4497
7854 892
7854 1579
7854 3755
7854 4552
7855 770
7855 1620
7855 3838
7855 4488
7856 875
7856 1614
7856 3781
7856 4555
7857 866
7857 1606
7857 3739
7857 4484
7858 801
7858 1573
7858 3787
7858 4521
7859 817
7859 1545
7859 3742
7859 4492
7860 877
7860 1570
7860 3802
7860 4597
7861 869
7861 1639
7861 3759
7861 4550
7862 874
7862 1561
7862 3774
7862 4583
7863 810
7863 1550
7863 3772
7863 4505
7864 837
7864 1567
7864 3737
7864 4525
7865 782
7865 1557
7865 3736
7865 4515
7866 873
7866 1650
7866 3758
7866 4603
7867 780
7867 1556
7867 3826
7867 4577
7868 813
7868 1543
7868 3779
7868 4566
7869 793
7869 1540
7869 3807
7869 4480
7870 863
7870 1612
7870 3793
7870 4581
7871 884
7871 1662
7871 3760
7871 4547
7872 779
7872 1642
7872 3829
7872 4548
7873 826
7873 1635
7873 3825
7873 4580
7874 822
7874 1652
7874 3720
7874 4565
7875 815
7875 1551
7875 3769
7875 4599
7876 878
7876 1578
7876 3789
7876 4594
7877 804
7877 1654
7877 3834
7877 4582
7878 856
7878 1558
7878 3776
7878 4558
7879 839
7879 1637
7879 3767
7879 4539
7880 783
7880 1613
7880 3743
7880 4602
7881 790
7881 1638
7881 3750
7881 4600
7882 834
7882 1602
7882 3757
7882 4596
7883 844
7883 1661
7883 3744
7883 4522
7884 814
7884 1587
7884 3771
7884 4495
7885 831
7885 1562
7885 3718
7885 4573
7886 800
7886 1559
7886 3835
7886 4579
7887 829
7887 1630
7887 3714
7887 4533
7888 794
7888 1644
7888 3761
7888 4567
7889 784
7889 1659
7889 3723
7889 4491
7890 889
7890 1618
7890 3822
7890 4564
7891 776
7891 1589
7891 3786
7891 4569
7892 876
7892 1615
7892 3803
7892 4572
7893 882
7893 1625
7893 3775
7893 4494
7894 827
7894 1636
7894 3738
7894 4486
7895 841
7895 1552
7895 3813
7895 4519
7896 803
7896 1596
7896 3784
7896 4485
7897 768
7897 1616
7897 3763
7897 4604
7898 786
7898 1593
7898 3795
7898 4507
7899 821
7899 1544
7899 3762
7899 4534
7900 890
7900 1611
7900 3752
7900 4493
7901 893
7901 1565
7901 3713
7901 4503
7902 853
7902 1653
7902 3796
7902 4598
7903 886
7903 1647
7903 3836
7903 4530
7904 836
7904 1576
7904 3765
7904 4532
7905 847
7905 1645
7905 3821
7905 4490
7906 792
7906 1626
7906 3733
7906 4591
7907 781
7907 1560
7907 3815
7907 4578
7908 820
7908 1598
7908 3724
7908 4553
7909 796
7909 1621
7909 3833
7909 4560
7910 881
7910 1539
7910 3746
7910 4576
7911 852
7911 1597
7911 3804
7911 4563
7912 795
7912 1538
7912 3778
7912 4528
7913 838
7913 1628
7913 3731
7913 4570
7914 867
7914 1646
7914 3773
7914 4587
7915 858
7915 1571
7915 3770
7915 4543
7916 818
7916 1663
7916 3747
7916 4513
7917 862
7917 1651
7917 3824
7917 4510
7918 887
7918 1660
7918 3732
7918 4523
7919 845
7919 1586
7919 3809
7919 4535
7920 789
7920 1601
7920 3814
7920 4531
7921 832
7921 1656
7921 3794
7921 4589
7922 833
7922 1623
7922 3722
7922 4506
7923 785
7923 1622
7923 3717
7923 4489
7924 872
7924 1537
7924 3753
7924 4520
7925 812
7925 1600
7925 3782
7925 4559
7926 880
7926 1607
7926 3811
7926 4483
7927 848
7927 1643
7927 3806
7927 4537
7928 830
7928 1605
7928 3741
7928 4551
7929 861
7929 1649
7929 3817
7929 4556
7930 871
7930 1634
7930 3783
7930 4496
7931 857
7931 1658
7931 3735
7931 4542
7932 791
7932 1609
7932 3729
7932 4574
7933 825
7933 1581
7933 3749
7933 4571
7934 769
7934 1603
7934 3766
7934 4540
7935 860
7935 1542
7935 3754
7935 4504
7936 927
7936 1728
7936 3867
7936 4642
7937 926
7937 1691
7937 3963
7937 4655
7938 910
7938 1737
7938 3883
7938 4629
7939 1001
7939 1766
7939 3869
7939 4722
7940 945
7940 1733
7940 3950
7940 4709
7941 951
7941 1714
7941 3953
7941 4700
7942 914
7942 1770
7942 3872
7942 4680
7943 980
7943 1740
7943 3915
7943 4636
7944 1021
7944 1782
7944 3907
7944 4627
7945 968
7945 1711
7945 3897
7945 4668
7946 993
7946 1743
7946 3965
7946 4715
7947 989
7947 1730
7947 3942
7947 4634
7948 1012
7948 1734
7948 3840
7948 4632
7949 969
7949 1674
7949 3887
7949 4716
7950 939
7950 1763
7950 3898
7950 4665
7951 1002
7951 1685
7951 3909
7951 4675
7952 970
7952 1716
7952 3925
7952 4706
7953 928
7953 1693
7953 3944
7953 4685
7954 901
7954 1707
7954 3873
7954 4669
7955 953
7955 1756
7955 3884
7955 4628
7956 1016
7956 1672
7956 3845
7956 4625
7957 905
7957 1735
7957 3964
7957 4720
7958 964
7958 1739
7958 3957
7958 4693
7959 965
7959 1750
7959 3966
7959 4729
7960 943
7960 1692
7960 3919
7960 4696
7961 1017
7961 1671
7961 3939
7961 4703
7962 921
7962 1699
7962 3936
7962 4648
7963 896
7963 1764
7963 3854
7963 4652
7964 992
7964 1675
7964 3949
7964 4662
7965 938
7965 1687
7965 3954
7965 4710
7966 981
7966 1784
7966 3914
7966 4631
7967 1020
7967 1721
7967 3847
7967 4689
7968 918
7968 1710
7968 3842
7968 4651
7969 912
7969 1680
7969 3861
7969 4697
7970 913
7970 1696
7970 3866
7970 4611
7971 979
7971 1722
7971 3941
7971 4646
7972 974
7972 1684
7972 3927
7972 4659
7973 949
7973 1729
7973 3928
7973 4630
7974 933
7974 1769
7974 3853
7974 4656
7975 941
7975 1678
7975 3893
7975 4643
7976 971
7976 1719
7976 3932
7976 4645
7977 908
7977 1749
7977 3958
7977 4708
7978 920
7978 1703
7978 3931
7978 4723
7979 1015
7979 1771
7979 3901
7979 4661
7980 984
7980 1732
7980 3924
7980 4691
7981 961
7981 1720
7981 3850
7981 4619
7982 1010
7982 1666
7982 3955
7982 4725
7983 934
7983 1783
7983 3959
7983 4726
7984 1005
7984 1726
7984 3948
7984 4637
7985 944
7985 1723
7985 3892
7985 4728
7986 1006
7986 1753
7986 3922
7986 4719
7987 897
7987 1681
7987 3923
7987 4623
7988 903
7988 1725
7988 3926
7988 4702
7989 959
7989 1694
7989 3947
7989 4734
7990 990
7990 1702
7990 3886
7990 4705
7991 1008
7991 1713
7991 3879
7991 4721
7992 1009
7992 1774
7992 3844
7992 4638
7993 1003
7993 1775
7993 3951
7993 4653
7994 924
7994 1786
7994 3875
7994 4624
7995 916
7995 1689
7995 3846
7995 4654
7996 977
7996 1787
7996 3899
7996 4718
7997 898
7997 1676
7997 3900
7997 4615
7998 955
7998 1701
7998 3848
7998 4674
7999 947
7999 1751
7999 3918
7999 4712
8000 942
8000 1744
8000 3868
8000 4639
8001 904
8001 1690
8001 3890
8001 4617
8002 987
8002 1667
8002 3859
8002 4727
8003 1022
8003 1698
8003 3864
8003 4666
8004 972
8004 1718
8004 3956
8004 4647
8005 1019
8005 1670
8005 3912
8005 4692
8006 996
8006 1781
8006 3852
8006 4610
8007 988
8007 1731
8007 3960
8007 4676
8008 1000
8008 1748
8008 3876
8008 4644
8009 966
8009 1773
8009 3857
8009 4731
8010 923
8010 1785
8010 3849
8010 4620
8011 1018
8011 1736
8011 3967
8011 4678
8012 976
8012 1738
8012 3905
8012 4664
8013 997
8013 1708
8013 3894
8013 4686
8014 983
8014 1665
8014 3908
8014 4714
8015 1004
8015 1747
8015 3943
8015 4717
8016 991
8016 1745
8016 3962
8016 4711
8017 906
8017 1688
8017 3863
8017 4671
8018 915
8018 1717
8018 3910
8018 4641
8019 956
8019 1706
8019 3860
8019 4704
8020 948
8020 1779
8020 3856
8020 4613
8021 935
8021 1705
8021 3881
8021 4699
8022 967
8022 1790
8022 3895
8022 4663
8023 1013
8023 1746
8023 3891
8023 4732
8024 902
8024 1682
8024 3858
8024 4683
8025 929
8025 1788
8025 3952
8025 4622
8026 952
8026 1727
8026 3933
8026 4667
8027 899
8027 1754
8027 3880
8027 4679
8028 975
8028 1697
8028 3917
8028 4609
8029 940
8029 1712
8029 3938
8029 4735
8030 985
8030 1767
8030 3841
8030 4682
8031 957
8031 1755
8031 3934
8031 4687
8032 1023
8032 1768
8032 3920
8032 4730
8033 950
8033 1683
8033 3961
8033 4657
8034 907
8034 1758
8034 3911
8034 4698
8035 982
8035 1686
8035 3874
8035 4612
8036 946
8036 1679
8036 3902
8036 4616
8037 978
8037 1709
8037 3851
8037 4618
8038 958
8038 1700
8038 3855
8038 4707
8039 1011
8039 1780
8039 3843
8039 4688
8040 973
8040 1791
8040 3878
8040 4713
8041 922
8041 1778
8041 3870
8041 4626
8042 995
8042 1742
8042 3865
8042 4608
8043 931
8043 1715
8043 3930
8043 4614
8044 937
8044 1752
8044 3921
8044 4650
8045 936
8045 1664
8045 3906
8045 4621
8046 911
8046 1789
8046 3896
8046 4724
8047 1007
8047 1757
8047 3937
8047 4672
8048 962
8048 1776
8048 3940
8048 4677
8049 925
8049 1741
8049 3888
8049 4690
8050 954
8050 1772
8050 3913
8050 4695
8051 994
8051 1668
8051 3889
8051 4640
8052 930
8052 1704
8052 3871
8052 4649
8053 909
8053 1669
8053 3929
8053 4684
8054 960
8054 1673
8054 3903
8054 4660
8055 900
8055 1761
8055 3877
8055 4681
8056 999
8056 1759
8056 3946
8056 4701
8057 986
8057 1765
8057 3916
8057 4673
8058 917
8058 1777
8058 3885
8058 4633
8059 1014
8059 1762
8059 3882
8059 4694
8060 919
8060 1695
8060 3935
8060 4670
8061 998
8061 1677
8061 3862
8061 4733
8062 963
8062 1760
8062 3904
8062 4635
8063 932
8063 1724
8063 3945
8063 4658
8064 1151
8064 1919
8064 4010
8064 4849
8065 1126
8065 1802
8065 4085
8065 4816
8066 1108
8066 1859
8066 3988
8066 4809
8067 1067
8067 1803
8067 4006
8067 4837
8068 1068
8068 1873
8068 4073
8068 4859
8069 1150
8069 1861
8069 4035
8069 4783
8070 1086
8070 1888
8070 4064
8070 4751
8071 1134
8071 1891
8071 3973
8071 4760
8072 1149
8072 1824
8072 4007
8072 4772
8073 1120
8073 1870
8073 3985
8073 4855
8074 1144
8074 1840
8074 4051
8074 4838
8075 1052
8075 1823
8075 3987
8075 4775
8076 1096
8076 1853
8076 4020
8076 4848
8077 1062
8077 1881
8077 4049
8077 4756
8078 1091
8078 1911
8078 4089
8078 4779
8079 1046
8079 1878
8079 4022
8079 4790
8080 1092
8080 1871
8080 4039
8080 4736
8081 1145
8081 1851
8081 4093
8081 4795
8082 1079
8082 1912
8082 3969
8082 4764
8083 1138
8083 1838
8083 4002
8083 4847
8084 1102
8084 1877
8084 4070
8084 4802
8085 1087
8085 1832
8085 4075
8085 4777
8086 1107
8086 1909
8086 4078
8086 4758
8087 1095
8087 1806
8087 4083
8087 4752
8088 1136
8088 1865
8088 4016
8088 4776
8089 1037
8089 1884
8089 4053
8089 4845
8090 1081
8090 1855
8090 4033
8090 4738
8091 1044
8091 1798
8091 3992
8091 4853
8092 1132
8092 1807
8092 4061
8092 4823
8093 1111
8093 1841
8093 4044
8093 4831
8094 1070
8094 1889
8094 4058
8094 4832
8095 1033
8095 1897
8095 4063
8095 4754
8096 1050
8096 1847
8096 4034
8096 4780
8097 1142
8097 1905
8097 3971
8097 4740
8098 1116
8098 1862
8098 4090
8098 4825
8099 1117
8099 1903
8099 4012
8099 4812
8100 1135
8100 1814
8100 3975
8100 4778
8101 1133
8101 1818
8101 3995
8101 4768
8102 1076
8102 1820
8102 4054
8102 4747
8103 1038
8103 1843
8103 4032
8103 4762
8104 1071
8104 1904
8104 4047
8104 4852
8105 1143
8105 1829
8105 3981
8105 4815
8106 1104
8106 1906
8106 3996
8106 4858
8107 1031
8107 1883
8107 3983
8107 4769
8108 1099
8108 1856
8108 3977
8108 4793
8109 1105
8109 1834
8109 4072
8109 4798
8110 1129
8110 1913
8110 4091
8110 4797
8111 1045
8111 1845
8111 4015
8111 4744
8112 1041
8112 1890
8112 4038
8112 4851
8113 1054
8113 1901
8113 3976
8113 4746
8114 1147
8114 1875
8114 4052
8114 4828
8115 1098
8115 1804
8115 4021
8115 4800
8116 1125
8116 1876
8116 4019
8116 4748
8117 1063
8117 1810
8117 3999
8117 4803
8118 1082
8118 1836
8118 4079
8118 4774
8119 1146
8119 1830
8119 4077
8119 4862
8120 1069
8120 1842
8120 4024
8120 4814
8121 1100
8121 1849
8121 4046
8121 4835
8122 1027
8122 1880
8122 4048
8122 4839
8123 1114
8123 1895
8123 3986
8123 4807
8124 1093
8124 1872
8124 3980
8124 4861
8125 1112
8125 1808
8125 4031
8125 4842
8126 1088
8126 1828
8126 4003
8126 4833
8127 1122
8127 1886
8127 4009
8127 4834
8128 1124
8128 1801
8128 4057
8128 4811
8129 1083
8129 1896
8129 3979
8129 4801
8130 1141
8130 1846
8130 4028
8130 4784
8131 1128
8131 1844
8131 4036
8131 4826
8132 1056
8132 1916
8132 3970
8132 4854
8133 1074
8133 1795
8133 4026
8133 4799
8134 1123
8134 1800
8134 3974
8134 4805
8135 1118
8135 1815
8135 4037
8135 4821
8136 1043
8136 1885
8136 4081
8136 4755
8137 1039
8137 1915
8137 3990
8137 4841
8138 1084
8138 1917
8138 4018
8138 4829
8139 1042
8139 1894
8139 3997
8139 4840
8140 1060
8140 1816
8140 4062
8140 4792
8141 1029
8141 1813
8141 3978
8141 4820
8142 1075
8142 1809
8142 4043
8142 4763
8143 1077
8143 1854
8143 3984
8143 4782
8144 1051
8144 1892
8144 4040
8144 4750
8145 1032
8145 1910
8145 4005
8145 4737
8146 1026
8146 1848
8146 4023
8146 4824
8147 1048
8147 1914
8147 4056
8147 4819
8148 1115
8148 1907
8148 4071
8148 4765
8149 1131
8149 1812
8149 4094
8149 4796
8150 1025
8150 1796
8150 4092
8150 4843
8151 1127
8151 1799
8151 3972
8151 4766
8152 1024
8152 1860
8152 4087
8152 4830
8153 1078
8153 1898
8153 3998
8153 4863
8154 1139
8154 1899
8154 3991
8154 4753
8155 1101
8155 1805
8155 3993
8155 4836
8156 1090
8156 1825
8156 4000
8156 4781
8157 1028
8157 1850
8157 4084
8157 4767
8158 1073
8158 1879
8158 3989
8158 4860
8159 1148
8159 1908
8159 4008
8159 4810
8160 1140
8160 1887
8160 4011
8160 4804
8161 1110
8161 1866
8161 3968
8161 4786
8162 1094
8162 1792
8162 3982
8162 4745
8163 1085
8163 1858
8163 4076
8163 4770
8164 1061
8164 1831
8164 4001
8164 4818
8165 1097
8165 1839
8165 4045
8165 4739
8166 1057
8166 1819
8166 4030
8166 4757
8167 1064
8167 1827
8167 4004
8167 4813
8168 1036
8168 1857
8168 4082
8168 4787
8169 1080
8169 1869
8169 4088
8169 4773
8170 1058
8170 1900
8170 3994
8170 4844
8171 1049
8171 1826
8171 4086
8171 4822
8172 1035
8172 1918
8172 4069
8172 4857
8173 1130
8173 1893
8173 4067
8173 4806
8174 1066
8174 1863
8174 4027
8174 4788
8175 1030
8175 1821
8175 4068
8175 4759
8176 1055
8176 1864
8176 4095
8176 4785
8177 1106
8177 1874
8177 4029
8177 4749
8178 1109
8178 1852
8178 4014
8178 4846
8179 1034
8179 1794
8179 4050
8179 4791
8180 1103
8180 1793
8180 4059
8180 4741
8181 1047
8181 1817
8181 4080
8181 4743
8182 1059
8182 1868
8182 4025
8182 4856
8183 1119
8183 1835
8183 4013
8183 4808
8184 1113
8184 1822
8184 4060
8184 4771
8185 1065
8185 1882
8185 4055
8185 4789
8186 1121
8186 1902
8186 4065
8186 4761
8187 1089
8187 1867
8187 4017
8187 4794
8188 1072
8188 1797
8188 4042
8188 4742
8189 1040
8189 1833
8189 4074
8189 4850
8190 1053
8190 1837
8190 4066
8190 4817
8191 1137
8191 1811
8191 4041
8191 4827
8192 1204
8192 1954
8192 4188
8192 4894
8193 1195
8193 1934
8193 4097
8193 4913
8194 1217
8194 1949
8194 4115
8194 4923
8195 1272
8195 2009
8195 4122
8195 4883
8196 1249
8196 1948
8196 4203
8196 4976
8197 1251
8197 1965
8197 4104
8197 4917
8198 1229
8198 2005
8198 4170
8198 4925
8199 1176
8199 1951
8199 4113
8199 4903
8200 1211
8200 2031
8200 4124
8200 4906
8201 1183
8201 1958
8201 4173
8201 4884
8202 1248
8202 1935
8202 4160
8202 4910
8203 1242
8203 2035
8203 4117
8203 4902
8204 1188
8204 1980
8204 4212
8204 4899
8205 1219
8205 1973
8205 4177
8205 4881
8206 1255
8206 1921
8206 4206
8206 4865
8207 1247
8207 2029
8207 4197
8207 4870
8208 1207
8208 1964
8208 4112
8208 4866
8209 1240
8209 2014
8209 4148
8209 4990
8210 1209
8210 2030
8210 4183
8210 4867
8211 1243
8211 1969
8211 4101
8211 4892
8212 1230
8212 1988
8212 4105
8212 4876
8213 1274
8213 1925
8213 4151
8213 4874
8214 1233
8214 1957
8214 4195
8214 4929
8215 1278
8215 2040
8215 4200
8215 4890
8216 1174
8216 1927
8216 4116
8216 4897
8217 1212
8217 2021
8217 4211
8217 4945
8218 1238
8218 1932
8218 4182
8218 4973
8219 1223
8219 2032
8219 4134
8219 4933
8220 1173
8220 1974
8220 4098
8220 4957
8221 1152
8221 2042
8221 4130
8221 4882
8222 1236
8222 1960
8222 4194
8222 4877
8223 1168
8223 1962
8223 4110
8223 4886
8224 1239
8224 1989
8224 4137
8224 4889
8225 1181
8225 2018
8225 4135
8225 4980
8226 1194
8226 1931
8226 4180
8226 4875
8227 1200
8227 1979
8227 4185
8227 4984
8228 1213
8228 1929
8228 4103
8228 4938
8229 1273
8229 1955
8229 4106
8229 4955
8230 1244
8230 1975
8230 4119
8230 4891
8231 1163
8231 1950
8231 4202
8231 4939
8232 1259
8232 2016
8232 4199
8232 4979
8233 1161
8233 2004
8233 4189
8233 4895
8234 1265
8234 1920
8234 4196
8234 4983
8235 1275
8235 2023
8235 4201
8235 4941
8236 1222
8236 2045
8236 4102
8236 4982
8237 1192
8237 1978
8237 4179
8237 4946
8238 1153
8238 2043
8238 4175
8238 4930
8239 1165
8239 2006
8239 4114
8239 4970
8240 1185
8240 1966
8240 4216
8240 4887
8241 1156
8241 1944
8241 4162
8241 4959
8242 1262
8242 2020
8242 4156
8242 4963
8243 1172
8243 1938
8243 4158
8243 4934
8244 1261
8244 1998
8244 4143
8244 4956
8245 1268
8245 2034
8245 4127
8245 4947
8246 1221
8246 2011
8246 4100
8246 4943
8247 1250
8247 1963
8247 4120
8247 4960
8248 1178
8248 1930
8248 4155
8248 4954
8249 1225
8249 1924
8249 4217
8249 4958
8250 1171
8250 1947
8250 4129
8250 4967
8251 1235
8251 1996
8251 4096
8251 4919
8252 1154
8252 1940
8252 4213
8252 4885
8253 1245
8253 2046
8253 4145
8253 4952
8254 1257
8254 2044
8254 4107
8254 4989
8255 1157
8255 2013
8255 4191
8255 4968
8256 1164
8256 2003
8256 4111
8256 4909
8257 1160
8257 1997
8257 4184
8257 4985
8258 1159
8258 2038
8258 4221
8258 4879
8259 1170
8259 2026
8259 4121
8259 4931
8260 1216
8260 2008
8260 4205
8260 4921
8261 1202
8261 1942
8261 4118
8261 4900
8262 1203
8262 1987
8262 4146
8262 4962
8263 1218
8263 1945
8263 4171
8263 4873
8264 1264
8264 2039
8264 4186
8264 4878
8265 1237
8265 1926
8265 4139
8265 4935
8266 1190
8266 1976
8266 4208
8266 4901
8267 1258
8267 2017
8267 4178
8267 4977
8268 1224
8268 2001
8268 4133
8268 4920
8269 1246
8269 1923
8269 4128
8269 4911
8270 1271
8270 1992
8270 4215
8270 4987
8271 1191
8271 1986
8271 4163
8271 4927
8272 1210
8272 1933
8272 4138
8272 4961
8273 1206
8273 1991
8273 4123
8273 4948
8274 1180
8274 1928
8274 4219
8274 4898
8275 1196
8275 1953
8275 4222
8275 4915
8276 1253
8276 1922
8276 4210
8276 4872
8277 1227
8277 2015
8277 4108
8277 4974
8278 1186
8278 1970
8278 4166
8278 4907
8279 1214
8279 1985
8279 4153
8279 4949
8280 1232
8280 1952
8280 4168
8280 4924
8281 1155
8281 1971
8281 4126
8281 4966
8282 1270
8282 2022
8282 4204
8282 4926
8283 1226
8283 2033
8283 4187
8283 4940
8284 1254
8284 2002
8284 4125
8284 4936
8285 1158
8285 2037
8285 4181
8285 4950
8286 1256
8286 1981
8286 4169
8286 4871
8287 1201
8287 1939
8287 4136
8287 4986
8288 1162
8288 1977
8288 4176
8288 4868
8289 1187
8289 2025
8289 4164
8289 4971
8290 1277
8290 2041
8290 4154
8290 4964
8291 1177
8291 1943
8291 4149
8291 4912
8292 1167
8292 1983
8292 4165
8292 4953
8293 1228
8293 2028
8293 4172
8293 4896
8294 1279
8294 1984
8294 4218
8294 4905
8295 1198
8295 2019
8295 4132
8295 4988
8296 1189
8296 1937
8296 4207
8296 4981
8297 1175
8297 2012
8297 4209
8297 4944
8298 1166
8298 2036
8298 4152
8298 4914
8299 1208
8299 1936
8299 4142
8299 4880
8300 1263
8300 1941
8300 4144
8300 4991
8301 1220
8301 2047
8301 4167
8301 4893
8302 1260
8302 1967
8302 4159
8302 4975
8303 1276
8303 2000
8303 4198
8303 4918
8304 1267
8304 1999
8304 4109
8304 4978
8305 1252
8305 1968
8305 4174
8305 4916
8306 1231
8306 1959
8306 4141
8306 4972
8307 1269
8307 2024
8307 4157
8307 4869
8308 1241
8308 1982
8308 4150
8308 4965
8309 1266
8309 1961
8309 4192
8309 4888
8310 1184
8310 1993
8310 4140
8310 4864
8311 1234
8311 1994
8311 4193
8311 4908
8312 1182
8312 1990
8312 4190
8312 4951
8313 1193
8313 2027
8313 4214
8313 4928
8314 1205
8314 1946
8314 4223
8314 4969
8315 1169
8315 1995
8315 4161
8315 4922
8316 1215
8316 2007
8316 4099
8316 4932
8317 1197
8317 1956
8317 4220
8317 4904
8318 1179
8318 2010
8318 4147
8318 4942
8319 1199
8319 1972
8319 4131
8319 4937
8320 1324
8320 2105
8320 2942
8320 5051
8321 1306
8321 2100
8321 2847
8321 5061
8322 1379
8322 2124
8322 2923
8322 5005
8323 1383
8323 2149
8323 2865
8323 5036
8324 1299
8324 2076
8324 2874
8324 5031
8325 1392
8325 2159
8325 2889
8325 5118
8326 1303
8326 2141
8326 2823
8326 5034
8327 1339
8327 2145
8327 2861
8327 5101
8328 1327
8328 2167
8328 2877
8328 4998
8329 1334
8329 2130
8329 2869
8329 5027
8330 1399
8330 2162
8330 2833
8330 5023
8331 1290
8331 2164
8331 2838
8331 5119
8332 1403
8332 2131
8332 2937
8332 5016
8333 1365
8333 2107
8333 2918
8333 5012
8334 1308
8334 2102
8334 2896
8334 5055
8335 1386
8335 2120
8335 2933
8335 5090
8336 1377
8336 2087
8336 2820
8336 5030
8337 1387
8337 2096
8337 2898
8337 5024
8338 1361
8338 2114
8338 2840
8338 5049
8339 1381
8339 2084
8339 2914
8339 5077
8340 1364
8340 2086
8340 2906
8340 5064
8341 1311
8341 2150
8341 2828
8341 5081
8342 1406
8342 2071
8342 2904
8342 5113
8343 1358
8343 2169
8343 2842
8343 5112
8344 1340
8344 2104
8344 2930
8344 5001
8345 1345
8345 2173
8345 2875
8345 4995
8346 1371
8346 2158
8346 2888
8346 5106
8347 1385
8347 2152
8347 2883
8347 5086
8348 1337
8348 2067
8348 2829
8348 5052
8349 1351
8349 2098
8349 2916
8349 5062
8350 1321
8350 2078
8350 2830
8350 5017
8351 1283
8351 2081
8351 2919
8351 5114
8352 1369
8352 2062
8352 2819
8352 5084
8353 1342
8353 2117
8353 2940
8353 5050
8354 1294
8354 2112
8354 2834
8354 5044
8355 1355
8355 2052
8355 2827
8355 5026
8356 1380
8356 2157
8356 2816
8356 5076
8357 1335
8357 2053
8357 2887
8357 5108
8358 1398
8358 2093
8358 2848
8358 5004
8359 1350
8359 2110
8359 2851
8359 5025
8360 1391
8360 2069
8360 2856
8360 5088
8361 1400
8361 2154
8361 2927
8361 5003
8362 1376
8362 2142
8362 2872
8362 5066
8363 1288
8363 2135
8363 2845
8363 5100
8364 1285
8364 2134
8364 2878
8364 5089
8365 1300
8365 2082
8365 2938
8365 5098
8366 1367
8366 2163
8366 2915
8366 5037
8367 1302
8367 2097
8367 2880
8367 4994
8368 1310
8368 2138
8368 2910
8368 5019
8369 1373
8369 2136
8369 2858
8369 4999
8370 1329
8370 2050
8370 2885
8370 5093
8371 1382
8371 2057
8371 2864
8371 5056
8372 1407
8372 2172
8372 2881
8372 5021
8373 1322
8373 2118
8373 2939
8373 5043
8374 1346
8374 2092
8374 2903
8374 5007
8375 1295
8375 2140
8375 2839
8375 5041
8376 1388
8376 2065
8376 2876
8376 5058
8377 1313
8377 2119
8377 2931
8377 5013
8378 1384
8378 2146
8378 2929
8378 4996
8379 1353
8379 2101
8379 2837
8379 5069
8380 1372
8380 2079
8380 2868
8380 5015
8381 1330
8381 2161
8381 2843
8381 4993
8382 1280
8382 2123
8382 2817
8382 5083
8383 1293
8383 2088
8383 2928
8383 5022
8384 1395
8384 2051
8384 2935
8384 5105
8385 1281
8385 2174
8385 2897
8385 5000
8386 1363
8386 2072
8386 2911
8386 5032
8387 1314
8387 2059
8387 2871
8387 5018
8388 1319
8388 2126
8388 2824
8388 5079
8389 1298
8389 2074
8389 2934
8389 5116
8390 1390
8390 2073
8390 2902
8390 5095
8391 1349
8391 2061
8391 2841
8391 5063
8392 1404
8392 2168
8392 2852
8392 5110
8393 1323
8393 2090
8393 2844
8393 5035
8394 1375
8394 2133
8394 2857
8394 5111
8395 1317
8395 2075
8395 2836
8395 5038
8396 1282
8396 2170
8396 2890
8396 5087
8397 1393
8397 2175
8397 2892
8397 5074
8398 1296
8398 2160
8398 2894
8398 5065
8399 1286
8399 2106
8399 2909
8399 5109
8400 1297
8400 2089
8400 2825
8400 5046
8401 1402
8401 2127
8401 2886
8401 5103
8402 1354
8402 2058
8402 2908
8402 5078
8403 1356
8403 2099
8403 2920
8403 5033
8404 1389
8404 2171
8404 2899
8404 5009
8405 1396
8405 2066
8405 2905
8405 5054
8406 1316
8406 2139
8406 2832
8406 5107
8407 1368
8407 2128
8407 2924
8407 4992
8408 1405
8408 2166
8408 2831
8408 5040
8409 1325
8409 2113
8409 2860
8409 5097
8410 1333
8410 2055
8410 2818
8410 5057
8411 1360
8411 2095
8411 2850
8411 5117
8412 1338
8412 2132
8412 2932
8412 5006
8413 1348
8413 2147
8413 2854
8413 5092
8414 1307
8414 2070
8414 2853
8414 5070
8415 1312
8415 2091
8415 2895
8415 5082
8416 1359
8416 2129
8416 2870
8416 5002
8417 1292
8417 2143
8417 2866
8417 5010
8418 1357
8418 2108
8418 2882
8418 5053
8419 1328
8419 2115
8419 2846
8419 5008
8420 1309
8420 2060
8420 2826
8420 5068
8421 1284
8421 2048
8421 2873
8421 5028
8422 1326
8422 2063
8422 2859
8422 5047
8423 1370
8423 2054
8423 2855
8423 5014
8424 1397
8424 2125
8424 2835
8424 5042
8425 1320
8425 2094
8425 2821
8425 5072
8426 1352
8426 2077
8426 2943
8426 5094
8427 1336
8427 2137
8427 2901
8427 5071
8428 1304
8428 2111
8428 2893
8428 5080
8429 1344
8429 2085
8429 2917
8429 5104
8430 1401
8430 2144
8430 2891
8430 5073
8431 1343
8431 2151
8431 2922
8431 5045
8432 1332
8432 2116
8432 2921
8432 5067
8433 1362
8433 2083
8433 2913
8433 5075
8434 1366
8434 2049
8434 2941
8434 5102
8435 1291
8435 2056
8435 2925
8435 5059
8436 1331
8436 2064
8436 2926
8436 5085
8437 1341
8437 2148
8437 2879
8437 5060
8438 1374
8438 2109
8438 2849
8438 5011
8439 1318
8439 2155
8439 2862
8439 5048
8440 1289
8440 2121
8440 2867
8440 5099
8441 1305
8441 2156
8441 2822
8441 4997
8442 1301
8442 2165
8442 2907
8442 5091
8443 1315
8443 2153
8443 2936
8443 5115
8444 1394
8444 2122
8444 2884
8444 5020
8445 1378
8445 2103
8445 2863
8445 5096
8446 1287
8446 2068
8446 2912
8446 5029
8447 1347
8447 2080
8447 2900
8447 5039
8448 67
8448 2099
8448 4187
8448 4843
8449 126
8449 2098
8449 4104
8449 4855
8450 32
8450 2171
8450 4182
8450 4817
8451 22
8451 2108
8451 4201
8451 4860
8452 90
8452 2064
8452 4170
8452 4745
8453 37
8453 2135
8453 4181
8453 4828
8454 3
8454 2157
8454 4167
8454 4747
8455 36
8455 2122
8455 4173
8455 4759
8456 26
8456 2158
8456 4163
8456 4847
8457 124
8457 2175
8457 4145
8457 4797
8458 87
8458 2082
8458 4098
8458 4772
8459 103
8459 2105
8459 4172
8459 4845
8460 105
8460 2117
8460 4107
8460 4755
8461 81
8461 2146
8461 4111
8461 4798
8462 2
8462 2050
8462 4154
8462 4776
8463 110
8463 2052
8463 4132
8463 4790
8464 27
8464 2166
8464 4105
8464 4852
8465 34
8465 2127
8465 4162
8465 4840
8466 66
8466 2084
8466 4147
8466 4818
8467 69
8467 2073
8467 4117
8467 4796
8468 71
8468 2156
8468 4189
8468 4761
8469 72
8469 2072
8469 4141
8469 4788
8470 39
8470 2063
8470 4221
8470 4808
8471 123
8471 2103
8471 4125
8471 4792
8472 7
8472 2100
8472 4212
8472 4856
8473 65
8473 2059
8473 4126
8473 4834
8474 54
8474 2154
8474 4148
8474 4767
8475 100
8475 2083
8475 4165
8475 4789
8476 116
8476 2174
8476 4209
8476 4749
8477 117
8477 2056
8477 4128
8477 4854
8478 93
8478 2128
8478 4109
8478 4835
8479 33
8479 2076
8479 4108
8479 4807
8480 5
8480 2131
8480 4113
8480 4795
8481 52
8481 2173
8481 4203
8481 4859
8482 85
8482 2071
8482 4137
8482 4744
8483 30
8483 2058
8483 4208
8483 4824
8484 88
8484 2110
8484 4204
8484 4793
8485 14
8485 2136
8485 4120
8485 4842
8486 44
8486 2065
8486 4116
8486 4739
8487 95
8487 2139
8487 4200
8487 4802
8488 96
8488 2162
8488 4153
8488 4833
8489 9
8489 2085
8489 4192
8489 4782
8490 23
8490 2134
8490 4210
8490 4737
8491 50
8491 2125
8491 4159
8491 4746
8492 61
8492 2077
8492 4186
8492 4862
8493 6
8493 2152
8493 4156
8493 4787
8494 45
8494 2163
8494 4112
8494 4766
8495 109
8495 2109
8495 4149
8495 4846
8496 83
8496 2062
8496 4193
8496 4849
8497 108
8497 2148
8497 4096
8497 4799
8498 104
8498 2106
8498 4151
8498 4829
8499 99
8499 2164
8499 4220
8499 4779
8500 62
8500 2092
8500 4217
8500 4777
8501 68
8501 2101
8501 4115
8501 4815
8502 12
8502 2144
8502 4168
8502 4778
8503 115
8503 2104
8503 4183
8503 4763
8504 53
8504 2053
8504 4171
8504 4810
8505 25
8505 2170
8505 4099
8505 4756
8506 121
8506 2112
8506 4176
8506 4812
8507 0
8507 2066
8507 4218
8507 4758
8508 64
8508 2161
8508 4214
8508 4803
8509 79
8509 2142
8509 4142
8509 4753
8510 70
8510 2057
8510 4097
8510 4762
8511 127
8511 2123
8511 4211
8511 4783
8512 82
8512 2149
8512 4130
8512 4784
8513 28
8513 2080
8513 4150
8513 4751
8514 56
8514 2172
8514 4131
8514 4736
8515 94
8515 2054
8515 4191
8515 4825
8516 112
8516 2115
8516 4185
8516 4841
8517 49
8517 2090
8517 4213
8517 4770
8518 114
8518 2086
8518 4138
8518 4811
8519 92
8519 2051
8519 4196
8519 4806
8520 58
8520 2138
8520 4179
8520 4827
8521 43
8521 2118
8521 4119
8521 4848
8522 38
8522 2079
8522 4140
8522 4838
8523 74
8523 2049
8523 4123
8523 4764
8524 18
8524 2093
8524 4199
8524 4741
8525 97
8525 2145
8525 4169
8525 4773
8526 1
8526 2143
8526 4102
8526 4768
8527 42
8527 2070
8527 4114
8527 4826
8528 111
8528 2048
8528 4146
8528 4861
8529 4
8529 2129
8529 4118
8529 4748
8530 41
8530 2067
8530 4178
8530 4801
8531 119
8531 2061
8531 4190
8531 4754
8532 17
8532 2150
8532 4202
8532 4743
8533 76
8533 2147
8533 4177
8533 4814
8534 15
8534 2091
8534 4152
8534 4851
8535 80
8535 2137
8535 4206
8535 4822
8536 113
8536 2133
8536 4188
8536 4831
8537 57
8537 2126
8537 4134
8537 4816
8538 75
8538 2055
8538 4103
8538 4853
8539 40
8539 2089
8539 4195
8539 4804
8540 8
8540 2168
8540 4180
8540 4844
8541 31
8541 2094
8541 4174
8541 4809
8542 106
8542 2107
8542 4121
8542 4760
8543 86
8543 2165
8543 4164
8543 4836
8544 77
8544 2141
8544 4101
8544 4800
8545 48
8545 2159
8545 4198
8545 4774
8546 11
8546 2153
8546 4124
8546 4820
8547 63
8547 2081
8547 4161
8547 4791
8548 101
8548 2111
8548 4166
8548 4786
8549 118
8549 2114
8549 4197
8549 4752
8550 55
8550 2097
8550 4100
8550 4781
8551 19
8551 2116
8551 4216
8551 4757
8552 122
8552 2074
8552 4139
8552 4850
8553 60
8553 2069
8553 4106
8553 4813
8554 20
8554 2068
8554 4155
8554 4742
8555 91
8555 2124
8555 4135
8555 4769
8556 59
8556 2121
8556 4144
8556 4775
8557 78
8557 2075
8557 4175
8557 4771
8558 89
8558 2096
8558 4207
8558 4858
8559 35
8559 2119
8559 4127
8559 4738
8560 120
8560 2087
8560 4129
8560 4839
8561 16
8561 2060
8561 4133
8561 4740
8562 21
8562 2102
8562 4122
8562 4750
8563 107
8563 2167
8563 4215
8563 4830
8564 47
8564 2095
8564 4194
8564 4780
8565 13
8565 2088
8565 4136
8565 4857
8566 102
8566 2169
8566 4205
8566 4785
8567 73
8567 2132
8567 4219
8567 4819
8568 51
8568 2130
8568 4110
8568 4863
8569 125
8569 2160
8569 4143
8569 4805
8570 24
8570 2155
8570 4157
8570 4837
8571 46
8571 2151
8571 4184
8571 4832
8572 98
8572 2113
8572 4158
8572 4821
8573 29
8573 2140
8573 4222
8573 4794
8574 84
8574 2078
8574 4223
8574 4765
8575 10
8575 2120
8575 4160
8575 4823
8576 130
8576 2255
8576 2915
8576 4973
8577 129
8577 2190
8577 2854
8577 4865
8578 207
8578 2250
8578 2904
8578 4879
8579 227
8579 2275
8579 2936
8579 4911
8580 195
8580 2205
8580 2859
8580 4946
8581 140
8581 2232
8581 2930
8581 4937
8582 172
8582 2180
8582 2873
8582 4917
8583 133
8583 2282
8583 2921
8583 4922
8584 252
8584 2297
8584 2939
8584 4905
8585 255
8585 2215
8585 2847
8585 4890
8586 184
8586 2286
8586 2889
8586 4903
8587 161
8587 2260
8587 2888
8587 4978
8588 152
8588 2178
8588 2890
8588 4889
8589 179
8589 2298
8589 2898
8589 4990
8590 182
8590 2185
8590 2855
8590 4954
8591 181
8591 2235
8591 2884
8591 4991
8592 186
8592 2274
8592 2928
8592 4940
8593 246
8593 2263
8593 2912
8593 4867
8594 202
8594 2183
8594 2920
8594 4918
8595 148
8595 2227
8595 2927
8595 4882
8596 142
8596 2176
8596 2909
8596 4928
8597 131
8597 2198
8597 2840
8597 4985
8598 136
8598 2253
8598 2923
8598 4970
8599 212
8599 2265
8599 2894
8599 4906
8600 250
8600 2223
8600 2825
8600 4884
8601 206
8601 2187
8601 2906
8601 4947
8602 226
8602 2294
8602 2919
8602 4987
8603 222
8603 2273
8603 2867
8603 4896
8604 234
8604 2242
8604 2932
8604 4961
8605 137
8605 2197
8605 2819
8605 4989
8606 211
8606 2206
8606 2938
8606 4949
8607 198
8607 2281
8607 2834
8607 4956
8608 219
8608 2231
8608 2851
8608 4904
8609 141
8609 2181
8609 2887
8609 4952
8610 170
8610 2245
8610 2902
8610 4872
8611 225
8611 2259
8611 2897
8611 4976
8612 165
8612 2291
8612 2933
8612 4914
8613 247
8613 2203
8613 2926
8613 4864
8614 168
8614 2262
8614 2816
8614 4883
8615 235
8615 2285
8615 2852
8615 4948
8616 144
8616 2182
8616 2872
8616 4874
8617 156
8617 2226
8617 2835
8617 4975
8618 169
8618 2270
8618 2886
8618 4919
8619 197
8619 2280
8619 2908
8619 4891
8620 192
8620 2261
8620 2857
8620 4963
8621 193
8621 2196
8621 2925
8621 4909
8622 163
8622 2301
8622 2817
8622 4931
8623 237
8623 2289
8623 2903
8623 4898
8624 216
8624 2300
8624 2853
8624 4960
8625 176
8625 2303
8625 2842
8625 4907
8626 199
8626 2200
8626 2901
8626 4977
8627 157
8627 2220
8627 2871
8627 4951
8628 201
8628 2186
8628 2843
8628 4908
8629 218
8629 2177
8629 2836
8629 4925
8630 128
8630 2216
8630 2830
8630 4913
8631 132
8631 2229
8631 2844
8631 4965
8632 188
8632 2299
8632 2841
8632 4964
8633 205
8633 2249
8633 2856
8633 4969
8634 220
8634 2271
8634 2839
8634 4881
8635 162
8635 2210
8635 2861
8635 4942
8636 191
8636 2240
8636 2942
8636 4921
8637 254
8637 2296
8637 2875
8637 4901
8638 164
8638 2283
8638 2929
8638 4886
8639 238
8639 2201
8639 2865
8639 4930
8640 147
8640 2254
8640 2883
8640 4927
8641 248
8641 2233
8641 2832
8641 4912
8642 150
8642 2278
8642 2893
8642 4941
8643 134
8643 2219
8643 2900
8643 4984
8644 190
8644 2269
8644 2905
8644 4933
8645 214
8645 2284
8645 2874
8645 4892
8646 167
8646 2199
8646 2848
8646 4888
8647 210
8647 2191
8647 2862
8647 4880
8648 200
8648 2224
8648 2870
8648 4899
8649 241
8649 2247
8649 2846
8649 4938
8650 160
8650 2279
8650 2837
8650 4876
8651 230
8651 2268
8651 2896
8651 4981
8652 208
8652 2208
8652 2934
8652 4868
8653 196
8653 2292
8653 2866
8653 4878
8654 249
8654 2222
8654 2864
8654 4873
8655 236
8655 2212
8655 2910
8655 4871
8656 229
8656 2217
8656 2895
8656 4929
8657 239
8657 2264
8657 2824
8657 4986
8658 253
8658 2193
8658 2891
8658 4902
8659 178
8659 2244
8659 2876
8659 4915
8660 231
8660 2239
8660 2879
8660 4944
8661 221
8661 2277
8661 2858
8661 4958
8662 224
8662 2272
8662 2845
8662 4934
8663 153
8663 2236
8663 2863
8663 4945
8664 185
8664 2302
8664 2941
8664 4924
8665 174
8665 2288
8665 2907
8665 4935
8666 143
8666 2267
8666 2881
8666 4893
8667 154
8667 2251
8667 2821
8667 4926
8668 215
8668 2293
8668 2918
8668 4972
8669 213
8669 2243
8669 2823
8669 4897
8670 151
8670 2234
8670 2913
8670 4950
8671 245
8671 2221
8671 2829
8671 4982
8672 180
8672 2256
8672 2937
8672 4870
8673 158
8673 2209
8673 2943
8673 4957
8674 175
8674 2179
8674 2916
8674 4959
8675 244
8675 2211
8675 2924
8675 4895
8676 243
8676 2214
8676 2860
8676 4979
8677 135
8677 2218
8677 2849
8677 4983
8678 217
8678 2194
8678 2831
8678 4894
8679 233
8679 2266
8679 2826
8679 4939
8680 204
8680 2248
8680 2892
8680 4971
8681 159
8681 2228
8681 2878
8681 4980
8682 228
8682 2290
8682 2827
8682 4869
8683 187
8683 2241
8683 2922
8683 4962
8684 209
8684 2276
8684 2820
8684 4953
8685 173
8685 2295
8685 2882
8685 4966
8686 183
8686 2204
8686 2935
8686 4916
8687 203
8687 2202
8687 2880
8687 4885
8688 145
8688 2184
8688 2940
8688 4866
8689 166
8689 2257
8689 2828
8689 4875
8690 171
8690 2230
8690 2822
8690 4932
8691 251
8691 2192
8691 2869
8691 4988
8692 223
8692 2258
8692 2931
8692 4936
8693 155
8693 2189
8693 2818
8693 4923
8694 194
8694 2188
8694 2914
8694 4943
8695 240
8695 2195
8695 2868
8695 4968
8696 242
8696 2237
8696 2911
8696 4974
8697 232
8697 2252
8697 2917
8697 4955
8698 149
8698 2225
8698 2877
8698 4887
8699 177
8699 2287
8699 2899
8699 4920
8700 138
8700 2246
8700 2885
8700 4967
8701 139
8701 2213
8701 2838
8701 4877
8702 146
8702 2238
8702 2850
8702 4910
8703 189
8703 2207
8703 2833
8703 4900
8704 287
8704 2333
8704 3060
8704 5057
8705 275
8705 2309
8705 2960
8705 5014
8706 361
8706 2416
8706 3042
8706 5041
8707 335
8707 2375
8707 3043
8707 5040
8708 341
8708 2399
8708 2973
8708 5012
8709 362
8709 2426
8709 3017
8709 5080
8710 379
8710 2338
8710 2967
8710 5078
8711 256
8711 2372
8711 2975
8711 5092
8712 295
8712 2392
8712 2964
8712 4992
8713 304
8713 2310
8713 2987
8713 5109
8714 278
8714 2381
8714 2990
8714 5061
8715 322
8715 2404
8715 3002
8715 5020
8716 264
8716 2313
8716 3062
8716 5072
8717 266
8717 2352
8717 3028
8717 5043
8718 336
8718 2354
8718 3005
8718 5025
8719 381
8719 2319
8719 3035
8719 5097
8720 260
8720 2344
8720 2991
8720 5076
8721 360
8721 2318
8721 2977
8721 5098
8722 380
8722 2307
8722 3041
8722 5019
8723 271
8723 2340
8723 3029
8723 5013
8724 285
8724 2405
8724 2986
8724 5050
8725 269
8725 2308
8725 2948
8725 5044
8726 339
8726 2304
8726 3030
8726 5116
8727 299
8727 2379
8727 3048
8727 5035
8728 331
8728 2415
8728 3069
8728 5118
8729 286
8729 2370
8729 3020
8729 4995
8730 315
8730 2363
8730 3015
8730 5026
8731 353
8731 2386
8731 2959
8731 5021
8732 363
8732 2350
8732 2978
8732 5088
8733 318
8733 2365
8733 3055
8733 5083
8734 329
8734 2364
8734 2968
8734 5117
8735 291
8735 2397
8735 3033
8735 5007
8736 343
8736 2337
8736 2993
8736 5056
8737 345
8737 2345
8737 3016
8737 5005
8738 300
8738 2330
8738 3026
8738 4993
8739 301
8739 2385
8739 2958
8739 5036
8740 370
8740 2346
8740 2979
8740 5087
8741 348
8741 2417
8741 3047
8741 5023
8742 324
8742 2320
8742 2955
8742 5081
8743 376
8743 2316
8743 3001
8743 5104
8744 261
8744 2329
8744 2965
8744 5037
8745 326
8745 2429
8745 3003
8745 5003
8746 282
8746 2377
8746 2950
8746 5008
8747 332
8747 2325
8747 3011
8747 5001
8748 352
8748 2383
8748 2992
8748 5099
8749 297
8749 2420
8749 2982
8749 5101
8750 364
8750 2326
8750 3068
8750 5065
8751 298
8751 2373
8751 3051
8751 5038
8752 259
8752 2336
8752 2994
8752 5052
8753 321
8753 2361
8753 3071
8753 5032
8754 373
8754 2425
8754 3050
8754 5000
8755 314
8755 2402
8755 2963
8755 5053
8756 342
8756 2382
8756 3067
8756 5119
8757 288
8757 2351
8757 3039
8757 5009
8758 306
8758 2341
8758 2946
8758 5029
8759 334
8759 2369
8759 3056
8759 5082
8760 281
8760 2339
8760 2989
8760 5015
8761 263
8761 2413
8761 2976
8761 5107
8762 292
8762 2356
8762 3040
8762 4998
8763 265
8763 2358
8763 3057
8763 5033
8764 354
8764 2315
8764 3031
8764 5011
8765 257
8765 2431
8765 2971
8765 5045
8766 308
8766 2347
8766 3007
8766 5070
8767 279
8767 2331
8767 2961
8767 4999
8768 296
8768 2396
8768 2972
8768 5027
8769 383
8769 2360
8769 2985
8769 5049
8770 372
8770 2423
8770 2952
8770 5047
8771 337
8771 2312
8771 3065
8771 5093
8772 371
8772 2311
8772 2981
8772 5055
8773 382
8773 2407
8773 2980
8773 5031
8774 355
8774 2332
8774 2949
8774 5024
8775 375
8775 2380
8775 3044
8775 5059
8776 327
8776 2305
8776 3013
8776 5105
8777 310
8777 2422
8777 2957
8777 5039
8778 302
8778 2414
8778 3070
8778 5068
8779 344
8779 2390
8779 3019
8779 5102
8780 316
8780 2409
8780 2997
8780 4996
8781 319
8781 2334
8781 3061
8781 5058
8782 367
8782 2395
8782 3024
8782 5063
8783 305
8783 2387
8783 2995
8783 5060
8784 289
8784 2349
8784 3009
8784 5028
8785 356
8785 2321
8785 3022
8785 5042
8786 317
8786 2389
8786 3058
8786 5077
8787 349
8787 2388
8787 3063
8787 5002
8788 358
8788 2394
8788 3012
8788 5110
8789 293
8789 2362
8789 3066
8789 5113
8790 340
8790 2406
8790 2945
8790 5062
8791 338
8791 2357
8791 3038
8791 5112
8792 258
8792 2371
8792 3034
8792 5054
8793 323
8793 2428
8793 3053
8793 4997
8794 311
8794 2317
8794 3006
8794 5073
8795 325
8795 2424
8795 2984
8795 5030
8796 368
8796 2412
8796 2966
8796 5085
8797 351
8797 2374
8797 2962
8797 5079
8798 262
8798 2342
8798 3014
8798 5106
8799 333
8799 2322
8799 2998
8799 5064
8800 277
8800 2359
8800 2954
8800 5090
8801 378
8801 2430
8801 2970
8801 5095
8802 365
8802 2398
8802 2988
8802 5100
8803 357
8803 2384
8803 3000
8803 5010
8804 267
8804 2427
8804 3054
8804 5108
8805 307
8805 2355
8805 3036
8805 5114
8806 350
8806 2400
8806 2999
8806 5071
8807 274
8807 2314
8807 3046
8807 5046
8808 273
8808 2335
8808 3045
8808 5086
8809 359
8809 2378
8809 3049
8809 5018
8810 312
8810 2421
8810 3064
8810 4994
8811 328
8811 2353
8811 3021
8811 5103
8812 290
8812 2403
8812 2944
8812 5017
8813 280
8813 2411
8813 3025
8813 5096
8814 303
8814 2328
8814 3008
8814 5067
8815 369
8815 2393
8815 2969
8815 5051
8816 377
8816 2327
8816 2983
8816 5048
8817 268
8817 2323
8817 3018
8817 5022
8818 276
8818 2418
8818 3023
8818 5084
8819 366
8819 2348
8819 3037
8819 5016
8820 272
8820 2419
8820 3059
8820 5006
8821 270
8821 2324
8821 2951
8821 5091
8822 374
8822 2343
8822 2956
8822 5074
8823 283
8823 2391
8823 3032
8823 5094
8824 347
8824 2368
8824 3004
8824 5115
8825 346
8825 2376
8825 2974
8825 5004
8826 330
8826 2408
8826 2953
8826 5111
8827 284
8827 2306
8827 2996
8827 5089
8828 309
8828 2366
8828 3027
8828 5066
8829 313
8829 2401
8829 3052
8829 5069
8830 320
8830 2410
8830 3010
8830 5075
8831 294
8831 2367
8831 2947
8831 5034
8832 392
8832 2493
8832 3133
8832 5163
8833 401
8833 2504
8833 3134
8833 5193
8834 430
8834 2501
8834 3190
8834 5156
8835 505
8835 2478
8835 3105
8835 5209
8836 486
8836 2476
8836 3176
8836 5142
8837 451
8837 2463
8837 3107
8837 5154
8838 448
8838 2457
8838 3121
8838 5167
8839 414
8839 2526
8839 3194
8839 5179
8840 449
8840 2541
8840 3132
8840 5224
8841 446
8841 2552
8841 3108
8841 5183
8842 385
8842 2477
8842 3125
8842 5239
8843 469
8843 2456
8843 3111
8843 5203
8844 472
8844 2510
8844 3098
8844 5131
8845 433
8845 2540
8845 3191
8845 5235
8846 403
8846 2506
8846 3150
8846 5128
8847 484
8847 2451
8847 3153
8847 5237
8848 506
8848 2467
8848 3099
8848 5124
8849 396
8849 2538
8849 3104
8849 5144
8850 510
8850 2444
8850 3146
8850 5202
8851 504
8851 2558
8851 3073
8851 5173
8852 477
8852 2514
8852 3164
8852 5182
8853 435
8853 2458
8853 3197
8853 5191
8854 397
8854 2508
8854 3116
8854 5212
8855 398
8855 2550
8855 3093
8855 5223
8856 394
8856 2557
8856 3139
8856 5147
8857 495
8857 2461
8857 3096
8857 5198
8858 466
8858 2443
8858 3195
8858 5159
8859 445
8859 2533
8859 3196
8859 5231
8860 463
8860 2441
8860 3178
8860 5120
8861 479
8861 2442
8861 3119
8861 5184
8862 489
8862 2445
8862 3114
8862 5226
8863 422
8863 2449
8863 3152
8863 5240
8864 493
8864 2470
8864 3081
8864 5247
8865 490
8865 2472
8865 3130
8865 5149
8866 465
8866 2535
8866 3077
8866 5199
8867 501
8867 2525
8867 3182
8867 5121
8868 411
8868 2527
8868 3072
8868 5166
8869 389
8869 2462
8869 3161
8869 5233
8870 441
8870 2459
8870 3097
8870 5161
8871 390
8871 2544
8871 3122
8871 5187
8872 470
8872 2529
8872 3172
8872 5188
8873 412
8873 2509
8873 3129
8873 5238
8874 406
8874 2433
8874 3156
8874 5190
8875 462
8875 2490
8875 3149
8875 5221
8876 478
8876 2480
8876 3141
8876 5132
8877 480
8877 2435
8877 3189
8877 5126
8878 471
8878 2440
8878 3137
8878 5227
8879 437
8879 2436
8879 3101
8879 5216
8880 453
8880 2468
8880 3171
8880 5194
8881 413
8881 2511
8881 3192
8881 5155
8882 400
8882 2438
8882 3088
8882 5180
8883 488
8883 2502
8883 3142
8883 5185
8884 492
8884 2484
8884 3163
8884 5186
8885 391
8885 2446
8885 3078
8885 5137
8886 436
8886 2434
8886 3082
8886 5195
8887 408
8887 2520
8887 3181
8887 5150
8888 491
8888 2496
8888 3127
8888 5174
8889 439
8889 2485
8889 3154
8889 5211
8890 503
8890 2464
8890 3179
8890 5230
8891 427
8891 2475
8891 3160
8891 5129
8892 467
8892 2548
8892 3151
8892 5143
8893 395
8893 2452
8893 3174
8893 5210
8894 405
8894 2460
8894 3112
8894 5236
8895 483
8895 2545
8895 3126
8895 5201
8896 444
8896 2539
8896 3080
8896 5205
8897 456
8897 2454
8897 3085
8897 5134
8898 393
8898 2543
8898 3076
8898 5197
8899 429
8899 2437
8899 3199
8899 5234
8900 507
8900 2555
8900 3169
8900 5229
8901 387
8901 2471
8901 3148
8901 5157
8902 457
8902 2505
8902 3167
8902 5138
8903 420
8903 2507
8903 3075
8903 5139
8904 498
8904 2483
8904 3157
8904 5244
8905 454
8905 2473
8905 3095
8905 5206
8906 502
8906 2553
8906 3091
8906 5181
8907 459
8907 2546
8907 3188
8907 5215
8908 464
8908 2516
8908 3128
8908 5172
8909 509
8909 2479
8909 3144
8909 5214
8910 404
8910 2469
8910 3162
8910 5151
8911 419
8911 2554
8911 3083
8911 5228
8912 475
8912 2556
8912 3106
8912 5232
8913 424
8913 2515
8913 3155
8913 5168
8914 440
8914 2513
8914 3147
8914 5178
8915 481
8915 2549
8915 3180
8915 5123
8916 468
8916 2499
8916 3110
8916 5177
8917 415
8917 2518
8917 3124
8917 5130
8918 423
8918 2465
8918 3123
8918 5246
8919 473
8919 2532
8919 3170
8919 5175
8920 482
8920 2494
8920 3113
8920 5218
8921 443
8921 2528
8921 3090
8921 5169
8922 455
8922 2495
8922 3186
8922 5225
8923 500
8923 2497
8923 3184
8923 5133
8924 432
8924 2492
8924 3193
8924 5127
8925 460
8925 2447
8925 3175
8925 5220
8926 458
8926 2491
8926 3158
8926 5152
8927 508
8927 2534
8927 3109
8927 5122
8928 388
8928 2448
8928 3145
8928 5176
8929 499
8929 2466
8929 3131
8929 5217
8930 496
8930 2432
8930 3198
8930 5245
8931 418
8931 2537
8931 3136
8931 5222
8932 409
8932 2482
8932 3159
8932 5158
8933 416
8933 2450
8933 3079
8933 5148
8934 384
8934 2542
8934 3187
8934 5192
8935 474
8935 2486
8935 3143
8935 5165
8936 450
8936 2498
8936 3168
8936 5170
8937 461
8937 2521
8937 3120
8937 5213
8938 494
8938 2524
8938 3100
8938 5125
8939 417
8939 2439
8939 3138
8939 5189
8940 402
8940 2487
8940 3166
8940 5146
8941 386
8941 2455
8941 3117
8941 5208
8942 497
8942 2512
8942 3140
8942 5200
8943 426
8943 2536
8943 3165
8943 5153
8944 442
8944 2523
8944 3185
8944 5141
8945 399
8945 2559
8945 3135
8945 5171
8946 434
8946 2488
8946 3183
8946 5242
8947 410
8947 2500
8947 3086
8947 5164
8948 476
8948 2519
8948 3084
8948 5136
8949 511
8949 2531
8949 3173
8949 5162
8950 428
8950 2474
8950 3118
8950 5135
8951 421
8951 2481
8951 3094
8951 5207
8952 438
8952 2522
8952 3087
8952 5204
8953 487
8953 2551
8953 3102
8953 5219
8954 447
8954 2517
8954 3177
8954 5241
8955 452
8955 2453
8955 3089
8955 5145
8956 407
8956 2489
8956 3092
8956 5196
8957 485
8957 2530
8957 3103
8957 5140
8958 431
8958 2547
8958 3074
8958 5243
8959 425
8959 2503
8959 3115
8959 5160
8960 629
8960 2567
8960 3232
8960 5257
8961 518
8961 2608
8961 3217
8961 5372
8962 557
8962 2595
8962 3297
8962 5360
8963 598
8963 2629
8963 3275
8963 5310
8964 539
8964 2674
8964 3318
8964 5254
8965 550
8965 2612
8965 3253
8965 5298
8966 578
8966 2584
8966 3208
8966 5327
8967 535
8967 2579
8967 3307
8967 5270
8968 527
8968 2679
8968 3226
8968 5278
8969 537
8969 2665
8969 3214
8969 5274
8970 525
8970 2599
8970 3235
8970 5287
8971 609
8971 2668
8971 3310
8971 5280
8972 608
8972 2651
8972 3284
8972 5305
8973 632
8973 2569
8973 3285
8973 5342
8974 625
8974 2640
8974 3314
8974 5248
8975 617
8975 2630
8975 3279
8975 5260
8976 541
8976 2659
8976 3290
8976 5346
8977 603
8977 2580
8977 3302
8977 5268
8978 590
8978 2601
8978 3245
8978 5335
8979 616
8979 2588
8979 3298
8979 5269
8980 633
8980 2635
8980 3316
8980 5299
8981 604
8981 2581
8981 3220
8981 5294
8982 630
8982 2613
8982 3242
8982 5340
8983 594
8983 2604
8983 3299
8983 5307
8984 517
8984 2620
8984 3325
8984 5302
8985 533
8985 2583
8985 3239
8985 5288
8986 545
8986 2587
8986 3321
8986 5321
8987 637
8987 2669
8987 3207
8987 5267
8988 626
8988 2572
8988 3291
8988 5359
8989 584
8989 2578
8989 3215
8989 5354
8990 585
8990 2563
8990 3300
8990 5353
8991 575
8991 2568
8991 3264
8991 5371
8992 611
8992 2681
8992 3259
8992 5350
8993 576
8993 2566
8993 3269
8993 5284
8994 612
8994 2564
8994 3260
8994 5279
8995 571
8995 2593
8995 3283
8995 5273
8996 567
8996 2643
8996 3210
8996 5258
8997 552
8997 2684
8997 3305
8997 5255
8998 520
8998 2663
8998 3270
8998 5253
8999 555
8999 2633
8999 3296
8999 5358
9000 543
9000 2565
9000 3256
9000 5348
9001 565
9001 2596
9001 3286
9001 5261
9002 522
9002 2653
9002 3327
9002 5252
9003 529
9003 2624
9003 3276
9003 5276
9004 587
9004 2571
9004 3311
9004 5334
9005 631
9005 2627
9005 3204
9005 5330
9006 572
9006 2641
9006 3240
9006 5314
9007 607
9007 2655
9007 3225
9007 5289
9008 566
9008 2673
9008 3301
9008 5326
9009 580
9009 2683
9009 3221
9009 5337
9010 627
9010 2628
9010 3255
9010 5331
9011 547
9011 2636
9011 3258
9011 5324
9012 540
9012 2586
9012 3202
9012 5367
9013 562
9013 2582
9013 3237
9013 5325
9014 581
9014 2638
9014 3268
9014 5341
9015 597
9015 2570
9015 3227
9015 5266
9016 613
9016 2687
9016 3238
9016 5329
9017 558
9017 2672
9017 3262
9017 5352
9018 569
9018 2606
9018 3257
9018 5283
9019 559
9019 2650
9019 3254
9019 5282
9020 582
9020 2591
9020 3319
9020 5369
9021 574
9021 2625
9021 3218
9021 5265
9022 628
9022 2652
9022 3233
9022 5300
9023 621
9023 2600
9023 3313
9023 5306
9024 595
9024 2621
9024 3309
9024 5281
9025 530
9025 2658
9025 3289
9025 5277
9026 606
9026 2585
9026 3224
9026 5356
9027 623
9027 2642
9027 3222
9027 5333
9028 579
9028 2631
9028 3324
9028 5349
9029 516
9029 2609
9029 3206
9029 5264
9030 577
9030 2574
9030 3230
9030 5323
9031 573
9031 2615
9031 3322
9031 5313
9032 556
9032 2649
9032 3266
9032 5272
9033 532
9033 2656
9033 3267
9033 5251
9034 601
9034 2561
9034 3320
9034 5361
9035 549
9035 2618
9035 3271
9035 5363
9036 546
9036 2677
9036 3280
9036 5275
9037 514
9037 2603
9037 3288
9037 5293
9038 614
9038 2678
9038 3200
9038 5375
9039 602
9039 2610
9039 3201
9039 5345
9040 554
9040 2682
9040 3274
9040 5322
9041 553
9041 2639
9041 3250
9041 5249
9042 589
9042 2626
9042 3273
9042 5303
9043 542
9043 2575
9043 3219
9043 5362
9044 521
9044 2686
9044 3277
9044 5365
9045 639
9045 2611
9045 3223
9045 5256
9046 564
9046 2671
9046 3203
9046 5332
9047 596
9047 2667
9047 3246
9047 5374
9048 591
9048 2616
9048 3209
9048 5286
9049 561
9049 2632
9049 3228
9049 5312
9050 615
9050 2576
9050 3249
9050 5344
9051 551
9051 2676
9051 3317
9051 5373
9052 588
9052 2661
9052 3293
9052 5290
9053 586
9053 2605
9053 3231
9053 5339
9054 536
9054 2680
9054 3282
9054 5304
9055 570
9055 2666
9055 3263
9055 5368
9056 583
9056 2592
9056 3244
9056 5259
9057 523
9057 2644
9057 3287
9057 5328
9058 534
9058 2594
9058 3295
9058 5318
9059 636
9059 2648
9059 3272
9059 5311
9060 605
9060 2657
9060 3278
9060 5336
9061 560
9061 2589
9061 3216
9061 5316
9062 531
9062 2598
9062 3315
9062 5292
9063 524
9063 2619
9063 3212
9063 5297
9064 618
9064 2675
9064 3308
9064 5296
9065 519
9065 2622
9065 3234
9065 5364
9066 513
9066 2685
9066 3205
9066 5291
9067 515
9067 2646
9067 3303
9067 5263
9068 544
9068 2597
9068 3304
9068 5250
9069 592
9069 2637
9069 3292
9069 5301
9070 538
9070 2602
9070 3248
9070 5370
9071 563
9071 2577
9071 3252
9071 5355
9072 638
9072 2660
9072 3326
9072 5343
9073 624
9073 2662
9073 3281
9073 5320
9074 634
9074 2664
9074 3229
9074 5317
9075 528
9075 2617
9075 3251
9075 5309
9076 610
9076 2654
9076 3265
9076 5262
9077 593
9077 2623
9077 3236
9077 5271
9078 600
9078 2614
9078 3306
9078 5315
9079 635
9079 2590
9079 3312
9079 5285
9080 526
9080 2560
9080 3243
9080 5338
9081 568
9081 2647
9081 3261
9081 5351
9082 619
9082 2573
9082 3241
9082 5366
9083 622
9083 2634
9083 3213
9083 5308
9084 512
9084 2562
9084 3323
9084 5295
9085 599
9085 2607
9085 3294
9085 5347
9086 620
9086 2645
9086 3211
9086 5357
9087 548
9087 2670
9087 3247
9087 5319
9088 763
9088 2791
9088 3423
9088 5476
9089 730
9089 2724
9089 3352
9089 5427
9090 751
9090 2712
9090 3404
9090 5452
9091 686
9091 2782
9091 3372
9091 5454
9092 706
9092 2711
9092 3366
9092 5473
9093 681
9093 2806
9093 3408
9093 5492
9094 704
9094 2723
9094 3338
9094 5395
9095 694
9095 2705
9095 3328
9095 5404
9096 679
9096 2781
9096 3436
9096 5440
9097 746
9097 2714
9097 3406
9097 5394
9098 654
9098 2808
9098 3339
9098 5417
9099 697
9099 2749
9099 3402
9099 5414
9100 674
9100 2763
9100 3333
9100 5400
9101 644
9101 2732
9101 3348
9101 5471
9102 671
9102 2709
9102 3342
9102 5467
9103 672
9103 2698
9103 3416
9103 5468
9104 718
9104 2800
9104 3450
9104 5392
9105 668
9105 2754
9105 3447
9105 5446
9106 758
9106 2746
9106 3420
9106 5500
9107 688
9107 2707
9107 3360
9107 5503
9108 711
9108 2762
9108 3375
9108 5453
9109 684
9109 2740
9109 3392
9109 5416
9110 673
9110 2756
9110 3452
9110 5451
9111 690
9111 2719
9111 3362
9111 5464
9112 641
9112 2779
9112 3399
9112 5444
9113 728
9113 2757
9113 3417
9113 5422
9114 714
9114 2722
9114 3332
9114 5433
9115 682
9115 2776
9115 3356
9115 5408
9116 680
9116 2743
9116 3381
9116 5401
9117 703
9117 2809
9117 3446
9117 5384
9118 735
9118 2773
9118 3385
9118 5450
9119 760
9119 2799
9119 3344
9119 5436
9120 725
9120 2792
9120 3395
9120 5483
9121 744
9121 2774
9121 3376
9121 5409
9122 651
9122 2796
9122 3382
9122 5403
9123 691
9123 2725
9123 3337
9123 5407
9124 710
9124 2794
9124 3449
9124 5424
9125 687
9125 2710
9125 3364
9125 5475
9126 698
9126 2807
9126 3373
9126 5431
9127 747
9127 2702
9127 3374
9127 5480
9128 709
9128 2694
9128 3370
9128 5421
9129 665
9129 2759
9129 3397
9129 5387
9130 721
9130 2812
9130 3330
9130 5425
9131 693
9131 2798
9131 3432
9131 5426
9132 650
9132 2744
9132 3411
9132 5397
9133 749
9133 2788
9133 3351
9133 5383
9134 640
9134 2783
9134 3442
9134 5411
9135 667
9135 2795
9135 3394
9135 5466
9136 645
9136 2805
9136 3429
9136 5388
9137 745
9137 2797
9137 3341
9137 5441
9138 699
9138 2703
9138 3441
9138 5485
9139 683
9139 2755
9139 3422
9139 5460
9140 685
9140 2706
9140 3331
9140 5412
9141 750
9141 2804
9141 3340
9141 5402
9142 700
9142 2785
9142 3409
9142 5419
9143 757
9143 2731
9143 3438
9143 5437
9144 715
9144 2691
9144 3354
9144 5432
9145 734
9145 2777
9145 3425
9145 5428
9146 724
9146 2768
9146 3403
9146 5487
9147 712
9147 2815
9147 3365
9147 5459
9148 649
9148 2801
9148 3443
9148 5493
9149 653
9149 2699
9149 3355
9149 5502
9150 720
9150 2775
9150 3419
9150 5457
9151 761
9151 2716
9151 3349
9151 5486
9152 666
9152 2814
9152 3435
9152 5489
9153 762
9153 2786
9153 3454
9153 5482
9154 752
9154 2695
9154 3368
9154 5494
9155 731
9155 2708
9155 3430
9155 5443
9156 740
9156 2721
9156 3369
9156 5498
9157 713
9157 2688
9157 3444
9157 5398
9158 660
9158 2751
9158 3377
9158 5470
9159 659
9159 2771
9159 3379
9159 5495
9160 717
9160 2701
9160 3400
9160 5378
9161 663
9161 2810
9161 3336
9161 5481
9162 743
9162 2730
9162 3414
9162 5479
9163 696
9163 2739
9163 3353
9163 5488
9164 647
9164 2697
9164 3405
9164 5447
9165 656
9165 2717
9165 3427
9165 5472
9166 742
9166 2780
9166 3418
9166 5389
9167 767
9167 2748
9167 3335
9167 5380
9168 661
9168 2802
9168 3388
9168 5399
9169 652
9169 2741
9169 3387
9169 5430
9170 692
9170 2803
9170 3396
9170 5484
9171 657
9171 2747
9171 3371
9171 5501
9172 748
9172 2789
9172 3350
9172 5379
9173 701
9173 2778
9173 3440
9173 5410
9174 737
9174 2811
9174 3407
9174 5477
9175 727
9175 2765
9175 3431
9175 5418
9176 678
9176 2767
9176 3412
9176 5499
9177 719
9177 2752
9177 3424
9177 5465
9178 676
9178 2745
9178 3389
9178 5491
9179 702
9179 2813
9179 3415
9179 5448
9180 766
9180 2750
9180 3455
9180 5396
9181 723
9181 2718
9181 3413
9181 5382
9182 739
9182 2696
9182 3426
9182 5413
9183 664
9183 2733
9183 3434
9183 5381
9184 729
9184 2772
9184 3433
9184 5386
9185 695
9185 2692
9185 3343
9185 5376
9186 670
9186 2769
9186 3361
9186 5478
9187 708
9187 2690
9187 3384
9187 5406
9188 741
9188 2766
9188 3453
9188 5462
9189 754
9189 2764
9189 3401
9189 5438
9190 707
9190 2735
9190 3391
9190 5458
9191 689
9191 2736
9191 3378
9191 5393
9192 705
9192 2700
9192 3357
9192 5445
9193 669
9193 2753
9193 3390
9193 5455
9194 732
9194 2787
9194 3346
9194 5449
9195 662
9195 2728
9195 3380
9195 5423
9196 648
9196 2713
9196 3445
9196 5420
9197 736
9197 2738
9197 3329
9197 5469
9198 675
9198 2715
9198 3428
9198 5463
9199 765
9199 2793
9199 3383
9199 5435
9200 646
9200 2790
9200 3345
9200 5497
9201 722
9201 2727
9201 3439
9201 5429
9202 756
9202 2760
9202 3358
9202 5474
9203 716
9203 2704
9203 3347
9203 5434
9204 677
9204 2726
9204 3398
9204 5405
9205 733
9205 2729
9205 3421
9205 5415
9206 655
9206 2689
9206 3363
9206 5456
9207 658
9207 2693
9207 3451
9207 5377
9208 643
9208 2737
9208 3359
9208 5496
9209 755
9209 2734
9209 3367
9209 5461
9210 764
9210 2761
9210 3386
9210 5439
9211 753
9211 2758
9211 3410
9211 5442
9212 642
9212 2784
9212 3448
9212 5385
9213 759
9213 2720
9213 3334
9213 5390
9214 726
9214 2742
9214 3437
9214 5391
9215 738
9215 2770
9215 3393
9215 5490
9216 894
9216 1456
9216 3475
9216 5545
9217 867
9217 1489
9217 3534
9217 5556
9218 839
9218 1447
9218 3484
9218 5525
9219 811
9219 1530
9219 3559
9219 5591
9220 784
9220 1454
9220 3558
9220 5509
9221 871
9221 1515
9221 3498
9221 5514
9222 793
9222 1505
9222 3557
9222 5559
9223 786
9223 1461
9223 3459
9223 5507
9224 875
9224 1467
9224 3506
9224 5553
9225 771
9225 1418
9225 3473
9225 5533
9226 886
9226 1466
9226 3485
9226 5510
9227 832
9227 1450
9227 3521
9227 5615
9228 846
9228 1434
9228 3516
9228 5552
9229 823
9229 1427
9229 3496
9229 5563
9230 776
9230 1423
9230 3566
9230 5569
9231 820
9231 1425
9231 3582
9231 5546
9232 847
9232 1506
9232 3458
9232 5587
9233 790
9233 1531
9233 3539
9233 5588
9234 782
9234 1486
9234 3499
9234 5568
9235 796
9235 1452
9235 3510
9235 5620
9236 825
9236 1426
9236 3561
9236 5515
9237 859
9237 1413
9237 3518
9237 5581
9238 845
9238 1484
9238 3556
9238 5519
9239 799
9239 1414
9239 3578
9239 5522
9240 798
9240 1409
9240 3535
9240 5517
9241 830
9241 1463
9241 3537
9241 5513
9242 805
9242 1508
9242 3497
9242 5586
9243 810
9243 1518
9243 3567
9243 5602
9244 795
9244 1470
9244 3562
9244 5597
9245 800
9245 1473
9245 3500
9245 5505
9246 834
9246 1460
9246 3463
9246 5611
9247 778
9247 1523
9247 3565
9247 5582
9248 779
9248 1513
9248 3456
9248 5538
9249 870
9249 1428
9249 3479
9249 5506
9250 812
9250 1507
9250 3545
9250 5613
9251 835
9251 1517
9251 3469
9251 5609
9252 813
9252 1509
9252 3457
9252 5526
9253 828
9253 1502
9253 3494
9253 5594
9254 890
9254 1482
9254 3503
9254 5521
9255 880
9255 1527
9255 3530
9255 5508
9256 806
9256 1503
9256 3569
9256 5601
9257 827
9257 1477
9257 3529
9257 5604
9258 817
9258 1487
9258 3515
9258 5623
9259 840
9259 1492
9259 3570
9259 5549
9260 770
9260 1410
9260 3520
9260 5512
9261 783
9261 1472
9261 3513
9261 5584
9262 860
9262 1485
9262 3511
9262 5555
9263 873
9263 1422
9263 3461
9263 5534
9264 892
9264 1458
9264 3466
9264 5518
9265 773
9265 1420
9265 3527
9265 5537
9266 789
9266 1419
9266 3563
9266 5541
9267 794
9267 1436
9267 3495
9267 5566
9268 883
9268 1424
9268 3474
9268 5547
9269 876
9269 1462
9269 3477
9269 5631
9270 821
9270 1438
9270 3471
9270 5527
9271 882
9271 1476
9271 3568
9271 5572
9272 868
9272 1412
9272 3467
9272 5580
9273 877
9273 1504
9273 3501
9273 5528
9274 777
9274 1411
9274 3583
9274 5595
9275 787
9275 1522
9275 3544
9275 5531
9276 772
9276 1501
9276 3576
9276 5612
9277 803
9277 1480
9277 3549
9277 5606
9278 842
9278 1446
9278 3472
9278 5618
9279 858
9279 1459
9279 3547
9279 5605
9280 797
9280 1514
9280 3548
9280 5577
9281 881
9281 1520
9281 3492
9281 5585
9282 874
9282 1471
9282 3574
9282 5564
9283 833
9283 1474
9283 3493
9283 5599
9284 895
9284 1417
9284 3531
9284 5561
9285 838
9285 1435
9285 3543
9285 5608
9286 824
9286 1439
9286 3504
9286 5557
9287 818
9287 1516
9287 3553
9287 5571
9288 829
9288 1469
9288 3533
9288 5625
9289 861
9289 1464
9289 3546
9289 5520
9290 844
9290 1488
9290 3541
9290 5543
9291 826
9291 1415
9291 3482
9291 5600
9292 853
9292 1408
9292 3487
9292 5629
9293 788
9293 1457
9293 3478
9293 5567
9294 843
9294 1500
9294 3555
9294 5628
9295 781
9295 1499
9295 3517
9295 5565
9296 878
9296 1430
9296 3465
9296 5562
9297 809
9297 1465
9297 3580
9297 5558
9298 879
9298 1448
9298 3505
9298 5542
9299 862
9299 1528
9299 3560
9299 5550
9300 887
9300 1443
9300 3550
9300 5614
9301 831
9301 1431
9301 3581
9301 5592
9302 769
9302 1494
9302 3489
9302 5579
9303 837
9303 1483
9303 3490
9303 5590
9304 866
9304 1526
9304 3480
9304 5540
9305 802
9305 1416
9305 3525
9305 5589
9306 841
9306 1441
9306 3462
9306 5529
9307 816
9307 1510
9307 3460
9307 5617
9308 792
9308 1493
9308 3577
9308 5621
9309 804
9309 1491
9309 3464
9309 5536
9310 819
9310 1512
9310 3509
9310 5576
9311 808
9311 1495
9311 3486
9311 5532
9312 851
9312 1468
9312 3468
9312 5560
9313 836
9313 1437
9313 3551
9313 5544
9314 856
9314 1524
9314 3571
9314 5578
9315 849
9315 1496
9315 3572
9315 5630
9316 814
9316 1433
9316 3573
9316 5624
9317 865
9317 1498
9317 3483
9317 5524
9318 785
9318 1497
9318 3528
9318 5573
9319 775
9319 1453
9319 3470
9319 5574
9320 857
9320 1432
9320 3575
9320 5551
9321 768
9321 1534
9321 3491
9321 5570
9322 848
9322 1519
9322 3522
9322 5516
9323 807
9323 1455
9323 3564
9323 5535
9324 852
9324 1532
9324 3514
9324 5610
9325 774
9325 1533
9325 3481
9325 5554
9326 822
9326 1444
9326 3524
9326 5607
9327 864
9327 1535
9327 3523
9327 5619
9328 854
9328 1490
9328 3554
9328 5504
9329 869
9329 1421
9329 3532
9329 5622
9330 888
9330 1449
9330 3552
9330 5596
9331 815
9331 1481
9331 3476
9331 5627
9332 780
9332 1445
9332 3508
9332 5603
9333 893
9333 1442
9333 3538
9333 5616
9334 884
9334 1525
9334 3536
9334 5548
9335 863
9335 1429
9335 3540
9335 5539
9336 872
9336 1511
9336 3488
9336 5626
9337 801
9337 1529
9337 3542
9337 5598
9338 885
9338 1479
9338 3519
9338 5511
9339 791
9339 1475
9339 3512
9339 5523
9340 855
9340 1440
9340 3579
9340 5593
9341 891
9341 1478
9341 3526
9341 5575
9342 889
9342 1451
9342 3507
9342 5530
9343 850
9343 1521
9343 3502
9343 5583
9344 897
9344 1576
9344 3642
9344 4339
9345 903
9345 1568
9345 3585
9345 4305
9346 969
9346 1598
9346 3590
9346 4290
9347 900
9347 1626
9347 3649
9347 4226
9348 985
9348 1574
9348 3670
9348 4313
9349 980
9349 1596
9349 3619
9349 4251
9350 993
9350 1632
9350 3634
9350 4266
9351 994
9351 1637
9351 3647
9351 4271
9352 999
9352 1619
9352 3667
9352 4322
9353 955
9353 1634
9353 3676
9353 4288
9354 905
9354 1602
9354 3687
9354 4309
9355 973
9355 1633
9355 3680
9355 4312
9356 963
9356 1565
9356 3662
9356 4254
9357 998
9357 1594
9357 3614
9357 4333
9358 1000
9358 1636
9358 3682
9358 4308
9359 899
9359 1584
9359 3638
9359 4323
9360 929
9360 1585
9360 3659
9360 4276
9361 932
9361 1630
9361 3691
9361 4283
9362 945
9362 1658
9362 3633
9362 4311
9363 916
9363 1648
9363 3637
9363 4335
9364 1011
9364 1606
9364 3643
9364 4263
9365 915
9365 1603
9365 3586
9365 4303
9366 951
9366 1541
9366 3607
9366 4235
9367 925
9367 1657
9367 3648
9367 4306
9368 974
9368 1540
9368 3639
9368 4273
9369 983
9369 1590
9369 3690
9369 4278
9370 930
9370 1655
9370 3696
9370 4280
9371 935
9371 1623
9371 3608
9371 4249
9372 1004
9372 1591
9372 3710
9372 4298
9373 1008
9373 1579
9373 3671
9373 4277
9374 1014
9374 1656
9374 3669
9374 4345
9375 906
9375 1652
9375 3599
9375 4238
9376 966
9376 1583
9376 3666
9376 4341
9377 921
9377 1559
9377 3623
9377 4324
9378 950
9378 1573
9378 3598
9378 4329
9379 991
9379 1555
9379 3698
9379 4285
9380 1013
9380 1567
9380 3630
9380 4255
9381 954
9381 1608
9381 3584
9381 4272
9382 982
9382 1645
9382 3621
9382 4228
9383 946
9383 1569
9383 3611
9383 4253
9384 962
9384 1622
9384 3677
9384 4315
9385 960
9385 1639
9385 3697
9385 4349
9386 1012
9386 1650
9386 3620
9386 4281
9387 989
9387 1592
9387 3699
9387 4232
9388 959
9388 1646
9388 3655
9388 4269
9389 922
9389 1638
9389 3660
9389 4279
9390 940
9390 1536
9390 3646
9390 4237
9391 996
9391 1654
9391 3606
9391 4337
9392 901
9392 1661
9392 3658
9392 4268
9393 1005
9393 1560
9393 3636
9393 4350
9394 1002
9394 1605
9394 3700
9394 4242
9395 918
9395 1618
9395 3624
9395 4293
9396 911
9396 1609
9396 3702
9396 4236
9397 995
9397 1659
9397 3615
9397 4265
9398 1003
9398 1571
9398 3693
9398 4307
9399 990
9399 1539
9399 3610
9399 4316
9400 1021
9400 1537
9400 3650
9400 4302
9401 942
9401 1588
9401 3604
9401 4230
9402 939
9402 1544
9402 3588
9402 4267
9403 914
9403 1625
9403 3683
9403 4262
9404 917
9404 1580
9404 3622
9404 4346
9405 1020
9405 1589
9405 3665
9405 4227
9406 1019
9406 1647
9406 3632
9406 4256
9407 1018
9407 1550
9407 3593
9407 4259
9408 934
9408 1581
9408 3641
9408 4244
9409 948
9409 1593
9409 3704
9409 4325
9410 944
9410 1624
9410 3678
9410 4294
9411 1022
9411 1551
9411 3635
9411 4300
9412 965
9412 1641
9412 3618
9412 4318
9413 1006
9413 1546
9413 3629
9413 4304
9414 997
9414 1631
9414 3594
9414 4326
9415 986
9415 1561
9415 3644
9415 4252
9416 957
9416 1543
9416 3656
9416 4246
9417 920
9417 1642
9417 3603
9417 4292
9418 896
9418 1610
9418 3675
9418 4284
9419 1009
9419 1644
9419 3689
9419 4344
9420 970
9420 1620
9420 3703
9420 4347
9421 898
9421 1545
9421 3708
9421 4299
9422 981
9422 1558
9422 3625
9422 4286
9423 923
9423 1628
9423 3681
9423 4258
9424 924
9424 1616
9424 3653
9424 4257
9425 904
9425 1649
9425 3640
9425 4264
9426 943
9426 1562
9426 3600
9426 4291
9427 919
9427 1635
9427 3609
9427 4240
9428 947
9428 1586
9428 3668
9428 4297
9429 1015
9429 1577
9429 3664
9429 4224
9430 978
9430 1600
9430 3694
9430 4327
9431 931
9431 1617
9431 3631
9431 4261
9432 927
9432 1629
9432 3672
9432 4248
9433 964
9433 1599
9433 3591
9433 4295
9434 936
9434 1575
9434 3674
9434 4332
9435 928
9435 1640
9435 3701
9435 4289
9436 941
9436 1572
9436 3596
9436 4351
9437 937
9437 1564
9437 3688
9437 4314
9438 979
9438 1587
9438 3686
9438 4317
9439 984
9439 1582
9439 3705
9439 4287
9440 933
9440 1595
9440 3602
9440 4245
9441 977
9441 1556
9441 3657
9441 4334
9442 1017
9442 1660
9442 3627
9442 4338
9443 958
9443 1563
9443 3685
9443 4239
9444 1010
9444 1621
9444 3595
9444 4296
9445 1023
9445 1554
9445 3628
9445 4270
9446 952
9446 1570
9446 3663
9446 4348
9447 908
9447 1663
9447 3673
9447 4336
9448 976
9448 1553
9448 3616
9448 4250
9449 987
9449 1613
9449 3679
9449 4328
9450 910
9450 1597
9450 3711
9450 4330
9451 909
9451 1557
9451 3617
9451 4234
9452 988
9452 1601
9452 3587
9452 4343
9453 1001
9453 1552
9453 3613
9453 4310
9454 902
9454 1566
9454 3651
9454 4260
9455 967
9455 1538
9455 3692
9455 4241
9456 949
9456 1662
9456 3654
9456 4231
9457 972
9457 1611
9457 3626
9457 4229
9458 913
9458 1547
9458 3684
9458 4247
9459 1016
9459 1614
9459 3645
9459 4342
9460 912
9460 1627
9460 3707
9460 4274
9461 907
9461 1607
9461 3605
9461 4321
9462 938
9462 1651
9462 3601
9462 4233
9463 956
9463 1615
9463 3592
9463 4275
9464 971
9464 1612
9464 3706
9464 4282
9465 953
9465 1604
9465 3589
9465 4319
9466 961
9466 1643
9466 3661
9466 4320
9467 1007
9467 1542
9467 3652
9467 4301
9468 992
9468 1578
9468 3695
9468 4243
9469 968
9469 1653
9469 3709
9469 4331
9470 975
9470 1549
9470 3597
9470 4225
9471 926
9471 1548
9471 3612
9471 4340
9472 1081
9472 1755
9472 3731
9472 4367
9473 1141
9473 1714
9473 3736
9473 4370
9474 1054
9474 1774
9474 3733
9474 4444
9475 1139
9475 1680
9475 3720
9475 4462
9476 1080
9476 1785
9476 3757
9476 4429
9477 1046
9477 1716
9477 3763
9477 4467
9478 1104
9478 1757
9478 3744
9478 4438
9479 1043
9479 1790
9479 3759
9479 4358
9480 1048
9480 1698
9480 3713
9480 4479
9481 1033
9481 1710
9481 3804
9481 4368
9482 1122
9482 1711
9482 3829
9482 4386
9483 1113
9483 1728
9483 3825
9483 4423
9484 1036
9484 1709
9484 3741
9484 4382
9485 1147
9485 1736
9485 3839
9485 4356
9486 1068
9486 1762
9486 3766
9486 4374
9487 1061
9487 1766
9487 3729
9487 4441
9488 1078
9488 1743
9488 3814
9488 4404
9489 1098
9489 1745
9489 3785
9489 4475
9490 1103
9490 1664
9490 3782
9490 4381
9491 1110
9491 1681
9491 3727
9491 4457
9492 1136
9492 1683
9492 3735
9492 4394
9493 1148
9493 1666
9493 3730
9493 4425
9494 1073
9494 1726
9494 3786
9494 4470
9495 1057
9495 1692
9495 3822
9495 4360
9496 1096
9496 1671
9496 3764
9496 4446
9497 1143
9497 1733
9497 3715
9497 4436
9498 1092
9498 1767
9498 3806
9498 4455
9499 1071
9499 1729
9499 3815
9499 4414
9500 1145
9500 1741
9500 3755
9500 4383
9501 1052
9501 1689
9501 3836
9501 4371
9502 1125
9502 1765
9502 3734
9502 4362
9503 1062
9503 1717
9503 3817
9503 4353
9504 1112
9504 1702
9504 3826
9504 4384
9505 1101
9505 1679
9505 3775
9505 4405
9506 1039
9506 1779
9506 3838
9506 4471
9507 1034
9507 1747
9507 3750
9507 4428
9508 1138
9508 1734
9508 3791
9508 4385
9509 1037
9509 1715
9509 3777
9509 4390
9510 1085
9510 1730
9510 3767
9510 4454
9511 1044
9511 1687
9511 3827
9511 4379
9512 1089
9512 1699
9512 3719
9512 4392
9513 1108
9513 1731
9513 3790
9513 4375
9514 1102
9514 1764
9514 3808
9514 4416
9515 1109
9515 1739
9515 3740
9515 4437
9516 1130
9516 1751
9516 3803
9516 4439
9517 1146
9517 1727
9517 3728
9517 4399
9518 1095
9518 1697
9518 3811
9518 4450
9519 1079
9519 1676
9519 3794
9519 4477
9520 1042
9520 1750
9520 3751
9520 4460
9521 1150
9521 1781
9521 3774
9521 4424
9522 1070
9522 1670
9522 3772
9522 4365
9523 1088
9523 1756
9523 3796
9523 4363
9524 1097
9524 1695
9524 3771
9524 4447
9525 1083
9525 1691
9525 3788
9525 4410
9526 1028
9526 1703
9526 3722
9526 4391
9527 1151
9527 1749
9527 3770
9527 4443
9528 1056
9528 1682
9528 3761
9528 4451
9529 1050
9529 1685
9529 3749
9529 4418
9530 1111
9530 1694
9530 3824
9530 4468
9531 1032
9531 1677
9531 3753
9531 4463
9532 1086
9532 1713
9532 3739
9532 4417
9533 1075
9533 1688
9533 3712
9533 4398
9534 1144
9534 1725
9534 3797
9534 4395
9535 1129
9535 1700
9535 3809
9535 4464
9536 1117
9536 1667
9536 3819
9536 4377
9537 1093
9537 1724
9537 3726
9537 4380
9538 1134
9538 1772
9538 3756
9538 4465
9539 1025
9539 1705
9539 3830
9539 4456
9540 1051
9540 1690
9540 3723
9540 4413
9541 1047
9541 1788
9541 3747
9541 4359
9542 1137
9542 1684
9542 3798
9542 4466
9543 1027
9543 1707
9543 3837
9543 4397
9544 1116
9544 1759
9544 3769
9544 4352
9545 1067
9545 1773
9545 3748
9545 4478
9546 1126
9546 1720
9546 3789
9546 4376
9547 1091
9547 1740
9547 3799
9547 4432
9548 1064
9548 1693
9548 3832
9548 4476
9549 1069
9549 1753
9549 3718
9549 4357
9550 1121
9550 1778
9550 3833
9550 4387
9551 1135
9551 1786
9551 3760
9551 4472
9552 1140
9552 1760
9552 3737
9552 4461
9553 1114
9553 1665
9553 3783
9553 4453
9554 1131
9554 1752
9554 3831
9554 4433
9555 1082
9555 1769
9555 3768
9555 4400
9556 1029
9556 1696
9556 3716
9556 4458
9557 1084
9557 1770
9557 3780
9557 4355
9558 1119
9558 1758
9558 3795
9558 4411
9559 1059
9559 1754
9559 3821
9559 4449
9560 1055
9560 1787
9560 3820
9560 4369
9561 1066
9561 1722
9561 3773
9561 4354
9562 1024
9562 1776
9562 3807
9562 4442
9563 1035
9563 1706
9563 3742
9563 4406
9564 1090
9564 1708
9564 3784
9564 4402
9565 1124
9565 1780
9565 3835
9565 4430
9566 1074
9566 1686
9566 3793
9566 4396
9567 1105
9567 1669
9567 3765
9567 4420
9568 1076
9568 1771
9568 3810
9568 4364
9569 1094
9569 1744
9569 3779
9569 4412
9570 1041
9570 1668
9570 3762
9570 4469
9571 1107
9571 1763
9571 3805
9571 4474
9572 1099
9572 1704
9572 3776
9572 4366
9573 1060
9573 1777
9573 3752
9573 4409
9574 1040
9574 1719
9574 3823
9574 4361
9575 1058
9575 1784
9575 3724
9575 4378
9576 1149
9576 1791
9576 3743
9576 4426
9577 1132
9577 1746
9577 3717
9577 4372
9578 1049
9578 1782
9578 3816
9578 4401
9579 1123
9579 1701
9579 3732
9579 4388
9580 1142
9580 1738
9580 3802
9580 4373
9581 1038
9581 1742
9581 3721
9581 4393
9582 1133
9582 1674
9582 3834
9582 4408
9583 1045
9583 1721
9583 3812
9583 4473
9584 1118
9584 1735
9584 3754
9584 4445
9585 1053
9585 1783
9585 3818
9585 4452
9586 1115
9586 1737
9586 3745
9586 4440
9587 1063
9587 1732
9587 3714
9587 4419
9588 1106
9588 1723
9588 3778
9588 4459
9589 1120
9589 1775
9589 3792
9589 4415
9590 1128
9590 1718
9590 3725
9590 4448
9591 1077
9591 1761
9591 3746
9591 4407
9592 1127
9592 1678
9592 3787
9592 4431
9593 1072
9593 1675
9593 3800
9593 4389
9594 1031
9594 1748
9594 3813
9594 4403
9595 1030
9595 1672
9595 3781
9595 4421
9596 1065
9596 1673
9596 3738
9596 4422
9597 1100
9597 1712
9597 3828
9597 4434
9598 1087
9598 1789
9598 3758
9598 4427
9599 1026
9599 1768
9599 3801
9599 4435
9600 1157
9600 1871
9600 3873
9600 4516
9601 1269
9601 1830
9601 3962
9601 4559
9602 1190
9602 1880
9602 3875
9602 4591
9603 1175
9603 1916
9603 3844
9603 4575
9604 1243
9604 1910
9604 3897
9604 4551
9605 1213
9605 1839
9605 3941
9605 4599
9606 1225
9606 1866
9606 3849
9606 4496
9607 1181
9607 1836
9607 3931
9607 4520
9608 1183
9608 1792
9608 3904
9608 4547
9609 1246
9609 1908
9609 3893
9609 4506
9610 1238
9610 1797
9610 3965
9610 4600
9611 1237
9611 1848
9611 3881
9611 4557
9612 1235
9612 1823
9612 3942
9612 4588
9613 1178
9613 1850
9613 3947
9613 4515
9614 1215
9614 1909
9614 3949
9614 4531
9615 1200
9615 1914
9615 3924
9615 4524
9616 1206
9616 1812
9616 3895
9616 4522
9617 1258
9617 1842
9617 3915
9617 4582
9618 1236
9618 1896
9618 3908
9618 4501
9619 1266
9619 1852
9619 3946
9619 4495
9620 1171
9620 1796
9620 3954
9620 4556
9621 1241
9621 1803
9621 3943
9621 4558
9622 1217
9622 1818
9622 3918
9622 4481
9623 1261
9623 1794
9623 3921
9623 4504
9624 1166
9624 1804
9624 3932
9624 4493
9625 1264
9625 1861
9625 3876
9625 4532
9626 1189
9626 1855
9626 3934
9626 4538
9627 1162
9627 1895
9627 3899
9627 4565
9628 1277
9628 1846
9628 3882
9628 4537
9629 1195
9629 1904
9629 3865
9629 4561
9630 1184
9630 1859
9630 3883
9630 4510
9631 1152
9631 1869
9631 3935
9631 4544
9632 1232
9632 1883
9632 3886
9632 4589
9633 1227
9633 1845
9633 3951
9633 4507
9634 1267
9634 1901
9634 3919
9634 4541
9635 1172
9635 1867
9635 3957
9635 4486
9636 1230
9636 1809
9636 3856
9636 4500
9637 1212
9637 1918
9637 3923
9637 4577
9638 1222
9638 1819
9638 3906
9638 4549
9639 1262
9639 1870
9639 3855
9639 4606
9640 1271
9640 1894
9640 3938
9640 4497
9641 1218
9641 1889
9641 3936
9641 4523
9642 1219
9642 1841
9642 3953
9642 4598
9643 1223
9643 1820
9643 3911
9643 4498
9644 1248
9644 1863
9644 3964
9644 4574
9645 1234
9645 1912
9645 3860
9645 4491
9646 1253
9646 1875
9646 3880
9646 4560
9647 1245
9647 1856
9647 3888
9647 4593
9648 1186
9648 1888
9648 3948
9648 4521
9649 1263
9649 1907
9649 3874
9649 4543
9650 1257
9650 1844
9650 3900
9650 4485
9651 1163
9651 1832
9651 3861
9651 4534
9652 1260
9652 1821
9652 3854
9652 4511
9653 1168
9653 1886
9653 3872
9653 4586
9654 1154
9654 1816
9654 3889
9654 4569
9655 1191
9655 1854
9655 3902
9655 4566
9656 1164
9656 1899
9656 3909
9656 4576
9657 1158
9657 1903
9657 3966
9657 4542
9658 1173
9658 1827
9658 3925
9658 4587
9659 1207
9659 1800
9659 3894
9659 4535
9660 1205
9660 1813
9660 3891
9660 4527
9661 1224
9661 1807
9661 3887
9661 4513
9662 1226
9662 1902
9662 3857
9662 4545
9663 1170
9663 1837
9663 3871
9663 4605
9664 1220
9664 1831
9664 3848
9664 4552
9665 1216
9665 1829
9665 3916
9665 4483
9666 1240
9666 1881
9666 3933
9666 4578
9667 1153
9667 1815
9667 3840
9667 4573
9668 1177
9668 1857
9668 3905
9668 4488
9669 1228
9669 1843
9669 3956
9669 4567
9670 1174
9670 1885
9670 3937
9670 4583
9671 1188
9671 1793
9671 3867
9671 4570
9672 1179
9672 1858
9672 3847
9672 4490
9673 1255
9673 1905
9673 3866
9673 4499
9674 1199
9674 1824
9674 3910
9674 4594
9675 1239
9675 1906
9675 3927
9675 4596
9676 1221
9676 1860
9676 3862
9676 4604
9677 1202
9677 1828
9677 3885
9677 4555
9678 1210
9678 1799
9678 3914
9678 4553
9679 1268
9679 1822
9679 3858
9679 4517
9680 1160
9680 1917
9680 3853
9680 4568
9681 1201
9681 1840
9681 3878
9681 4536
9682 1252
9682 1865
9682 3922
9682 4503
9683 1214
9683 1833
9683 3877
9683 4595
9684 1259
9684 1814
9684 3912
9684 4482
9685 1233
9685 1808
9685 3952
9685 4508
9686 1211
9686 1826
9686 3884
9686 4602
9687 1197
9687 1897
9687 3864
9687 4518
9688 1229
9688 1834
9688 3944
9688 4489
9689 1193
9689 1849
9689 3926
9689 4548
9690 1272
9690 1862
9690 3907
9690 4579
9691 1187
9691 1915
9691 3959
9691 4533
9692 1161
9692 1806
9692 3852
9692 4539
9693 1275
9693 1913
9693 3898
9693 4514
9694 1254
9694 1873
9694 3845
9694 4563
9695 1250
9695 1884
9695 3930
9695 4528
9696 1209
9696 1795
9696 3955
9696 4480
9697 1249
9697 1878
9697 3843
9697 4607
9698 1231
9698 1893
9698 3890
9698 4505
9699 1208
9699 1882
9699 3963
9699 4530
9700 1169
9700 1838
9700 3842
9700 4494
9701 1273
9701 1817
9701 3870
9701 4519
9702 1196
9702 1879
9702 3958
9702 4540
9703 1270
9703 1876
9703 3846
9703 4512
9704 1244
9704 1874
9704 3896
9704 4590
9705 1194
9705 1810
9705 3850
9705 4562
9706 1265
9706 1851
9706 3901
9706 4526
9707 1204
9707 1911
9707 3892
9707 4509
9708 1256
9708 1802
9708 3945
9708 4554
9709 1251
9709 1900
9709 3929
9709 4525
9710 1159
9710 1805
9710 3913
9710 4571
9711 1167
9711 1825
9711 3903
9711 4581
9712 1279
9712 1919
9712 3851
9712 4572
9713 1198
9713 1868
9713 3917
9713 4601
9714 1247
9714 1891
9714 3841
9714 4603
9715 1242
9715 1877
9715 3960
9715 4584
9716 1155
9716 1892
9716 3869
9716 4487
9717 1278
9717 1864
9717 3879
9717 4597
9718 1192
9718 1853
9718 3863
9718 4564
9719 1182
9719 1811
9719 3920
9719 4484
9720 1180
9720 1835
9720 3928
9720 4585
9721 1176
9721 1898
9721 3967
9721 4529
9722 1185
9722 1847
9722 3868
9722 4592
9723 1165
9723 1890
9723 3939
9723 4550
9724 1203
9724 1872
9724 3961
9724 4580
9725 1274
9725 1801
9725 3940
9725 4502
9726 1156
9726 1798
9726 3950
9726 4492
9727 1276
9727 1887
9727 3859
9727 4546
9728 1280
9728 2040
9728 4012
9728 4670
9729 1311
9729 2041
9729 3996
9729 4677
9730 1345
9730 1939
9730 4014
9730 4654
9731 1386
9731 2047
9731 3976
9731 4680
9732 1353
9732 2021
9732 4060
9732 4658
9733 1382
9733 2020
9733 4025
9733 4647
9734 1283
9734 1978
9734 4006
9734 4722
9735 1289
9735 1984
9735 3986
9735 4673
9736 1306
9736 1998
9736 3977
9736 4705
9737 1297
9737 1946
9737 4023
9737 4698
9738 1379
9738 1995
9738 4065
9738 4732
9739 1322
9739 1965
9739 3998
9739 4709
9740 1293
9740 1968
9740 4058
9740 4641
9741 1399
9741 2004
9741 4056
9741 4712
9742 1315
9742 1941
9742 3974
9742 4624
9743 1321
9743 1964
9743 3982
9743 4676
9744 1373
9744 1935
9744 3997
9744 4696
9745 1349
9745 2043
9745 3990
9745 4627
9746 1392
9746 1977
9746 3983
9746 4650
9747 1314
9747 1932
9747 4031
9747 4637
9748 1407
9748 2009
9748 4095
9748 4610
9749 1377
9749 1938
9749 3970
9749 4693
9750 1333
9750 1925
9750 4030
9750 4655
9751 1389
9751 2001
9751 4044
9751 4699
9752 1406
9752 2029
9752 4035
9752 4703
9753 1320
9753 1951
9753 4048
9753 4714
9754 1284
9754 1985
9754 4015
9754 4623
9755 1332
9755 1973
9755 4033
9755 4609
9756 1308
9756 1958
9756 3975
9756 4611
9757 1393
9757 2015
9757 3985
9757 4612
9758 1296
9758 1952
9758 3968
9758 4697
9759 1391
9759 1950
9759 4028
9759 4633
9760 1325
9760 1930
9760 4081
9760 4613
9761 1290
9761 1948
9761 3980
9761 4682
9762 1313
9762 1966
9762 4004
9762 4719
9763 1286
9763 1955
9763 4021
9763 4706
9764 1348
9764 1924
9764 3979
9764 4724
9765 1403
9765 1931
9765 3995
9765 4715
9766 1326
9766 1992
9766 4084
9766 4649
9767 1369
9767 2027
9767 4075
9767 4642
9768 1385
9768 1982
9768 4039
9768 4645
9769 1334
9769 1971
9769 4007
9769 4668
9770 1359
9770 1944
9770 4093
9770 4689
9771 1340
9771 2022
9771 4094
9771 4619
9772 1344
9772 1980
9772 4045
9772 4617
9773 1307
9773 1972
9773 3984
9773 4730
9774 1310
9774 1942
9774 4080
9774 4691
9775 1288
9775 2011
9775 4067
9775 4688
9776 1361
9776 1947
9776 4000
9776 4701
9777 1309
9777 1988
9777 4072
9777 4646
9778 1396
9778 2031
9778 4053
9778 4639
9779 1370
9779 1933
9779 4062
9779 4631
9780 1400
9780 2008
9780 3987
9780 4648
9781 1404
9781 1960
9781 4073
9781 4686
9782 1303
9782 1961
9782 3969
9782 4694
9783 1364
9783 2045
9783 4069
9783 4728
9784 1330
9784 1945
9784 4022
9784 4710
9785 1398
9785 1989
9785 4047
9785 4656
9786 1354
9786 2044
9786 4037
9786 4621
9787 1363
9787 1959
9787 4088
9787 4672
9788 1384
9788 1953
9788 4005
9788 4667
9789 1301
9789 2018
9789 4090
9789 4716
9790 1329
9790 1963
9790 4049
9790 4665
9791 1343
9791 1962
9791 4038
9791 4660
9792 1285
9792 2042
9792 4064
9792 4651
9793 1368
9793 1954
9793 4087
9793 4707
9794 1366
9794 2035
9794 4008
9794 4678
9795 1356
9795 1956
9795 3971
9795 4704
9796 1336
9796 2034
9796 3992
9796 4666
9797 1327
9797 1986
9797 3993
9797 4628
9798 1324
9798 2039
9798 4001
9798 4690
9799 1350
9799 1957
9799 3991
9799 4725
9800 1371
9800 2007
9800 4003
9800 4720
9801 1294
9801 2024
9801 4077
9801 4679
9802 1387
9802 1975
9802 3999
9802 4721
9803 1299
9803 1927
9803 4041
9803 4669
9804 1395
9804 1943
9804 4078
9804 4636
9805 1304
9805 1949
9805 4024
9805 4695
9806 1376
9806 2002
9806 4092
9806 4640
9807 1281
9807 2017
9807 4009
9807 4717
9808 1362
9808 1997
9808 4027
9808 4729
9809 1341
9809 1993
9809 4018
9809 4711
9810 1390
9810 1929
9810 4036
9810 4659
9811 1401
9811 2046
9811 4002
9811 4616
9812 1328
9812 2038
9812 3989
9812 4733
9813 1302
9813 2036
9813 4040
9813 4632
9814 1337
9814 1996
9814 4017
9814 4630
9815 1351
9815 1923
9815 4032
9815 4634
9816 1383
9816 2010
9816 4034
9816 4629
9817 1346
9817 2005
9817 4071
9817 4674
9818 1388
9818 2019
9818 4091
9818 4662
9819 1282
9819 1987
9819 4068
9819 4638
9820 1331
9820 2016
9820 3988
9820 4635
9821 1374
9821 1936
9821 4085
9821 4702
9822 1405
9822 2003
9822 4016
9822 4652
9823 1319
9823 1999
9823 4019
9823 4661
9824 1287
9824 1921
9824 4074
9824 4664
9825 1355
9825 1979
9825 4070
9825 4626
9826 1305
9826 2030
9826 4063
9826 4622
9827 1357
9827 1922
9827 4083
9827 4657
9828 1312
9828 1976
9828 4076
9828 4615
9829 1381
9829 2033
9829 3972
9829 4692
9830 1358
9830 2023
9830 4061
9830 4643
9831 1318
9831 1994
9831 4011
9831 4734
9832 1352
9832 2012
9832 3981
9832 4684
9833 1375
9833 2025
9833 4059
9833 4718
9834 1402
9834 1991
9834 4020
9834 4614
9835 1295
9835 2014
9835 3973
9835 4727
9836 1378
9836 1937
9836 4057
9836 4731
9837 1300
9837 1969
9837 4013
9837 4685
9838 1347
9838 1940
9838 4026
9838 4663
9839 1397
9839 1967
9839 4052
9839 4620
9840 1365
9840 2026
9840 3978
9840 4726
9841 1323
9841 2037
9841 4043
9841 4675
9842 1367
9842 2028
9842 4051
9842 4653
9843 1380
9843 1983
9843 4050
9843 4723
9844 1298
9844 2006
9844 4089
9844 4687
9845 1338
9845 1926
9845 4079
9845 4671
9846 1339
9846 2032
9846 4046
9846 4683
9847 1360
9847 1974
9847 4066
9847 4618
9848 1317
9848 1981
9848 4054
9848 4735
9849 1372
9849 1990
9849 4029
9849 4681
9850 1342
9850 1970
9850 4086
9850 4625
9851 1292
9851 2000
9851 4010
9851 4644
9852 1316
9852 1928
9852 3994
9852 4708
9853 1335
9853 2013
9853 4082
9853 4713
9854 1291
9854 1934
9854 4042
9854 4700
9855 1394
9855 1920
9855 4055
9855 4608
9856 54
9856 2001
9856 3842
9856 4463
9857 75
9857 1950
9857 3864
9857 4422
9858 99
9858 2036
9858 3852
9858 4372
9859 92
9859 2037
9859 3898
9859 4375
9860 48
9860 2035
9860 3893
9860 4430
9861 20
9861 1941
9861 3855
9861 4454
9862 97
9862 1953
9862 3947
9862 4421
9863 91
9863 2030
9863 3921
9863 4462
9864 96
9864 2031
9864 3966
9864 4458
9865 123
9865 2038
9865 3948
9865 4466
9866 24
9866 1973
9866 3914
9866 4353
9867 36
9867 1975
9867 3850
9867 4382
9868 119
9868 2000
9868 3888
9868 4423
9869 83
9869 1949
9869 3942
9869 4381
9870 89
9870 2042
9870 3925
9870 4386
9871 77
9871 2045
9871 3946
9871 4366
9872 93
9872 2013
9872 3955
9872 4424
9873 13
9873 1939
9873 3930
9873 4392
9874 19
9874 1997
9874 3960
9874 4361
9875 27
9875 1960
9875 3883
9875 4371
9876 25
9876 2023
9876 3912
9876 4448
9877 122
9877 2044
9877 3868
9877 4451
9878 17
9878 2014
9878 3853
9878 4389
9879 5
9879 1934
9879 3851
9879 4377
9880 11
9880 1994
9880 3915
9880 4440
9881 7
9881 2008
9881 3933
9881 4355
9882 61
9882 1959
9882 3951
9882 4397
9883 49
9883 2012
9883 3956
9883 4475
9884 73
9884 1981
9884 3962
9884 4391
9885 56
9885 1971
9885 3845
9885 4357
9886 29
9886 1967
9886 3963
9886 4390
9887 94
9887 1974
9887 3863
9887 4472
9888 8
9888 1979
9888 3944
9888 4408
9889 125
9889 1940
9889 3953
9889 4368
9890 121
9890 1980
9890 3879
9890 4394
9891 1
9891 1937
9891 3929
9891 4429
9892 33
9892 2040
9892 3885
9892 4417
9893 85
9893 2003
9893 3854
9893 4432
9894 72
9894 2033
9894 3905
9894 4467
9895 14
9895 1932
9895 3867
9895 4396
9896 70
9896 1993
9896 3877
9896 4363
9897 118
9897 1951
9897 3884
9897 4418
9898 109
9898 1986
9898 3959
9898 4446
9899 38
9899 1945
9899 3964
9899 4387
9900 44
9900 2004
9900 3926
9900 4479
9901 0
9901 1947
9901 3958
9901 4380
9902 81
9902 1996
9902 3927
9902 4388
9903 9
9903 2007
9903 3934
9903 4378
9904 112
9904 2006
9904 3849
9904 4379
9905 18
9905 2034
9905 3918
9905 4352
9906 4
9906 2020
9906 3917
9906 4399
9907 74
9907 2015
9907 3844
9907 4416
9908 127
9908 1929
9908 3892
9908 4358
9909 6
9909 2019
9909 3874
9909 4415
9910 80
9910 1938
9910 3954
9910 4420
9911 124
9911 1995
9911 3843
9911 4364
9912 88
9912 2027
9912 3872
9912 4433
9913 60
9913 1933
9913 3949
9913 4449
9914 65
9914 1956
9914 3940
9914 4354
9915 55
9915 1965
9915 3904
9915 4356
9916 111
9916 1926
9916 3878
9916 4412
9917 26
9917 1968
9917 3876
9917 4474
9918 10
9918 1952
9918 3932
9918 4376
9919 39
9919 1925
9919 3881
9919 4453
9920 47
9920 1991
9920 3936
9920 4362
9921 43
9921 1982
9921 3886
9921 4455
9922 113
9922 1962
9922 3906
9922 4367
9923 59
9923 1977
9923 3919
9923 4461
9924 102
9924 1942
9924 3897
9924 4402
9925 23
9925 1972
9925 3875
9925 4464
9926 53
9926 1985
9926 3857
9926 4438
9927 71
9927 2018
9927 3880
9927 4436
9928 117
9928 2009
9928 3950
9928 4425
9929 115
9929 1920
9929 3899
9929 4477
9930 101
9930 1964
9930 3862
9930 4419
9931 62
9931 1961
9931 3903
9931 4426
9932 46
9932 1924
9932 3937
9932 4442
9933 58
9933 1987
9933 3900
9933 4476
9934 30
9934 1931
9934 3923
9934 4409
9935 106
9935 1990
9935 3861
9935 4470
9936 31
9936 1921
9936 3939
9936 4383
9937 22
9937 2046
9937 3841
9937 4359
9938 78
9938 2022
9938 3957
9938 4384
9939 84
9939 2016
9939 3952
9939 4437
9940 79
9940 1948
9940 3847
9940 4365
9941 32
9941 1992
9941 3860
9941 4431
9942 28
9942 1984
9942 3848
9942 4398
9943 116
9943 1928
9943 3902
9943 4404
9944 107
9944 2002
9944 3882
9944 4468
9945 95
9945 1923
9945 3894
9945 4456
9946 100
9946 1969
9946 3871
9946 4434
9947 40
9947 2029
9947 3870
9947 4403
9948 51
9948 1983
9948 3943
9948 4410
9949 76
9949 2043
9949 3928
9949 4452
9950 45
9950 1955
9950 3907
9950 4428
9951 103
9951 1963
9951 3858
9951 4478
9952 98
9952 1922
9952 3909
9952 4405
9953 52
9953 1988
9953 3866
9953 4445
9954 3
9954 2010
9954 3856
9954 4393
9955 82
9955 2024
9955 3846
9955 4413
9956 37
9956 2039
9956 3889
9956 4473
9957 90
9957 1944
9957 3913
9957 4444
9958 126
9958 1954
9958 3873
9958 4406
9959 108
9959 2026
9959 3924
9959 4439
9960 69
9960 1957
9960 3859
9960 4401
9961 34
9961 2032
9961 3890
9961 4457
9962 114
9962 1958
9962 3916
9962 4435
9963 21
9963 1943
9963 3887
9963 4411
9964 63
9964 1966
9964 3891
9964 4443
9965 104
9965 2017
9965 3869
9965 4407
9966 68
9966 1927
9966 3931
9966 4469
9967 35
9967 1930
9967 3840
9967 4374
9968 16
9968 1976
9968 3961
9968 4400
9969 50
9969 1999
9969 3895
9969 4385
9970 15
9970 2025
9970 3941
9970 4465
9971 64
9971 2005
9971 3945
9971 4427
9972 67
9972 1989
9972 3896
9972 4441
9973 2
9973 2028
9973 3922
9973 4460
9974 110
9974 2021
9974 3908
9974 4414
9975 42
9975 1935
9975 3910
9975 4370
9976 66
9976 1970
9976 3967
9976 4447
9977 87
9977 1998
9977 3938
9977 4471
9978 57
9978 1936
9978 3911
9978 4395
9979 86
9979 2011
9979 3865
9979 4373
9980 105
9980 2047
9980 3901
9980 4369
9981 12
9981 1978
9981 3920
9981 4360
9982 120
9982 2041
9982 3965
9982 4459
9983 41
9983 1946
9983 3935
9983 4450
9984 176
9984 2050
9984 4012
9984 4542
9985 217
9985 2134
9985 4015
9985 4588
9986 169
9986 2167
9986 4008
9986 4575
9987 181
9987 2058
9987 4071
9987 4507
9988 172
9988 2054
9988 4025
9988 4530
9989 156
9989 2157
9989 3994
9989 4568
9990 254
9990 2171
9990 4095
9990 4597
9991 145
9991 2075
9991 4043
9991 4594
9992 224
9992 2122
9992 4028
9992 4482
9993 242
9993 2056
9993 4075
9993 4540
9994 237
9994 2088
9994 4010
9994 4553
9995 170
9995 2083
9995 4091
9995 4537
9996 213
9996 2123
9996 4045
9996 4519
9997 228
9997 2128
9997 3976
9997 4483
9998 192
9998 2154
9998 3972
9998 4489
9999 223
9999 2126
9999 4058
9999 4522
10000 130
10000 2095
10000 4078
10000 4527
10001 196
10001 2164
10001 3997
10001 4554
10002 150
10002 2143
10002 4072
10002 4501
10003 184
10003 2110
10003 3993
10003 4544
10004 153
10004 2078
10004 4089
10004 4531
10005 207
10005 2113
10005 4080
10005 4543
10006 231
10006 2092
10006 4029
10006 4480
10007 142
10007 2174
10007 3983
10007 4495
10008 204
10008 2153
10008 4047
10008 4592
10009 214
10009 2145
10009 3992
10009 4579
10010 129
10010 2101
10010 4021
10010 4521
10011 240
10011 2104
10011 4076
10011 4484
10012 177
10012 2133
10012 4024
10012 4505
10013 155
10013 2132
10013 4039
10013 4571
10014 166
10014 2057
10014 4014
10014 4497
10015 154
10015 2166
10015 4002
10015 4487
10016 163
10016 2108
10016 4005
10016 4605
10017 149
10017 2084
10017 4017
10017 4488
10018 180
10018 2098
10018 3975
10018 4598
10019 239
10019 2077
10019 4016
10019 4556
10020 174
10020 2063
10020 4053
10020 4599
10021 151
10021 2160
10021 4077
10021 4517
10022 216
10022 2119
10022 4084
10022 4494
10023 206
10023 2172
10023 4000
10023 4549
10024 198
10024 2175
10024 4082
10024 4493
10025 135
10025 2127
10025 3989
10025 4525
10026 175
10026 2072
10026 4094
10026 4581
10027 133
10027 2161
10027 4079
10027 4509
10028 173
10028 2150
10028 4061
10028 4580
10029 171
10029 2069
10029 4074
10029 4559
10030 193
10030 2120
10030 4054
10030 4486
10031 232
10031 2112
10031 3978
10031 4492
10032 208
10032 2156
10032 4038
10032 4555
10033 140
10033 2073
10033 4044
10033 4567
10034 144
10034 2129
10034 4011
10034 4586
10035 164
10035 2144
10035 4086
10035 4600
10036 158
10036 2137
10036 4093
10036 4526
10037 143
10037 2147
10037 4003
10037 4550
10038 219
10038 2079
10038 4067
10038 4576
10039 202
10039 2170
10039 4020
10039 4496
10040 215
10040 2067
10040 4056
10040 4510
10041 229
10041 2099
10041 4081
10041 4506
10042 152
10042 2148
10042 4046
10042 4529
10043 194
10043 2118
10043 3987
10043 4574
10044 186
10044 2121
10044 4033
10044 4561
10045 243
10045 2103
10045 4042
10045 4564
10046 236
10046 2048
10046 4085
10046 4511
10047 249
10047 2074
10047 4064
10047 4500
10048 199
10048 2066
10048 4050
10048 4503
10049 146
10049 2059
10049 4070
10049 4491
10050 222
10050 2158
10050 4065
10050 4485
10051 183
10051 2139
10051 3970
10051 4508
10052 178
10052 2091
10052 4083
10052 4606
10053 211
10053 2081
10053 3996
10053 4547
10054 136
10054 2115
10054 3974
10054 4533
10055 185
10055 2070
10055 4062
10055 4589
10056 233
10056 2065
10056 3980
10056 4593
10057 251
10057 2053
10057 4027
10057 4572
10058 188
10058 2060
10058 3977
10058 4548
10059 221
10059 2140
10059 4019
10059 4523
10060 238
10060 2087
10060 4001
10060 4577
10061 234
10061 2142
10061 3988
10061 4504
10062 205
10062 2105
10062 4052
10062 4563
10063 167
10063 2125
10063 3973
10063 4562
10064 218
10064 2106
10064 3998
10064 4583
10065 210
10065 2124
10065 4037
10065 4603
10066 131
10066 2071
10066 4041
10066 4587
10067 247
10067 2117
10067 4055
10067 4552
10068 225
10068 2141
10068 4022
10068 4573
10069 253
10069 2090
10069 3991
10069 4513
10070 148
10070 2159
10070 4059
10070 4604
10071 244
10071 2051
10071 3995
10071 4545
10072 187
10072 2165
10072 4034
10072 4541
10073 195
10073 2089
10073 4068
10073 4524
10074 134
10074 2086
10074 4023
10074 4514
10075 141
10075 2173
10075 3969
10075 4557
10076 182
10076 2061
10076 4073
10076 4596
10077 220
10077 2111
10077 4092
10077 4551
10078 200
10078 2085
10078 4087
10078 4546
10079 139
10079 2155
10079 4030
10079 4520
10080 227
10080 2068
10080 3979
10080 4591
10081 235
10081 2094
10081 4035
10081 4538
10082 168
10082 2152
10082 4026
10082 4499
10083 255
10083 2146
10083 4004
10083 4498
10084 248
10084 2055
10084 3990
10084 4515
10085 162
10085 2131
10085 3981
10085 4566
10086 212
10086 2130
10086 4009
10086 4565
10087 209
10087 2163
10087 4051
10087 4518
10088 246
10088 2080
10088 4069
10088 4601
10089 245
10089 2097
10089 4048
10089 4512
10090 179
10090 2149
10090 4018
10090 4481
10091 159
10091 2136
10091 3968
10091 4528
10092 250
10092 2096
10092 4032
10092 4560
10093 132
10093 2138
10093 3999
10093 4590
10094 241
10094 2135
10094 4060
10094 4502
10095 161
10095 2062
10095 4049
10095 4582
10096 191
10096 2114
10096 4040
10096 4516
10097 201
10097 2168
10097 4063
10097 4558
10098 137
10098 2116
10098 4007
10098 4585
10099 128
10099 2100
10099 4013
10099 4570
10100 203
10100 2082
10100 4088
10100 4607
10101 189
10101 2109
10101 4006
10101 4602
10102 230
10102 2162
10102 4090
10102 4539
10103 165
10103 2151
10103 4031
10103 4584
10104 157
10104 2049
10104 4036
10104 4532
10105 252
10105 2093
10105 3971
10105 4490
10106 147
10106 2076
10106 3985
10106 4569
10107 138
10107 2169
10107 4066
10107 4535
10108 160
10108 2064
10108 3982
10108 4534
10109 190
10109 2102
10109 4057
10109 4578
10110 226
10110 2107
10110 3986
10110 4595
10111 197
10111 2052
10111 3984
10111 4536
10112 360
10112 2193
10112 4214
10112 4690
10113 333
10113 2218
10113 4136
10113 4672
10114 273
10114 2220
10114 4208
10114 4642
10115 337
10115 2206
10115 4190
10115 4696
10116 282
10116 2183
10116 4108
10116 4686
10117 321
10117 2272
10117 4222
10117 4668
10118 283
10118 2210
10118 4171
10118 4649
10119 375
10119 2192
10119 4156
10119 4665
10120 319
10120 2242
10120 4099
10120 4659
10121 256
10121 2195
10121 4153
10121 4675
10122 336
10122 2263
10122 4151
10122 4685
10123 292
10123 2300
10123 4161
10123 4658
10124 342
10124 2223
10124 4194
10124 4613
10125 318
10125 2250
10125 4168
10125 4695
10126 276
10126 2194
10126 4187
10126 4721
10127 378
10127 2231
10127 4102
10127 4644
10128 264
10128 2249
10128 4196
10128 4633
10129 288
10129 2270
10129 4186
10129 4629
10130 277
10130 2225
10130 4140
10130 4688
10131 372
10131 2286
10131 4113
10131 4617
10132 340
10132 2302
10132 4123
10132 4700
10133 359
10133 2293
10133 4218
10133 4697
10134 271
10134 2277
10134 4110
10134 4615
10135 281
10135 2244
10135 4205
10135 4711
10136 373
10136 2233
10136 4184
10136 4726
10137 265
10137 2275
10137 4181
10137 4669
10138 362
10138 2239
10138 4204
10138 4691
10139 327
10139 2211
10139 4169
10139 4684
10140 344
10140 2276
10140 4103
10140 4636
10141 259
10141 2265
10141 4200
10141 4679
10142 300
10142 2196
10142 4178
10142 4715
10143 260
10143 2296
10143 4212
10143 4664
10144 343
10144 2190
10144 4199
10144 4641
10145 279
10145 2237
10145 4213
10145 4635
10146 382
10146 2182
10146 4147
10146 4708
10147 291
10147 2281
10147 4096
10147 4608
10148 367
10148 2207
10148 4138
10148 4673
10149 296
10149 2189
10149 4154
10149 4643
10150 269
10150 2279
10150 4124
10150 4677
10151 315
10151 2253
10151 4149
10151 4671
10152 317
10152 2294
10152 4170
10152 4663
10153 297
10153 2224
10153 4125
10153 4681
10154 358
10154 2203
10154 4122
10154 4612
10155 304
10155 2303
10155 4144
10155 4719
10156 284
10156 2282
10156 4183
10156 4616
10157 339
10157 2186
10157 4137
10157 4625
10158 380
10158 2273
10158 4193
10158 4693
10159 286
10159 2215
10159 4109
10159 4730
10160 312
10160 2298
10160 4220
10160 4653
10161 280
10161 2262
10161 4127
10161 4610
10162 308
10162 2260
10162 4112
10162 4637
10163 354
10163 2208
10163 4159
10163 4655
10164 381
10164 2198
10164 4189
10164 4650
10165 293
10165 2267
10165 4173
10165 4723
10166 350
10166 2261
10166 4098
10166 4717
10167 356
10167 2176
10167 4116
10167 4678
10168 289
10168 2268
10168 4148
10168 4624
10169 305
10169 2201
10169 4221
10169 4609
10170 267
10170 2241
10170 4177
10170 4731
10171 355
10171 2288
10171 4203
10171 4706
10172 320
10172 2188
10172 4129
10172 4666
10173 278
10173 2228
10173 4111
10173 4634
10174 257
10174 2257
10174 4135
10174 4618
10175 302
10175 2219
10175 4106
10175 4727
10176 295
10176 2283
10176 4155
10176 4720
10177 258
10177 2285
10177 4202
10177 4626
10178 330
10178 2229
10178 4139
10178 4670
10179 326
10179 2271
10179 4192
10179 4689
10180 361
10180 2299
10180 4146
10180 4640
10181 316
10181 2187
10181 4107
10181 4687
10182 363
10182 2222
10182 4172
10182 4639
10183 261
10183 2177
10183 4201
10183 4694
10184 331
10184 2252
10184 4118
10184 4701
10185 310
10185 2280
10185 4219
10185 4638
10186 268
10186 2248
10186 4114
10186 4630
10187 272
10187 2214
10187 4210
10187 4620
10188 294
10188 2234
10188 4119
10188 4652
10189 352
10189 2292
10189 4120
10189 4702
10190 347
10190 2258
10190 4209
10190 4713
10191 298
10191 2259
10191 4163
10191 4623
10192 364
10192 2230
10192 4152
10192 4725
10193 371
10193 2204
10193 4188
10193 4645
10194 329
10194 2185
10194 4121
10194 4705
10195 313
10195 2179
10195 4115
10195 4646
10196 323
10196 2200
10196 4191
10196 4728
10197 301
10197 2295
10197 4104
10197 4619
10198 349
10198 2238
10198 4162
10198 4627
10199 290
10199 2301
10199 4142
10199 4692
10200 346
10200 2227
10200 4165
10200 4699
10201 275
10201 2197
10201 4128
10201 4733
10202 328
10202 2287
10202 4179
10202 4648
10203 351
10203 2243
10203 4174
10203 4683
10204 287
10204 2191
10204 4133
10204 4656
10205 306
10205 2235
10205 4143
10205 4710
10206 335
10206 2266
10206 4097
10206 4680
10207 324
10207 2184
10207 4216
10207 4654
10208 314
10208 2180
10208 4145
10208 4724
10209 348
10209 2291
10209 4195
10209 4674
10210 341
10210 2278
10210 4167
10210 4647
10211 309
10211 2269
10211 4126
10211 4657
10212 383
10212 2274
10212 4164
10212 4732
10213 368
10213 2209
10213 4197
10213 4704
10214 307
10214 2216
10214 4150
10214 4628
10215 366
10215 2245
10215 4132
10215 4707
10216 299
10216 2264
10216 4217
10216 4703
10217 266
10217 2199
10217 4223
10217 4734
10218 357
10218 2254
10218 4180
10218 4729
10219 369
10219 2202
10219 4215
10219 4660
10220 285
10220 2221
10220 4130
10220 4661
10221 377
10221 2289
10221 4134
10221 4667
10222 303
10222 2205
10222 4101
10222 4676
10223 334
10223 2232
10223 4105
10223 4622
10224 332
10224 2255
10224 4100
10224 4614
10225 374
10225 2247
10225 4157
10225 4712
10226 345
10226 2226
10226 4185
10226 4662
10227 270
10227 2236
10227 4176
10227 4714
10228 338
10228 2256
10228 4182
10228 4632
10229 365
10229 2284
10229 4206
10229 4621
10230 376
10230 2213
10230 4175
10230 4718
10231 370
10231 2251
10231 4141
10231 4631
10232 379
10232 2246
10232 4166
10232 4735
10233 263
10233 2290
10233 4131
10233 4651
10234 353
10234 2240
10234 4117
10234 4611
10235 311
10235 2297
10235 4198
10235 4698
10236 322
10236 2217
10236 4207
10236 4722
10237 325
10237 2181
10237 4211
10237 4716
10238 274
10238 2178
10238 4160
10238 4682
10239 262
10239 2212
10239 4158
10239 4709
10240 461
10240 2422
10240 2822
10240 4849
10241 502
10241 2427
10241 2816
10241 4745
10242 442
10242 2401
10242 2907
10242 4851
10243 402
10243 2308
10243 2896
10243 4834
10244 426
10244 2345
10244 2869
10244 4855
10245 467
10245 2333
10245 2885
10245 4746
10246 504
10246 2429
10246 2867
10246 4785
10247 410
10247 2318
10247 2932
10247 4832
10248 508
10248 2340
10248 2863
10248 4794
10249 494
10249 2304
10249 2905
10249 4742
10250 405
10250 2386
10250 2826
10250 4771
10251 480
10251 2337
10251 2899
10251 4805
10252 491
10252 2382
10252 2818
10252 4787
10253 499
10253 2350
10253 2828
10253 4804
10254 453
10254 2306
10254 2909
10254 4741
10255 443
10255 2373
10255 2914
10255 4823
10256 481
10256 2326
10256 2845
10256 4839
10257 419
10257 2420
10257 2943
10257 4757
10258 409
10258 2379
10258 2872
10258 4829
10259 474
10259 2336
10259 2901
10259 4858
10260 428
10260 2365
10260 2922
10260 4827
10261 446
10261 2381
10261 2894
10261 4816
10262 454
10262 2387
10262 2891
10262 4863
10263 509
10263 2399
10263 2832
10263 4779
10264 435
10264 2311
10264 2840
10264 4813
10265 507
10265 2374
10265 2861
10265 4788
10266 403
10266 2391
10266 2833
10266 4861
10267 399
10267 2338
10267 2926
10267 4828
10268 408
10268 2315
10268 2862
10268 4775
10269 440
10269 2353
10269 2937
10269 4780
10270 484
10270 2358
10270 2916
10270 4764
10271 401
10271 2342
10271 2889
10271 4841
10272 388
10272 2310
10272 2887
10272 4786
10273 447
10273 2388
10273 2912
10273 4824
10274 450
10274 2355
10274 2908
10274 4818
10275 489
10275 2405
10275 2919
10275 4756
10276 432
10276 2359
10276 2865
10276 4740
10277 439
10277 2400
10277 2928
10277 4853
10278 503
10278 2370
10278 2825
10278 4862
10279 493
10279 2404
10279 2886
10279 4799
10280 459
10280 2334
10280 2876
10280 4854
10281 433
10281 2406
10281 2841
10281 4774
10282 395
10282 2417
10282 2935
10282 4822
10283 427
10283 2361
10283 2866
10283 4831
10284 404
10284 2416
10284 2837
10284 4766
10285 420
10285 2307
10285 2843
10285 4825
10286 457
10286 2351
10286 2911
10286 4770
10287 479
10287 2390
10287 2941
10287 4752
10288 434
10288 2392
10288 2835
10288 4830
10289 412
10289 2346
10289 2875
10289 4754
10290 500
10290 2335
10290 2915
10290 4792
10291 498
10291 2380
10291 2888
10291 4750
10292 387
10292 2389
10292 2870
10292 4798
10293 393
10293 2383
10293 2893
10293 4782
10294 497
10294 2320
10294 2934
10294 4753
10295 465
10295 2409
10295 2819
10295 4840
10296 466
10296 2341
10296 2850
10296 4767
10297 451
10297 2403
10297 2874
10297 4835
10298 413
10298 2393
10298 2824
10298 4836
10299 436
10299 2428
10299 2836
10299 4801
10300 406
10300 2413
10300 2830
10300 4765
10301 485
10301 2366
10301 2918
10301 4773
10302 458
10302 2425
10302 2848
10302 4761
10303 472
10303 2339
10303 2884
10303 4797
10304 478
10304 2319
10304 2936
10304 4748
10305 463
10305 2376
10305 2892
10305 4784
10306 444
10306 2363
10306 2849
10306 4808
10307 483
10307 2352
10307 2844
10307 4809
10308 456
10308 2415
10308 2858
10308 4747
10309 476
10309 2324
10309 2846
10309 4803
10310 448
10310 2419
10310 2927
10310 4783
10311 415
10311 2305
10311 2898
10311 4743
10312 449
10312 2402
10312 2929
10312 4751
10313 422
10313 2316
10313 2938
10313 4810
10314 471
10314 2430
10314 2923
10314 4859
10315 455
10315 2317
10315 2895
10315 4781
10316 490
10316 2321
10316 2904
10316 4837
10317 386
10317 2395
10317 2852
10317 4826
10318 411
10318 2360
10318 2820
10318 4817
10319 400
10319 2418
10319 2924
10319 4778
10320 417
10320 2364
10320 2931
10320 4738
10321 495
10321 2354
10321 2897
10321 4814
10322 416
10322 2378
10322 2860
10322 4795
10323 421
10323 2327
10323 2903
10323 4850
10324 505
10324 2412
10324 2864
10324 4777
10325 424
10325 2384
10325 2871
10325 4838
10326 510
10326 2426
10326 2913
10326 4848
10327 501
10327 2314
10327 2930
10327 4845
10328 425
10328 2309
10328 2827
10328 4768
10329 462
10329 2394
10329 2925
10329 4763
10330 389
10330 2322
10330 2881
10330 4772
10331 407
10331 2377
10331 2831
10331 4802
10332 468
10332 2356
10332 2890
10332 4755
10333 390
10333 2328
10333 2878
10333 4776
10334 418
10334 2372
10334 2868
10334 4811
10335 473
10335 2348
10335 2880
10335 4737
10336 414
10336 2331
10336 2851
10336 4833
10337 492
10337 2423
10337 2817
10337 4744
10338 464
10338 2332
10338 2910
10338 4821
10339 488
10339 2330
10339 2855
10339 4815
10340 394
10340 2357
10340 2939
10340 4842
10341 392
10341 2408
10341 2921
10341 4790
10342 398
10342 2421
10342 2821
10342 4843
10343 397
10343 2369
10343 2900
10343 4760
10344 487
10344 2397
10344 2834
10344 4857
10345 445
10345 2371
10345 2940
10345 4852
10346 384
10346 2329
10346 2857
10346 4762
10347 511
10347 2398
10347 2854
10347 4847
10348 391
10348 2344
10348 2877
10348 4819
10349 430
10349 2343
10349 2856
10349 4800
10350 470
10350 2362
10350 2933
10350 4789
10351 431
10351 2325
10351 2823
10351 4739
10352 396
10352 2414
10352 2873
10352 4806
10353 423
10353 2367
10353 2859
10353 4820
10354 469
10354 2323
10354 2879
10354 4856
10355 482
10355 2431
10355 2829
10355 4796
10356 429
10356 2407
10356 2847
10356 4807
10357 441
10357 2375
10357 2882
10357 4749
10358 460
10358 2411
10358 2838
10358 4860
10359 486
10359 2385
10359 2839
10359 4791
10360 475
10360 2424
10360 2917
10360 4769
10361 385
10361 2312
10361 2920
10361 4793
10362 506
10362 2368
10362 2842
10362 4736
10363 452
10363 2313
10363 2883
10363 4812
10364 438
10364 2347
10364 2853
10364 4759
10365 437
10365 2410
10365 2906
10365 4846
10366 496
10366 2396
10366 2942
10366 4844
10367 477
10367 2349
10367 2902
10367 4758
10368 611
10368 2438
10368 3059
10368 4908
10369 630
10369 2444
10369 2997
10369 4976
10370 610
10370 2462
10370 2954
10370 4902
10371 623
10371 2477
10371 3068
10371 4957
10372 537
10372 2501
10372 2972
10372 4988
10373 544
10373 2520
10373 2947
10373 4901
10374 540
10374 2433
10374 3024
10374 4944
10375 568
10375 2483
10375 3002
10375 4966
10376 596
10376 2472
10376 3036
10376 4952
10377 531
10377 2465
10377 2984
10377 4946
10378 518
10378 2535
10378 3057
10378 4907
10379 512
10379 2486
10379 3004
10379 4920
10380 639
10380 2473
10380 2963
10380 4899
10381 528
10381 2523
10381 3063
10381 4927
10382 578
10382 2531
10382 2950
10382 4865
10383 517
10383 2502
10383 3014
10383 4872
10384 577
10384 2519
10384 3040
10384 4878
10385 515
10385 2514
10385 3026
10385 4986
10386 593
10386 2498
10386 3051
10386 4981
10387 598
10387 2441
10387 3062
10387 4938
10388 579
10388 2525
10388 2958
10388 4898
10389 599
10389 2437
10389 3054
10389 4962
10390 588
10390 2466
10390 2996
10390 4894
10391 527
10391 2554
10391 3013
10391 4864
10392 594
10392 2524
10392 3049
10392 4987
10393 542
10393 2509
10393 3066
10393 4904
10394 566
10394 2474
10394 2991
10394 4926
10395 541
10395 2558
10395 2999
10395 4868
10396 631
10396 2494
10396 3008
10396 4977
10397 607
10397 2467
10397 3065
10397 4923
10398 543
10398 2499
10398 3069
10398 4874
10399 606
10399 2521
10399 3058
10399 4974
10400 548
10400 2488
10400 3033
10400 4936
10401 625
10401 2454
10401 2965
10401 4919
10402 575
10402 2500
10402 3056
10402 4876
10403 615
10403 2489
10403 3001
10403 4897
10404 585
10404 2451
10404 2979
10404 4954
10405 583
10405 2515
10405 2993
10405 4866
10406 635
10406 2527
10406 2974
10406 4950
10407 551
10407 2545
10407 3050
10407 4881
10408 597
10408 2478
10408 3003
10408 4949
10409 529
10409 2556
10409 3045
10409 4970
10410 569
10410 2529
10410 3027
10410 4871
10411 535
10411 2458
10411 2982
10411 4879
10412 587
10412 2482
10412 2989
10412 4973
10413 626
10413 2495
10413 3042
10413 4891
10414 521
10414 2553
10414 2973
10414 4933
10415 571
10415 2542
10415 2995
10415 4955
10416 609
10416 2532
10416 3010
10416 4884
10417 513
10417 2555
10417 2951
10417 4985
10418 559
10418 2530
10418 2998
10418 4924
10419 516
10419 2445
10419 3020
10419 4991
10420 532
10420 2455
10420 3021
10420 4948
10421 638
10421 2528
10421 2967
10421 4925
10422 558
10422 2540
10422 3017
10422 4915
10423 555
10423 2557
10423 3032
10423 4914
10424 557
10424 2450
10424 2992
10424 4935
10425 562
10425 2461
10425 3047
10425 4951
10426 570
10426 2544
10426 3018
10426 4990
10427 539
10427 2457
10427 2956
10427 4932
10428 563
10428 2471
10428 3037
10428 4978
10429 523
10429 2541
10429 2964
10429 4989
10430 520
10430 2442
10430 3034
10430 4912
10431 591
10431 2491
10431 2952
10431 4903
10432 601
10432 2513
10432 2985
10432 4979
10433 519
10433 2506
10433 3067
10433 4913
10434 538
10434 2490
10434 2948
10434 4945
10435 545
10435 2469
10435 2953
10435 4889
10436 564
10436 2487
10436 2975
10436 4968
10437 586
10437 2517
10437 3031
10437 4900
10438 567
10438 2475
10438 3044
10438 4975
10439 618
10439 2446
10439 3000
10439 4959
10440 605
10440 2504
10440 2988
10440 4969
10441 633
10441 2548
10441 2976
10441 4922
10442 604
10442 2550
10442 2961
10442 4882
10443 634
10443 2511
10443 2959
10443 4941
10444 534
10444 2543
10444 3023
10444 4928
10445 533
10445 2512
10445 3048
10445 4890
10446 514
10446 2549
10446 3029
10446 4982
10447 547
10447 2485
10447 3055
10447 4937
10448 619
10448 2449
10448 3019
10448 4888
10449 620
10449 2497
10449 3009
10449 4963
10450 632
10450 2439
10450 3006
10450 4956
10451 574
10451 2539
10451 2960
10451 4869
10452 522
10452 2456
10452 3041
10452 4877
10453 614
10453 2432
10453 3060
10453 4967
10454 580
10454 2479
10454 3007
10454 4942
10455 602
10455 2546
10455 3028
10455 4909
10456 592
10456 2436
10456 3005
10456 4918
10457 572
10457 2547
10457 2949
10457 4892
10458 613
10458 2443
10458 3064
10458 4867
10459 603
10459 2508
10459 3043
10459 4893
10460 549
10460 2518
10460 2966
10460 4972
10461 589
10461 2481
10461 2969
10461 4910
10462 590
10462 2463
10462 3053
10462 4886
10463 565
10463 2452
10463 2981
10463 4880
10464 582
10464 2459
10464 2945
10464 4983
10465 627
10465 2440
10465 3016
10465 4931
10466 600
10466 2468
10466 2978
10466 4953
10467 550
10467 2493
10467 3052
10467 4906
10468 617
10468 2484
10468 3015
10468 4905
10469 608
10469 2447
10469 3038
10469 4934
10470 576
10470 2551
10470 2957
10470 4965
10471 628
10471 2536
10471 2971
10471 4883
10472 573
10472 2537
10472 3046
10472 4961
10473 530
10473 2448
10473 2944
10473 4873
10474 595
10474 2510
10474 2946
10474 4947
10475 584
10475 2505
10475 3035
10475 4887
10476 525
10476 2453
10476 3071
10476 4960
10477 629
10477 2435
10477 2977
10477 4984
10478 546
10478 2507
10478 3061
10478 4971
10479 624
10479 2559
10479 3012
10479 4930
10480 560
10480 2516
10480 2962
10480 4875
10481 636
10481 2470
10481 3025
10481 4921
10482 526
10482 2526
10482 2987
10482 4929
10483 552
10483 2552
10483 2970
10483 4896
10484 556
10484 2476
10484 3022
10484 4911
10485 637
10485 2460
10485 2994
10485 4943
10486 581
10486 2533
10486 3039
10486 4939
10487 621
10487 2496
10487 2983
10487 4870
10488 536
10488 2464
10488 2990
10488 4980
10489 616
10489 2522
10489 2955
10489 4940
10490 622
10490 2434
10490 2986
10490 4964
10491 553
10491 2534
10491 3070
10491 4885
10492 524
10492 2480
10492 2980
10492 4916
10493 612
10493 2503
10493 3011
10493 4958
10494 554
10494 2538
10494 2968
10494 4917
10495 561
10495 2492
10495 3030
10495 4895
10496 669
10496 2632
10496 3104
10496 5017
10497 695
10497 2686
10497 3102
10497 5117
10498 644
10498 2584
10498 3197
10498 5008
10499 702
10499 2604
10499 3093
10499 5002
10500 691
10500 2595
10500 3177
10500 5035
10501 667
10501 2663
10501 3129
10501 5050
10502 709
10502 2570
10502 3174
10502 5000
10503 730
10503 2574
10503 3121
10503 5020
10504 701
10504 2607
10504 3146
10504 5083
10505 759
10505 2560
10505 3119
10505 5092
10506 749
10506 2671
10506 3194
10506 5075
10507 746
10507 2675
10507 3127
10507 5005
10508 718
10508 2685
10508 3077
10508 5036
10509 731
10509 2627
10509 3159
10509 5085
10510 683
10510 2605
10510 3081
10510 5090
10511 656
10511 2592
10511 3082
10511 5027
10512 732
10512 2566
10512 3187
10512 5004
10513 726
10513 2579
10513 3150
10513 5052
10514 761
10514 2610
10514 3088
10514 5063
10515 697
10515 2657
10515 3078
10515 5031
10516 747
10516 2681
10516 3155
10516 5108
10517 736
10517 2572
10517 3096
10517 5071
10518 655
10518 2679
10518 3156
10518 5010
10519 735
10519 2682
10519 3145
10519 5069
10520 662
10520 2577
10520 3178
10520 5058
10521 760
10521 2623
10521 3099
10521 5046
10522 694
10522 2676
10522 3173
10522 5109
10523 764
10523 2594
10523 3165
10523 5118
10524 742
10524 2680
10524 3139
10524 5074
10525 670
10525 2633
10525 3136
10525 5068
10526 649
10526 2630
10526 3083
10526 5022
10527 715
10527 2660
10527 3142
10527 5034
10528 744
10528 2667
10528 3141
10528 5014
10529 678
10529 2631
10529 3124
10529 5048
10530 689
10530 2603
10530 3166
10530 4998
10531 711
10531 2659
10531 3115
10531 5067
10532 720
10532 2596
10532 3092
10532 4993
10533 646
10533 2658
10533 3132
10533 5009
10534 704
10534 2580
10534 3100
10534 5062
10535 708
10535 2586
10535 3182
10535 5006
10536 688
10536 2568
10536 3143
10536 5103
10537 706
10537 2647
10537 3195
10537 5040
10538 640
10538 2589
10538 3157
10538 5081
10539 687
10539 2653
10539 3176
10539 5111
10540 663
10540 2563
10540 3085
10540 5051
10541 734
10541 2636
10541 3190
10541 5019
10542 672
10542 2619
10542 3118
10542 5113
10543 664
10543 2655
10543 3193
10543 5003
10544 673
10544 2588
10544 3089
10544 5065
10545 762
10545 2672
10545 3131
10545 5080
10546 641
10546 2573
10546 3134
10546 5053
10547 714
10547 2651
10547 3123
10547 5099
10548 643
10548 2616
10548 3094
10548 5057
10549 650
10549 2626
10549 3126
10549 4996
10550 727
10550 2652
10550 3138
10550 5056
10551 685
10551 2649
10551 3091
10551 5114
10552 750
10552 2664
10552 3128
10552 5089
10553 696
10553 2598
10553 3106
10553 5011
10554 763
10554 2587
10554 3188
10554 5112
10555 740
10555 2683
10555 3148
10555 5101
10556 729
10556 2624
10556 3080
10556 5116
10557 653
10557 2591
10557 3076
10557 5096
10558 698
10558 2621
10558 3179
10558 5044
10559 674
10559 2564
10559 3097
10559 5030
10560 680
10560 2618
10560 3113
10560 5119
10561 707
10561 2661
10561 3189
10561 5073
10562 725
10562 2648
10562 3160
10562 5098
10563 713
10563 2625
10563 3079
10563 5007
10564 666
10564 2593
10564 3130
10564 5026
10565 719
10565 2606
10565 3196
10565 5059
10566 648
10566 2665
10566 3144
10566 5087
10567 765
10567 2678
10567 3168
10567 4992
10568 651
10568 2576
10568 3116
10568 5097
10569 642
10569 2673
10569 3152
10569 5064
10570 752
10570 2684
10570 3180
10570 4994
10571 757
10571 2646
10571 3151
10571 5049
10572 753
10572 2609
10572 3198
10572 5093
10573 668
10573 2620
10573 3192
10573 5082
10574 710
10574 2639
10574 3098
10574 5084
10575 659
10575 2562
10575 3191
10575 5106
10576 758
10576 2599
10576 3140
10576 5088
10577 766
10577 2634
10577 3169
10577 5115
10578 754
10578 2637
10578 3199
10578 5024
10579 686
10579 2629
10579 3111
10579 5110
10580 675
10580 2643
10580 3184
10580 5095
10581 647
10581 2581
10581 3175
10581 5016
10582 745
10582 2668
10582 3137
10582 5102
10583 717
10583 2590
10583 3075
10583 5078
10584 751
10584 2669
10584 3171
10584 5001
10585 737
10585 2628
10585 3103
10585 5066
10586 677
10586 2644
10586 3073
10586 5094
10587 705
10587 2571
10587 3120
10587 5041
10588 676
10588 2597
10588 3109
10588 5047
10589 703
10589 2687
10589 3105
10589 5105
10590 690
10590 2561
10590 3117
10590 5028
10591 661
10591 2650
10591 3186
10591 5023
10592 722
10592 2615
10592 3164
10592 5032
10593 728
10593 2600
10593 3162
10593 5079
10594 658
10594 2602
10594 3170
10594 5039
10595 755
10595 2641
10595 3167
10595 4997
10596 665
10596 2666
10596 3074
10596 4999
10597 681
10597 2635
10597 3108
10597 5077
10598 652
10598 2642
10598 3087
10598 5061
10599 712
10599 2582
10599 3101
10599 5076
10600 692
10600 2638
10600 3153
10600 5038
10601 733
10601 2645
10601 3086
10601 5025
10602 739
10602 2613
10602 3114
10602 5100
10603 741
10603 2575
10603 3185
10603 5043
10604 748
10604 2612
10604 3183
10604 5060
10605 721
10605 2583
10605 3084
10605 5013
10606 743
10606 2578
10606 3163
10606 5104
10607 756
10607 2608
10607 3135
10607 5055
10608 654
10608 2677
10608 3133
10608 5107
10609 645
10609 2662
10609 3181
10609 5037
10610 700
10610 2585
10610 3125
10610 5042
10611 671
10611 2674
10611 3110
10611 5033
10612 657
10612 2567
10612 3112
10612 5021
10613 767
10613 2622
10613 3107
10613 5072
10614 716
10614 2611
10614 3154
10614 5018
10615 693
10615 2614
10615 3158
10615 5045
10616 723
10616 2654
10616 3147
10616 5012
10617 738
10617 2640
10617 3090
10617 5091
10618 724
10618 2569
10618 3122
10618 4995
10619 679
10619 2656
10619 3095
10619 5029
10620 660
10620 2601
10620 3172
10620 5086
10621 699
10621 2565
10621 3161
10621 5015
10622 682
10622 2670
10622 3149
10622 5054
10623 684
10623 2617
10623 3072
10623 5070
10624 828
10624 2757
10624 3298
10624 5204
10625 775
10625 2810
10625 3269
10625 5138
10626 815
10626 2773
10626 3327
10626 5205
10627 842
10627 2788
10627 3326
10627 5132
10628 881
10628 2703
10628 3221
10628 5162
10629 768
10629 2781
10629 3213
10629 5164
10630 835
10630 2794
10630 3240
10630 5160
10631 833
10631 2744
10631 3286
10631 5127
10632 874
10632 2760
10632 3243
10632 5169
10633 783
10633 2761
10633 3220
10633 5165
10634 824
10634 2696
10634 3295
10634 5223
10635 845
10635 2755
10635 3257
10635 5153
10636 770
10636 2714
10636 3232
10636 5213
10637 779
10637 2745
10637 3277
10637 5219
10638 867
10638 2720
10638 3227
10638 5227
10639 817
10639 2689
10639 3292
10639 5120
10640 861
10640 2786
10640 3259
10640 5197
10641 778
10641 2704
10641 3272
10641 5243
10642 863
10642 2779
10642 3291
10642 5203
10643 894
10643 2754
10643 3275
10643 5134
10644 890
10644 2803
10644 3313
10644 5179
10645 785
10645 2747
10645 3267
10645 5181
10646 836
10646 2765
10646 3205
10646 5146
10647 860
10647 2736
10647 3322
10647 5123
10648 875
10648 2777
10648 3247
10648 5184
10649 837
10649 2801
10649 3314
10649 5148
10650 870
10650 2771
10650 3254
10650 5154
10651 788
10651 2749
10651 3311
10651 5150
10652 851
10652 2729
10652 3297
10652 5145
10653 823
10653 2700
10653 3245
10653 5140
10654 780
10654 2758
10654 3236
10654 5215
10655 834
10655 2778
10655 3203
10655 5220
10656 843
10656 2730
10656 3307
10656 5241
10657 883
10657 2713
10657 3241
10657 5198
10658 872
10658 2716
10658 3248
10658 5180
10659 793
10659 2711
10659 3202
10659 5192
10660 866
10660 2741
10660 3258
10660 5244
10661 879
10661 2746
10661 3250
10661 5159
10662 831
10662 2756
10662 3321
10662 5130
10663 795
10663 2800
10663 3309
10663 5156
10664 880
10664 2791
10664 3270
10664 5222
10665 849
10665 2706
10665 3274
10665 5149
10666 891
10666 2792
10666 3299
10666 5176
10667 811
10667 2811
10667 3255
10667 5141
10668 800
10668 2795
10668 3283
10668 5206
10669 889
10669 2804
10669 3217
10669 5147
10670 857
10670 2748
10670 3242
10670 5128
10671 814
10671 2807
10671 3280
10671 5144
10672 774
10672 2693
10672 3300
10672 5168
10673 840
10673 2723
10673 3310
10673 5217
10674 790
10674 2769
10674 3273
10674 5122
10675 864
10675 2728
10675 3207
10675 5136
10676 808
10676 2783
10676 3281
10676 5240
10677 852
10677 2721
10677 3224
10677 5163
10678 854
10678 2718
10678 3318
10678 5133
10679 820
10679 2813
10679 3317
10679 5216
10680 858
10680 2712
10680 3262
10680 5214
10681 803
10681 2734
10681 3302
10681 5229
10682 841
10682 2691
10682 3229
10682 5135
10683 796
10683 2708
10683 3244
10683 5218
10684 892
10684 2790
10684 3256
10684 5125
10685 844
10685 2797
10685 3293
10685 5175
10686 821
10686 2690
10686 3211
10686 5190
10687 802
10687 2775
10687 3234
10687 5142
10688 825
10688 2799
10688 3265
10688 5199
10689 855
10689 2764
10689 3305
10689 5226
10690 832
10690 2766
10690 3201
10690 5172
10691 887
10691 2780
10691 3219
10691 5178
10692 884
10692 2796
10692 3312
10692 5231
10693 773
10693 2699
10693 3268
10693 5228
10694 853
10694 2697
10694 3249
10694 5235
10695 781
10695 2770
10695 3253
10695 5189
10696 806
10696 2725
10696 3304
10696 5155
10697 798
10697 2793
10697 3282
10697 5246
10698 782
10698 2798
10698 3223
10698 5193
10699 882
10699 2709
10699 3308
10699 5173
10700 787
10700 2782
10700 3285
10700 5247
10701 789
10701 2722
10701 3303
10701 5225
10702 819
10702 2707
10702 3235
10702 5236
10703 786
10703 2743
10703 3266
10703 5157
10704 888
10704 2710
10704 3278
10704 5188
10705 871
10705 2752
10705 3231
10705 5230
10706 847
10706 2753
10706 3296
10706 5211
10707 792
10707 2692
10707 3323
10707 5207
10708 895
10708 2717
10708 3288
10708 5139
10709 839
10709 2815
10709 3230
10709 5232
10710 804
10710 2806
10710 3210
10710 5245
10711 850
10711 2739
10711 3306
10711 5221
10712 878
10712 2726
10712 3301
10712 5158
10713 801
10713 2759
10713 3214
10713 5170
10714 862
10714 2740
10714 3289
10714 5195
10715 846
10715 2762
10715 3284
10715 5174
10716 816
10716 2742
10716 3233
10716 5208
10717 886
10717 2814
10717 3226
10717 5242
10718 777
10718 2694
10718 3204
10718 5196
10719 784
10719 2732
10719 3264
10719 5238
10720 794
10720 2808
10720 3315
10720 5151
10721 812
10721 2731
10721 3209
10721 5201
10722 873
10722 2789
10722 3276
10722 5166
10723 869
10723 2688
10723 3252
10723 5202
10724 826
10724 2805
10724 3324
10724 5186
10725 868
10725 2802
10725 3237
10725 5212
10726 797
10726 2751
10726 3216
10726 5143
10727 827
10727 2809
10727 3287
10727 5121
10728 859
10728 2724
10728 3320
10728 5126
10729 771
10729 2705
10729 3263
10729 5137
10730 818
10730 2702
10730 3261
10730 5191
10731 848
10731 2737
10731 3279
10731 5152
10732 893
10732 2727
10732 3238
10732 5177
10733 885
10733 2763
10733 3228
10733 5161
10734 813
10734 2733
10734 3212
10734 5239
10735 807
10735 2735
10735 3208
10735 5183
10736 877
10736 2738
10736 3294
10736 5167
10737 810
10737 2715
10737 3225
10737 5185
10738 791
10738 2695
10738 3246
10738 5182
10739 772
10739 2774
10739 3316
10739 5131
10740 822
10740 2772
10740 3222
10740 5194
10741 829
10741 2750
10741 3325
10741 5233
10742 856
10742 2768
10742 3251
10742 5124
10743 805
10743 2812
10743 3239
10743 5129
10744 769
10744 2701
10744 3200
10744 5171
10745 799
10745 2767
10745 3260
10745 5237
10746 876
10746 2784
10746 3319
10746 5234
10747 865
10747 2785
10747 3271
10747 5210
10748 809
10748 2698
10748 3218
10748 5209
10749 776
10749 2719
10749 3206
10749 5187
10750 838
10750 2787
10750 3215
10750 5224
10751 830
10751 2776
10751 3290
10751 5200
10752 1002
10752 1516
10752 3358
10752 5369
10753 921
10753 1529
10753 3390
10753 5248
10754 1001
10754 1534
10754 3397
10754 5354
10755 954
10755 1518
10755 3410
10755 5289
10756 1009
10756 1418
10756 3453
10756 5305
10757 918
10757 1465
10757 3375
10757 5342
10758 963
10758 1511
10758 3416
10758 5292
10759 940
10759 1458
10759 3346
10759 5308
10760 924
10760 1472
10760 3455
10760 5283
10761 973
10761 1483
10761 3388
10761 5348
10762 1023
10762 1454
10762 3431
10762 5251
10763 916
10763 1408
10763 3424
10763 5297
10764 992
10764 1461
10764 3402
10764 5293
10765 896
10765 1535
10765 3413
10765 5331
10766 995
10766 1437
10766 3437
10766 5346
10767 933
10767 1460
10767 3403
10767 5269
10768 1017
10768 1425
10768 3348
10768 5337
10769 1015
10769 1520
10769 3449
10769 5320
10770 951
10770 1424
10770 3335
10770 5363
10771 974
10771 1442
10771 3350
10771 5295
10772 947
10772 1426
10772 3338
10772 5340
10773 934
10773 1486
10773 3443
10773 5266
10774 936
10774 1430
10774 3436
10774 5307
10775 945
10775 1490
10775 3369
10775 5353
10776 948
10776 1474
10776 3395
10776 5341
10777 1013
10777 1439
10777 3438
10777 5263
10778 942
10778 1459
10778 3426
10778 5284
10779 917
10779 1436
10779 3435
10779 5311
10780 1004
10780 1487
10780 3401
10780 5371
10781 1007
10781 1484
10781 3333
10781 5365
10782 975
10782 1489
10782 3364
10782 5287
10783 981
10783 1414
10783 3419
10783 5351
10784 906
10784 1526
10784 3361
10784 5357
10785 1020
10785 1512
10785 3345
10785 5347
10786 1003
10786 1452
10786 3340
10786 5330
10787 957
10787 1521
10787 3407
10787 5282
10788 1016
10788 1463
10788 3354
10788 5290
10789 941
10789 1428
10789 3376
10789 5300
10790 944
10790 1445
10790 3450
10790 5268
10791 970
10791 1435
10791 3362
10791 5309
10792 926
10792 1503
10792 3421
10792 5318
10793 968
10793 1480
10793 3423
10793 5332
10794 919
10794 1416
10794 3377
10794 5349
10795 943
10795 1510
10795 3391
10795 5316
10796 1006
10796 1496
10796 3422
10796 5296
10797 958
10797 1532
10797 3393
10797 5322
10798 1010
10798 1515
10798 3383
10798 5257
10799 956
10799 1412
10799 3365
10799 5339
10800 1000
10800 1504
10800 3355
10800 5255
10801 907
10801 1506
10801 3329
10801 5321
10802 960
10802 1491
10802 3336
10802 5286
10803 912
10803 1507
10803 3430
10803 5375
10804 913
10804 1446
10804 3351
10804 5355
10805 969
10805 1413
10805 3441
10805 5374
10806 961
10806 1432
10806 3331
10806 5344
10807 897
10807 1513
10807 3344
10807 5352
10808 910
10808 1509
10808 3428
10808 5301
10809 959
10809 1422
10809 3454
10809 5294
10810 998
10810 1517
10810 3398
10810 5327
10811 899
10811 1497
10811 3408
10811 5323
10812 953
10812 1411
10812 3384
10812 5265
10813 986
10813 1530
10813 3442
10813 5359
10814 967
10814 1476
10814 3328
10814 5328
10815 991
10815 1533
10815 3417
10815 5264
10816 1008
10816 1429
10816 3425
10816 5314
10817 966
10817 1523
10817 3378
10817 5370
10818 982
10818 1494
10818 3368
10818 5361
10819 972
10819 1434
10819 3445
10819 5335
10820 935
10820 1478
10820 3357
10820 5310
10821 931
10821 1499
10821 3347
10821 5276
10822 988
10822 1433
10822 3339
10822 5291
10823 898
10823 1514
10823 3387
10823 5252
10824 1012
10824 1451
10824 3381
10824 5303
10825 909
10825 1453
10825 3418
10825 5285
10826 996
10826 1415
10826 3452
10826 5304
10827 990
10827 1467
10827 3341
10827 5356
10828 1011
10828 1501
10828 3374
10828 5319
10829 901
10829 1488
10829 3400
10829 5372
10830 994
10830 1431
10830 3406
10830 5280
10831 984
10831 1522
10831 3367
10831 5299
10832 997
10832 1457
10832 3360
10832 5288
10833 904
10833 1498
10833 3432
10833 5317
10834 993
10834 1417
10834 3337
10834 5267
10835 932
10835 1481
10835 3420
10835 5253
10836 1005
10836 1495
10836 3404
10836 5270
10837 949
10837 1524
10837 3399
10837 5333
10838 908
10838 1443
10838 3412
10838 5260
10839 930
10839 1464
10839 3343
10839 5325
10840 905
10840 1420
10840 3392
10840 5298
10841 950
10841 1519
10841 3373
10841 5324
10842 1018
10842 1441
10842 3448
10842 5281
10843 928
10843 1447
10843 3396
10843 5368
10844 914
10844 1421
10844 3353
10844 5271
10845 937
10845 1471
10845 3385
10845 5302
10846 962
10846 1450
10846 3372
10846 5315
10847 971
10847 1475
10847 3394
10847 5278
10848 989
10848 1438
10848 3352
10848 5261
10849 938
10849 1531
10849 3356
10849 5273
10850 999
10850 1527
10850 3415
10850 5338
10851 925
10851 1505
10851 3446
10851 5366
10852 920
10852 1455
10852 3447
10852 5336
10853 902
10853 1427
10853 3359
10853 5367
10854 965
10854 1470
10854 3380
10854 5343
10855 977
10855 1440
10855 3433
10855 5258
10856 923
10856 1410
10856 3332
10856 5329
10857 903
10857 1500
10857 3349
10857 5256
10858 929
10858 1485
10858 3434
10858 5249
10859 979
10859 1473
10859 3334
10859 5360
10860 922
10860 1448
10860 3389
10860 5326
10861 927
10861 1419
10861 3342
10861 5259
10862 980
10862 1456
10862 3411
10862 5358
10863 1019
10863 1525
10863 3386
10863 5345
10864 911
10864 1528
10864 3379
10864 5272
10865 915
10865 1469
10865 3371
10865 5254
10866 978
10866 1508
10866 3444
10866 5275
10867 939
10867 1409
10867 3414
10867 5250
10868 976
10868 1502
10868 3451
10868 5364
10869 1021
10869 1444
10869 3370
10869 5373
10870 964
10870 1479
10870 3427
10870 5277
10871 952
10871 1468
10871 3330
10871 5362
10872 1014
10872 1466
10872 3363
10872 5306
10873 900
10873 1462
10873 3409
10873 5279
10874 1022
10874 1482
10874 3405
10874 5334
10875 946
10875 1477
10875 3439
10875 5274
10876 983
10876 1492
10876 3429
10876 5313
10877 985
10877 1423
10877 3440
10877 5350
10878 955
10878 1493
10878 3366
10878 5262
10879 987
10879 1449
10879 3382
10879 5312
10880 1075
10880 1646
10880 3572
10880 5403
10881 1064
10881 1595
10881 3561
10881 5484
10882 1089
10882 1593
10882 3536
10882 5478
10883 1058
10883 1644
10883 3528
10883 5395
10884 1077
10884 1660
10884 3575
10884 5408
10885 1053
10885 1636
10885 3557
10885 5463
10886 1133
10886 1657
10886 3529
10886 5384
10887 1149
10887 1629
10887 3563
10887 5500
10888 1080
10888 1578
10888 3549
10888 5472
10889 1118
10889 1615
10889 3510
10889 5436
10890 1034
10890 1575
10890 3580
10890 5431
10891 1052
10891 1536
10891 3475
10891 5481
10892 1061
10892 1579
10892 3583
10892 5393
10893 1125
10893 1588
10893 3552
10893 5416
10894 1039
10894 1583
10894 3539
10894 5444
10895 1150
10895 1611
10895 3459
10895 5434
10896 1079
10896 1580
10896 3541
10896 5447
10897 1033
10897 1610
10897 3513
10897 5490
10898 1084
10898 1546
10898 3471
10898 5459
10899 1146
10899 1547
10899 3535
10899 5497
10900 1151
10900 1551
10900 3544
10900 5381
10901 1025
10901 1538
10901 3504
10901 5421
10902 1082
10902 1550
10902 3515
10902 5390
10903 1096
10903 1605
10903 3481
10903 5380
10904 1056
10904 1560
10904 3565
10904 5474
10905 1087
10905 1569
10905 3576
10905 5388
10906 1117
10906 1652
10906 3463
10906 5465
10907 1028
10907 1658
10907 3579
10907 5410
10908 1068
10908 1613
10908 3479
10908 5477
10909 1130
10909 1663
10909 3469
10909 5387
10910 1119
10910 1557
10910 3493
10910 5411
10911 1109
10911 1553
10911 3518
10911 5445
10912 1038
10912 1548
10912 3489
10912 5415
10913 1124
10913 1586
10913 3462
10913 5446
10914 1094
10914 1541
10914 3487
10914 5425
10915 1145
10915 1604
10915 3517
10915 5467
10916 1050
10916 1540
10916 3571
10916 5394
10917 1066
10917 1603
10917 3582
10917 5482
10918 1031
10918 1573
10918 3512
10918 5487
10919 1141
10919 1584
10919 3533
10919 5460
10920 1085
10920 1624
10920 3522
10920 5382
10921 1093
10921 1589
10921 3521
10921 5439
10922 1026
10922 1651
10922 3458
10922 5503
10923 1148
10923 1650
10923 3460
10923 5443
10924 1123
10924 1630
10924 3564
10924 5448
10925 1069
10925 1561
10925 3492
10925 5462
10926 1092
10926 1567
10926 3486
10926 5402
10927 1029
10927 1654
10927 3537
10927 5418
10928 1128
10928 1627
10928 3577
10928 5426
10929 1120
10929 1596
10929 3562
10929 5419
10930 1081
10930 1645
10930 3511
10930 5452
10931 1036
10931 1602
10931 3569
10931 5399
10932 1041
10932 1635
10932 3472
10932 5427
10933 1126
10933 1622
10933 3468
10933 5397
10934 1042
10934 1640
10934 3500
10934 5466
10935 1060
10935 1566
10935 3509
10935 5413
10936 1043
10936 1653
10936 3553
10936 5379
10937 1121
10937 1618
10937 3524
10937 5492
10938 1139
10938 1614
10938 3527
10938 5432
10939 1035
10939 1616
10939 3566
10939 5486
10940 1140
10940 1556
10940 3548
10940 5414
10941 1147
10941 1648
10941 3465
10941 5376
10942 1104
10942 1625
10942 3506
10942 5401
10943 1044
10943 1612
10943 3498
10943 5455
10944 1070
10944 1662
10944 3505
10944 5498
10945 1099
10945 1563
10945 3494
10945 5483
10946 1116
10946 1549
10946 3556
10946 5422
10947 1045
10947 1564
10947 3534
10947 5458
10948 1063
10948 1542
10948 3464
10948 5412
10949 1132
10949 1585
10949 3474
10949 5424
10950 1113
10950 1576
10950 3538
10950 5420
10951 1138
10951 1572
10951 3456
10951 5495
10952 1074
10952 1649
10952 3523
10952 5398
10953 1076
10953 1626
10953 3516
10953 5405
10954 1027
10954 1598
10954 3495
10954 5406
10955 1057
10955 1609
10955 3483
10955 5407
10956 1054
10956 1659
10956 3466
10956 5475
10957 1115
10957 1590
10957 3581
10957 5476
10958 1046
10958 1562
10958 3496
10958 5378
10959 1098
10959 1599
10959 3519
10959 5392
10960 1127
10960 1592
10960 3532
10960 5430
10961 1131
10961 1633
10961 3502
10961 5449
10962 1122
10962 1623
10962 3484
10962 5485
10963 1135
10963 1537
10963 3547
10963 5404
10964 1144
10964 1661
10964 3555
10964 5457
10965 1067
10965 1581
10965 3499
10965 5435
10966 1078
10966 1634
10966 3461
10966 5480
10967 1047
10967 1601
10967 3540
10967 5470
10968 1083
10968 1607
10968 3559
10968 5409
10969 1055
10969 1608
10969 3482
10969 5488
10970 1103
10970 1621
10970 3491
10970 5433
10971 1051
10971 1574
10971 3520
10971 5491
10972 1137
10972 1597
10972 3570
10972 5461
10973 1110
10973 1643
10973 3574
10973 5453
10974 1040
10974 1587
10974 3508
10974 5454
10975 1090
10975 1628
10975 3526
10975 5471
10976 1086
10976 1600
10976 3478
10976 5450
10977 1106
10977 1641
10977 3507
10977 5499
10978 1048
10978 1558
10978 3470
10978 5496
10979 1030
10979 1552
10979 3550
10979 5464
10980 1102
10980 1570
10980 3530
10980 5489
10981 1114
10981 1606
10981 3567
10981 5386
10982 1134
10982 1577
10982 3560
10982 5441
10983 1097
10983 1555
10983 3578
10983 5451
10984 1065
10984 1594
10984 3480
10984 5428
10985 1072
10985 1568
10985 3467
10985 5468
10986 1049
10986 1539
10986 3545
10986 5440
10987 1024
10987 1631
10987 3488
10987 5391
10988 1095
10988 1638
10988 3558
10988 5442
10989 1143
10989 1544
10989 3525
10989 5417
10990 1107
10990 1632
10990 3497
10990 5473
10991 1101
10991 1639
10991 3573
10991 5423
10992 1142
10992 1642
10992 3568
10992 5469
10993 1108
10993 1656
10993 3485
10993 5479
10994 1059
10994 1543
10994 3501
10994 5493
10995 1062
10995 1655
10995 3543
10995 5438
10996 1129
10996 1571
10996 3514
10996 5456
10997 1105
10997 1545
10997 3542
10997 5396
10998 1136
10998 1619
10998 3503
10998 5383
10999 1073
10999 1559
10999 3457
10999 5385
11000 1032
11000 1565
11000 3546
11000 5429
11001 1112
11001 1617
11001 3554
11001 5494
11002 1111
11002 1647
11002 3477
11002 5377
11003 1037
11003 1582
11003 3490
11003 5501
11004 1100
11004 1637
11004 3531
11004 5400
11005 1091
11005 1591
11005 3473
11005 5502
11006 1088
11006 1554
11006 3476
11006 5437
11007 1071
11007 1620
11007 3551
11007 5389
11008 1190
11008 1777
11008 3663
11008 5531
11009 1276
11009 1770
11009 3606
11009 5540
11010 1232
11010 1721
11010 3616
11010 5586
11011 1209
11011 1737
11011 3688
11011 5588
11012 1203
11012 1740
11012 3667
11012 5580
11013 1273
11013 1741
11013 3660
11013 5617
11014 1164
11014 1675
11014 3602
11014 5524
11015 1153
11015 1722
11015 3607
11015 5511
11016 1206
11016 1689
11016 3694
11016 5592
11017 1170
11017 1772
11017 3699
11017 5590
11018 1154
11018 1684
11018 3614
11018 5526
11019 1241
11019 1767
11019 3597
11019 5573
11020 1214
11020 1677
11020 3658
11020 5570
11021 1159
11021 1756
11021 3653
11021 5551
11022 1180
11022 1757
11022 3611
11022 5555
11023 1188
11023 1676
11023 3618
11023 5538
11024 1163
11024 1758
11024 3681
11024 5603
11025 1272
11025 1709
11025 3629
11025 5584
11026 1207
11026 1744
11026 3609
11026 5623
11027 1242
11027 1734
11027 3592
11027 5558
11028 1226
11028 1703
11028 3686
11028 5618
11029 1210
11029 1752
11029 3591
11029 5521
11030 1230
11030 1732
11030 3595
11030 5597
11031 1244
11031 1692
11031 3623
11031 5542
11032 1167
11032 1788
11032 3711
11032 5614
11033 1256
11033 1763
11033 3598
11033 5598
11034 1201
11034 1686
11034 3706
11034 5505
11035 1219
11035 1697
11035 3664
11035 5581
11036 1225
11036 1773
11036 3593
11036 5510
11037 1182
11037 1683
11037 3636
11037 5559
11038 1218
11038 1750
11038 3627
11038 5631
11039 1194
11039 1759
11039 3703
11039 5602
11040 1221
11040 1764
11040 3628
11040 5575
11041 1169
11041 1731
11041 3705
11041 5585
11042 1228
11042 1784
11042 3690
11042 5514
11043 1243
11043 1678
11043 3625
11043 5506
11044 1253
11044 1729
11044 3648
11044 5534
11045 1220
11045 1746
11045 3671
11045 5595
11046 1212
11046 1751
11046 3617
11046 5622
11047 1185
11047 1791
11047 3626
11047 5587
11048 1189
11048 1707
11048 3657
11048 5593
11049 1166
11049 1754
11049 3630
11049 5553
11050 1227
11050 1728
11050 3695
11050 5513
11051 1267
11051 1766
11051 3656
11051 5543
11052 1198
11052 1726
11052 3632
11052 5591
11053 1158
11053 1748
11053 3665
11053 5515
11054 1222
11054 1743
11054 3668
11054 5547
11055 1186
11055 1688
11055 3633
11055 5554
11056 1245
11056 1786
11056 3682
11056 5556
11057 1229
11057 1780
11057 3697
11057 5576
11058 1224
11058 1778
11058 3604
11058 5596
11059 1213
11059 1720
11059 3678
11059 5567
11060 1176
11060 1710
11060 3603
11060 5504
11061 1211
11061 1719
11061 3696
11061 5601
11062 1177
11062 1674
11062 3635
11062 5625
11063 1234
11063 1781
11063 3621
11063 5545
11064 1223
11064 1681
11064 3590
11064 5607
11065 1235
11065 1685
11065 3689
11065 5574
11066 1279
11066 1783
11066 3666
11066 5620
11067 1271
11067 1769
11067 3659
11067 5565
11068 1200
11068 1723
11068 3702
11068 5509
11069 1268
11069 1739
11069 3669
11069 5599
11070 1251
11070 1667
11070 3683
11070 5621
11071 1250
11071 1730
11071 3673
11071 5594
11072 1274
11072 1745
11072 3594
11072 5548
11073 1156
11073 1671
11073 3645
11073 5604
11074 1160
11074 1789
11074 3589
11074 5566
11075 1162
11075 1670
11075 3638
11075 5568
11076 1171
11076 1725
11076 3585
11076 5523
11077 1237
11077 1702
11077 3615
11077 5537
11078 1246
11078 1768
11078 3620
11078 5606
11079 1275
11079 1753
11079 3692
11079 5536
11080 1231
11080 1775
11080 3588
11080 5600
11081 1152
11081 1705
11081 3670
11081 5569
11082 1263
11082 1680
11082 3676
11082 5518
11083 1265
11083 1761
11083 3608
11083 5589
11084 1204
11084 1712
11084 3674
11084 5519
11085 1173
11085 1776
11085 3642
11085 5552
11086 1217
11086 1787
11086 3647
11086 5611
11087 1238
11087 1717
11087 3650
11087 5535
11088 1278
11088 1714
11088 3672
11088 5541
11089 1161
11089 1762
11089 3587
11089 5550
11090 1254
11090 1704
11090 3701
11090 5525
11091 1239
11091 1665
11091 3586
11091 5630
11092 1199
11092 1682
11092 3652
11092 5613
11093 1191
11093 1749
11093 3613
11093 5612
11094 1192
11094 1724
11094 3640
11094 5628
11095 1184
11095 1698
11095 3600
11095 5562
11096 1252
11096 1693
11096 3704
11096 5520
11097 1165
11097 1718
11097 3679
11097 5626
11098 1197
11098 1666
11098 3596
11098 5571
11099 1249
11099 1765
11099 3622
11099 5616
11100 1179
11100 1747
11100 3662
11100 5605
11101 1168
11101 1696
11101 3687
11101 5546
11102 1174
11102 1701
11102 3612
11102 5512
11103 1187
11103 1668
11103 3698
11103 5619
11104 1264
11104 1785
11104 3644
11104 5530
11105 1260
11105 1779
11105 3599
11105 5609
11106 1208
11106 1664
11106 3684
11106 5527
11107 1247
11107 1672
11107 3655
11107 5608
11108 1266
11108 1790
11108 3680
11108 5529
11109 1270
11109 1690
11109 3624
11109 5583
11110 1172
11110 1706
11110 3646
11110 5557
11111 1248
11111 1774
11111 3675
11111 5582
11112 1258
11112 1782
11112 3700
11112 5517
11113 1183
11113 1708
11113 3643
11113 5561
11114 1196
11114 1694
11114 3693
11114 5564
11115 1277
11115 1673
11115 3631
11115 5528
11116 1157
11116 1736
11116 3707
11116 5522
11117 1181
11117 1699
11117 3651
11117 5578
11118 1240
11118 1679
11118 3654
11118 5579
11119 1155
11119 1711
11119 3649
11119 5624
11120 1233
11120 1742
11120 3708
11120 5533
11121 1215
11121 1713
11121 3641
11121 5507
11122 1255
11122 1738
11122 3661
11122 5629
11123 1202
11123 1716
11123 3685
11123 5549
11124 1269
11124 1691
11124 3709
11124 5516
11125 1193
11125 1733
11125 3584
11125 5508
11126 1195
11126 1771
11126 3677
11126 5539
11127 1259
11127 1760
11127 3605
11127 5577
11128 1262
11128 1669
11128 3637
11128 5544
11129 1178
11129 1727
11129 3639
11129 5572
11130 1236
11130 1687
11130 3601
11130 5615
11131 1205
11131 1715
11131 3610
11131 5627
11132 1175
11132 1735
11132 3619
11132 5560
11133 1216
11133 1700
11133 3691
11133 5563
11134 1257
11134 1755
11134 3710
11134 5532
11135 1261
11135 1695
11135 3634
11135 5610
11136 1352
11136 1806
11136 3713
11136 4261
11137 1381
11137 1832
11137 3822
11137 4323
11138 1386
11138 1886
11138 3760
11138 4321
11139 1330
11139 1891
11139 3790
11139 4241
11140 1301
11140 1919
11140 3791
11140 4290
11141 1373
11141 1795
11141 3804
11141 4309
11142 1372
11142 1917
11142 3786
11142 4285
11143 1407
11143 1883
11143 3748
11143 4276
11144 1302
11144 1869
11144 3745
11144 4237
11145 1357
11145 1913
11145 3732
11145 4247
11146 1358
11146 1829
11146 3768
11146 4324
11147 1283
11147 1882
11147 3764
11147 4303
11148 1378
11148 1821
11148 3823
11148 4275
11149 1336
11149 1811
11149 3729
11149 4328
11150 1379
11150 1807
11150 3811
11150 4337
11151 1340
11151 1893
11151 3721
11151 4333
11152 1292
11152 1851
11152 3836
11152 4348
11153 1388
11153 1862
11153 3754
11153 4329
11154 1337
11154 1831
11154 3761
11154 4301
11155 1406
11155 1857
11155 3727
11155 4334
11156 1314
11156 1805
11156 3765
11156 4229
11157 1345
11157 1854
11157 3835
11157 4316
11158 1380
11158 1916
11158 3737
11158 4252
11159 1405
11159 1918
11159 3787
11159 4346
11160 1391
11160 1847
11160 3755
11160 4224
11161 1404
11161 1837
11161 3750
11161 4298
11162 1384
11162 1799
11162 3819
11162 4245
11163 1299
11163 1834
11163 3794
11163 4339
11164 1350
11164 1816
11164 3815
11164 4266
11165 1362
11165 1792
11165 3716
11165 4263
11166 1370
11166 1909
11166 3810
11166 4326
11167 1329
11167 1904
11167 3808
11167 4347
11168 1383
11168 1901
11168 3719
11168 4278
11169 1369
11169 1842
11169 3780
11169 4293
11170 1342
11170 1800
11170 3756
11170 4315
11171 1284
11171 1827
11171 3801
11171 4273
11172 1285
11172 1889
11172 3724
11172 4332
11173 1353
11173 1910
11173 3837
11173 4262
11174 1394
11174 1848
11174 3742
11174 4234
11175 1366
11175 1846
11175 3833
11175 4244
11176 1401
11176 1801
11176 3812
11176 4340
11177 1296
11177 1887
11177 3834
11177 4335
11178 1332
11178 1824
11178 3733
11178 4239
11179 1400
11179 1871
11179 3838
11179 4302
11180 1297
11180 1905
11180 3718
11180 4330
11181 1325
11181 1855
11181 3746
11181 4249
11182 1374
11182 1798
11182 3767
11182 4269
11183 1341
11183 1830
11183 3792
11183 4280
11184 1343
11184 1860
11184 3817
11184 4272
11185 1315
11185 1809
11185 3807
11185 4227
11186 1360
11186 1867
11186 3788
11186 4306
11187 1375
11187 1908
11187 3779
11187 4338
11188 1281
11188 1833
11188 3824
11188 4255
11189 1309
11189 1880
11189 3769
11189 4228
11190 1291
11190 1836
11190 3806
11190 4264
11191 1403
11191 1899
11191 3825
11191 4296
11192 1402
11192 1879
11192 3797
11192 4331
11193 1316
11193 1903
11193 3818
11193 4305
11194 1304
11194 1822
11194 3782
11194 4342
11195 1289
11195 1835
11195 3740
11195 4257
11196 1385
11196 1902
11196 3775
11196 4345
11197 1361
11197 1906
11197 3781
11197 4341
11198 1390
11198 1823
11198 3789
11198 4271
11199 1354
11199 1864
11199 3720
11199 4314
11200 1347
11200 1859
11200 3798
11200 4318
11201 1286
11201 1845
11201 3744
11201 4267
11202 1310
11202 1849
11202 3774
11202 4240
11203 1308
11203 1826
11203 3778
11203 4286
11204 1280
11204 1888
11204 3731
11204 4236
11205 1367
11205 1852
11205 3826
11205 4270
11206 1335
11206 1793
11206 3712
11206 4312
11207 1351
11207 1856
11207 3770
11207 4313
11208 1344
11208 1843
11208 3799
11208 4283
11209 1389
11209 1839
11209 3784
11209 4248
11210 1306
11210 1878
11210 3796
11210 4299
11211 1287
11211 1853
11211 3751
11211 4307
11212 1349
11212 1881
11212 3747
11212 4319
11213 1356
11213 1897
11213 3776
11213 4238
11214 1328
11214 1804
11214 3741
11214 4253
11215 1346
11215 1813
11215 3723
11215 4291
11216 1359
11216 1841
11216 3783
11216 4259
11217 1331
11217 1838
11217 3839
11217 4317
11218 1303
11218 1898
11218 3725
11218 4297
11219 1305
11219 1817
11219 3762
11219 4336
11220 1387
11220 1796
11220 3763
11220 4231
11221 1324
11221 1866
11221 3821
11221 4258
11222 1295
11222 1828
11222 3726
11222 4344
11223 1320
11223 1884
11223 3758
11223 4288
11224 1393
11224 1875
11224 3795
11224 4351
11225 1307
11225 1819
11225 3803
11225 4279
11226 1300
11226 1794
11226 3714
11226 4300
11227 1371
11227 1803
11227 3820
11227 4250
11228 1319
11228 1912
11228 3757
11228 4254
11229 1318
11229 1896
11229 3766
11229 4304
11230 1294
11230 1802
11230 3739
11230 4343
11231 1288
11231 1874
11231 3735
11231 4322
11232 1327
11232 1863
11232 3730
11232 4274
11233 1338
11233 1877
11233 3717
11233 4350
11234 1363
11234 1872
11234 3813
11234 4311
11235 1298
11235 1820
11235 3793
11235 4308
11236 1334
11236 1907
11236 3831
11236 4268
11237 1282
11237 1814
11237 3785
11237 4292
11238 1290
11238 1885
11238 3736
11238 4289
11239 1365
11239 1815
11239 3832
11239 4260
11240 1376
11240 1900
11240 3802
11240 4251
11241 1397
11241 1890
11241 3800
11241 4310
11242 1312
11242 1892
11242 3805
11242 4232
11243 1395
11243 1808
11243 3738
11243 4225
11244 1396
11244 1850
11244 3814
11244 4294
11245 1311
11245 1876
11245 3771
11245 4265
11246 1339
11246 1895
11246 3777
11246 4284
11247 1377
11247 1825
11247 3772
11247 4327
11248 1326
11248 1844
11248 3829
11248 4277
11249 1355
11249 1915
11249 3773
11249 4242
11250 1321
11250 1797
11250 3753
11250 4246
11251 1382
11251 1865
11251 3827
11251 4325
11252 1322
11252 1810
11252 3722
11252 4243
11253 1392
11253 1840
11253 3749
11253 4256
11254 1398
11254 1894
11254 3715
11254 4287
11255 1333
11255 1818
11255 3830
11255 4230
11256 1293
11256 1873
11256 3809
11256 4320
11257 1364
11257 1861
11257 3759
11257 4295
11258 1317
11258 1858
11258 3743
11258 4349
11259 1399
11259 1914
11259 3752
11259 4226
11260 1313
11260 1812
11260 3734
11260 4235
11261 1368
11261 1911
11261 3728
11261 4282
11262 1348
11262 1870
11262 3828
11262 4233
11263 1323
11263 1868
11263 3816
11263 4281
