11200 12599 25198
0 0
0 4
0 11
1 0
1 1
2 1
2 2
3 2
3 3
4 3
4 4
5 5
5 10
5 11
5 19
6 5
6 6
7 6
7 7
8 7
8 8
9 8
9 9
10 9
10 10
11 12
11 18
11 19
11 28
12 12
12 13
13 13
13 14
14 14
14 15
15 15
15 16
16 16
16 17
17 17
17 18
18 20
18 27
18 28
18 38
19 20
19 21
20 21
20 22
21 22
21 23
22 23
22 24
23 24
23 25
24 25
24 26
25 26
25 27
26 29
26 37
26 38
26 49
27 29
27 30
28 30
28 31
29 31
29 32
30 32
30 33
31 33
31 34
32 34
32 35
33 35
33 36
34 36
34 37
35 39
35 48
35 49
35 61
36 39
36 40
37 40
37 41
38 41
38 42
39 42
39 43
40 43
40 44
41 44
41 45
42 45
42 46
43 46
43 47
44 47
44 48
45 50
45 60
45 61
45 12400
46 50
46 51
47 51
47 52
48 52
48 53
49 53
49 54
50 54
50 55
51 55
51 56
52 56
52 57
53 57
53 58
54 58
54 59
55 59
55 60
56 62
56 66
56 73
57 62
57 63
58 63
58 64
59 64
59 65
60 65
60 66
61 67
61 72
61 73
61 81
62 67
62 68
63 68
63 69
64 69
64 70
65 70
65 71
66 71
66 72
67 74
67 80
67 81
67 90
68 74
68 75
69 75
69 76
70 76
70 77
71 77
71 78
72 78
72 79
73 79
73 80
74 82
74 89
74 90
74 100
75 82
75 83
76 83
76 84
77 84
77 85
78 85
78 86
79 86
79 87
80 87
80 88
81 88
81 89
82 91
82 99
82 100
82 111
83 91
83 92
84 92
84 93
85 93
85 94
86 94
86 95
87 95
87 96
88 96
88 97
89 97
89 98
90 98
90 99
91 101
91 110
91 111
91 123
92 101
92 102
93 102
93 103
94 103
94 104
95 104
95 105
96 105
96 106
97 106
97 107
98 107
98 108
99 108
99 109
100 109
100 110
101 112
101 122
101 123
101 12400
101 12401
102 112
102 113
103 113
103 114
104 114
104 115
105 115
105 116
106 116
106 117
107 117
107 118
108 118
108 119
109 119
109 120
110 120
110 121
111 121
111 122
112 124
112 128
112 135
113 124
113 125
114 125
114 126
115 126
115 127
116 127
116 128
117 129
117 134
117 135
117 143
118 129
118 130
119 130
119 131
120 131
120 132
121 132
121 133
122 133
122 134
123 136
123 142
123 143
123 152
124 136
124 137
125 137
125 138
126 138
126 139
127 139
127 140
128 140
128 141
129 141
129 142
130 144
130 151
130 152
130 162
131 144
131 145
132 145
132 146
133 146
133 147
134 147
134 148
135 148
135 149
136 149
136 150
137 150
137 151
138 153
138 161
138 162
138 173
139 153
139 154
140 154
140 155
141 155
141 156
142 156
142 157
143 157
143 158
144 158
144 159
145 159
145 160
146 160
146 161
147 163
147 172
147 173
147 185
148 163
148 164
149 164
149 165
150 165
150 166
151 166
151 167
152 167
152 168
153 168
153 169
154 169
154 170
155 170
155 171
156 171
156 172
157 174
157 184
157 185
157 12401
157 12402
158 174
158 175
159 175
159 176
160 176
160 177
161 177
161 178
162 178
162 179
163 179
163 180
164 180
164 181
165 181
165 182
166 182
166 183
167 183
167 184
168 186
168 190
168 197
169 186
169 187
170 187
170 188
171 188
171 189
172 189
172 190
173 191
173 196
173 197
173 205
174 191
174 192
175 192
175 193
176 193
176 194
177 194
177 195
178 195
178 196
179 198
179 204
179 205
179 214
180 198
180 199
181 199
181 200
182 200
182 201
183 201
183 202
184 202
184 203
185 203
185 204
186 206
186 213
186 214
186 224
187 206
187 207
188 207
188 208
189 208
189 209
190 209
190 210
191 210
191 211
192 211
192 212
193 212
193 213
194 215
194 223
194 224
194 235
195 215
195 216
196 216
196 217
197 217
197 218
198 218
198 219
199 219
199 220
200 220
200 221
201 221
201 222
202 222
202 223
203 225
203 234
203 235
203 247
204 225
204 226
205 226
205 227
206 227
206 228
207 228
207 229
208 229
208 230
209 230
209 231
210 231
210 232
211 232
211 233
212 233
212 234
213 236
213 246
213 247
213 12402
213 12403
214 236
214 237
215 237
215 238
216 238
216 239
217 239
217 240
218 240
218 241
219 241
219 242
220 242
220 243
221 243
221 244
222 244
222 245
223 245
223 246
224 248
224 252
224 259
225 248
225 249
226 249
226 250
227 250
227 251
228 251
228 252
229 253
229 258
229 259
229 267
230 253
230 254
231 254
231 255
232 255
232 256
233 256
233 257
234 257
234 258
235 260
235 266
235 267
235 276
236 260
236 261
237 261
237 262
238 262
238 263
239 263
239 264
240 264
240 265
241 265
241 266
242 268
242 275
242 276
242 286
243 268
243 269
244 269
244 270
245 270
245 271
246 271
246 272
247 272
247 273
248 273
248 274
249 274
249 275
250 277
250 285
250 286
250 297
251 277
251 278
252 278
252 279
253 279
253 280
254 280
254 281
255 281
255 282
256 282
256 283
257 283
257 284
258 284
258 285
259 287
259 296
259 297
259 309
260 287
260 288
261 288
261 289
262 289
262 290
263 290
263 291
264 291
264 292
265 292
265 293
266 293
266 294
267 294
267 295
268 295
268 296
269 298
269 308
269 309
269 12403
269 12404
270 298
270 299
271 299
271 300
272 300
272 301
273 301
273 302
274 302
274 303
275 303
275 304
276 304
276 305
277 305
277 306
278 306
278 307
279 307
279 308
280 310
280 314
280 321
281 310
281 311
282 311
282 312
283 312
283 313
284 313
284 314
285 315
285 320
285 321
285 329
286 315
286 316
287 316
287 317
288 317
288 318
289 318
289 319
290 319
290 320
291 322
291 328
291 329
291 338
292 322
292 323
293 323
293 324
294 324
294 325
295 325
295 326
296 326
296 327
297 327
297 328
298 330
298 337
298 338
298 348
299 330
299 331
300 331
300 332
301 332
301 333
302 333
302 334
303 334
303 335
304 335
304 336
305 336
305 337
306 339
306 347
306 348
306 359
307 339
307 340
308 340
308 341
309 341
309 342
310 342
310 343
311 343
311 344
312 344
312 345
313 345
313 346
314 346
314 347
315 349
315 358
315 359
315 371
316 349
316 350
317 350
317 351
318 351
318 352
319 352
319 353
320 353
320 354
321 354
321 355
322 355
322 356
323 356
323 357
324 357
324 358
325 360
325 370
325 371
325 12404
325 12405
326 360
326 361
327 361
327 362
328 362
328 363
329 363
329 364
330 364
330 365
331 365
331 366
332 366
332 367
333 367
333 368
334 368
334 369
335 369
335 370
336 372
336 376
336 383
337 372
337 373
338 373
338 374
339 374
339 375
340 375
340 376
341 377
341 382
341 383
341 391
342 377
342 378
343 378
343 379
344 379
344 380
345 380
345 381
346 381
346 382
347 384
347 390
347 391
347 400
348 384
348 385
349 385
349 386
350 386
350 387
351 387
351 388
352 388
352 389
353 389
353 390
354 392
354 399
354 400
354 410
355 392
355 393
356 393
356 394
357 394
357 395
358 395
358 396
359 396
359 397
360 397
360 398
361 398
361 399
362 401
362 409
362 410
362 421
363 401
363 402
364 402
364 403
365 403
365 404
366 404
366 405
367 405
367 406
368 406
368 407
369 407
369 408
370 408
370 409
371 411
371 420
371 421
371 433
372 411
372 412
373 412
373 413
374 413
374 414
375 414
375 415
376 415
376 416
377 416
377 417
378 417
378 418
379 418
379 419
380 419
380 420
381 422
381 432
381 433
381 12405
381 12406
382 422
382 423
383 423
383 424
384 424
384 425
385 425
385 426
386 426
386 427
387 427
387 428
388 428
388 429
389 429
389 430
390 430
390 431
391 431
391 432
392 434
392 438
392 445
393 434
393 435
394 435
394 436
395 436
395 437
396 437
396 438
397 439
397 444
397 445
397 453
398 439
398 440
399 440
399 441
400 441
400 442
401 442
401 443
402 443
402 444
403 446
403 452
403 453
403 462
404 446
404 447
405 447
405 448
406 448
406 449
407 449
407 450
408 450
408 451
409 451
409 452
410 454
410 461
410 462
410 472
411 454
411 455
412 455
412 456
413 456
413 457
414 457
414 458
415 458
415 459
416 459
416 460
417 460
417 461
418 463
418 471
418 472
418 483
419 463
419 464
420 464
420 465
421 465
421 466
422 466
422 467
423 467
423 468
424 468
424 469
425 469
425 470
426 470
426 471
427 473
427 482
427 483
427 495
428 473
428 474
429 474
429 475
430 475
430 476
431 476
431 477
432 477
432 478
433 478
433 479
434 479
434 480
435 480
435 481
436 481
436 482
437 484
437 494
437 495
437 12406
437 12407
438 484
438 485
439 485
439 486
440 486
440 487
441 487
441 488
442 488
442 489
443 489
443 490
444 490
444 491
445 491
445 492
446 492
446 493
447 493
447 494
448 496
448 500
448 507
449 496
449 497
450 497
450 498
451 498
451 499
452 499
452 500
453 501
453 506
453 507
453 515
454 501
454 502
455 502
455 503
456 503
456 504
457 504
457 505
458 505
458 506
459 508
459 514
459 515
459 524
460 508
460 509
461 509
461 510
462 510
462 511
463 511
463 512
464 512
464 513
465 513
465 514
466 516
466 523
466 524
466 534
467 516
467 517
468 517
468 518
469 518
469 519
470 519
470 520
471 520
471 521
472 521
472 522
473 522
473 523
474 525
474 533
474 534
474 545
475 525
475 526
476 526
476 527
477 527
477 528
478 528
478 529
479 529
479 530
480 530
480 531
481 531
481 532
482 532
482 533
483 535
483 544
483 545
483 557
484 535
484 536
485 536
485 537
486 537
486 538
487 538
487 539
488 539
488 540
489 540
489 541
490 541
490 542
491 542
491 543
492 543
492 544
493 546
493 556
493 557
493 12407
493 12408
494 546
494 547
495 547
495 548
496 548
496 549
497 549
497 550
498 550
498 551
499 551
499 552
500 552
500 553
501 553
501 554
502 554
502 555
503 555
503 556
504 558
504 562
504 569
505 558
505 559
506 559
506 560
507 560
507 561
508 561
508 562
509 563
509 568
509 569
509 577
510 563
510 564
511 564
511 565
512 565
512 566
513 566
513 567
514 567
514 568
515 570
515 576
515 577
515 586
516 570
516 571
517 571
517 572
518 572
518 573
519 573
519 574
520 574
520 575
521 575
521 576
522 578
522 585
522 586
522 596
523 578
523 579
524 579
524 580
525 580
525 581
526 581
526 582
527 582
527 583
528 583
528 584
529 584
529 585
530 587
530 595
530 596
530 607
531 587
531 588
532 588
532 589
533 589
533 590
534 590
534 591
535 591
535 592
536 592
536 593
537 593
537 594
538 594
538 595
539 597
539 606
539 607
539 619
540 597
540 598
541 598
541 599
542 599
542 600
543 600
543 601
544 601
544 602
545 602
545 603
546 603
546 604
547 604
547 605
548 605
548 606
549 608
549 618
549 619
549 12408
549 12409
550 608
550 609
551 609
551 610
552 610
552 611
553 611
553 612
554 612
554 613
555 613
555 614
556 614
556 615
557 615
557 616
558 616
558 617
559 617
559 618
560 620
560 624
560 631
561 620
561 621
562 621
562 622
563 622
563 623
564 623
564 624
565 625
565 630
565 631
565 639
566 625
566 626
567 626
567 627
568 627
568 628
569 628
569 629
570 629
570 630
571 632
571 638
571 639
571 648
572 632
572 633
573 633
573 634
574 634
574 635
575 635
575 636
576 636
576 637
577 637
577 638
578 640
578 647
578 648
578 658
579 640
579 641
580 641
580 642
581 642
581 643
582 643
582 644
583 644
583 645
584 645
584 646
585 646
585 647
586 649
586 657
586 658
586 669
587 649
587 650
588 650
588 651
589 651
589 652
590 652
590 653
591 653
591 654
592 654
592 655
593 655
593 656
594 656
594 657
595 659
595 668
595 669
595 681
596 659
596 660
597 660
597 661
598 661
598 662
599 662
599 663
600 663
600 664
601 664
601 665
602 665
602 666
603 666
603 667
604 667
604 668
605 670
605 680
605 681
605 12409
605 12410
606 670
606 671
607 671
607 672
608 672
608 673
609 673
609 674
610 674
610 675
611 675
611 676
612 676
612 677
613 677
613 678
614 678
614 679
615 679
615 680
616 682
616 686
616 693
617 682
617 683
618 683
618 684
619 684
619 685
620 685
620 686
621 687
621 692
621 693
621 701
622 687
622 688
623 688
623 689
624 689
624 690
625 690
625 691
626 691
626 692
627 694
627 700
627 701
627 710
628 694
628 695
629 695
629 696
630 696
630 697
631 697
631 698
632 698
632 699
633 699
633 700
634 702
634 709
634 710
634 720
635 702
635 703
636 703
636 704
637 704
637 705
638 705
638 706
639 706
639 707
640 707
640 708
641 708
641 709
642 711
642 719
642 720
642 731
643 711
643 712
644 712
644 713
645 713
645 714
646 714
646 715
647 715
647 716
648 716
648 717
649 717
649 718
650 718
650 719
651 721
651 730
651 731
651 743
652 721
652 722
653 722
653 723
654 723
654 724
655 724
655 725
656 725
656 726
657 726
657 727
658 727
658 728
659 728
659 729
660 729
660 730
661 732
661 742
661 743
661 12410
661 12411
662 732
662 733
663 733
663 734
664 734
664 735
665 735
665 736
666 736
666 737
667 737
667 738
668 738
668 739
669 739
669 740
670 740
670 741
671 741
671 742
672 744
672 748
672 755
673 744
673 745
674 745
674 746
675 746
675 747
676 747
676 748
677 749
677 754
677 755
677 763
678 749
678 750
679 750
679 751
680 751
680 752
681 752
681 753
682 753
682 754
683 756
683 762
683 763
683 772
684 756
684 757
685 757
685 758
686 758
686 759
687 759
687 760
688 760
688 761
689 761
689 762
690 764
690 771
690 772
690 782
691 764
691 765
692 765
692 766
693 766
693 767
694 767
694 768
695 768
695 769
696 769
696 770
697 770
697 771
698 773
698 781
698 782
698 793
699 773
699 774
700 774
700 775
701 775
701 776
702 776
702 777
703 777
703 778
704 778
704 779
705 779
705 780
706 780
706 781
707 783
707 792
707 793
707 805
708 783
708 784
709 784
709 785
710 785
710 786
711 786
711 787
712 787
712 788
713 788
713 789
714 789
714 790
715 790
715 791
716 791
716 792
717 794
717 804
717 805
717 12411
717 12412
718 794
718 795
719 795
719 796
720 796
720 797
721 797
721 798
722 798
722 799
723 799
723 800
724 800
724 801
725 801
725 802
726 802
726 803
727 803
727 804
728 806
728 810
728 817
729 806
729 807
730 807
730 808
731 808
731 809
732 809
732 810
733 811
733 816
733 817
733 825
734 811
734 812
735 812
735 813
736 813
736 814
737 814
737 815
738 815
738 816
739 818
739 824
739 825
739 834
740 818
740 819
741 819
741 820
742 820
742 821
743 821
743 822
744 822
744 823
745 823
745 824
746 826
746 833
746 834
746 844
747 826
747 827
748 827
748 828
749 828
749 829
750 829
750 830
751 830
751 831
752 831
752 832
753 832
753 833
754 835
754 843
754 844
754 855
755 835
755 836
756 836
756 837
757 837
757 838
758 838
758 839
759 839
759 840
760 840
760 841
761 841
761 842
762 842
762 843
763 845
763 854
763 855
763 867
764 845
764 846
765 846
765 847
766 847
766 848
767 848
767 849
768 849
768 850
769 850
769 851
770 851
770 852
771 852
771 853
772 853
772 854
773 856
773 866
773 867
773 12412
773 12413
774 856
774 857
775 857
775 858
776 858
776 859
777 859
777 860
778 860
778 861
779 861
779 862
780 862
780 863
781 863
781 864
782 864
782 865
783 865
783 866
784 868
784 872
784 879
785 868
785 869
786 869
786 870
787 870
787 871
788 871
788 872
789 873
789 878
789 879
789 887
790 873
790 874
791 874
791 875
792 875
792 876
793 876
793 877
794 877
794 878
795 880
795 886
795 887
795 896
796 880
796 881
797 881
797 882
798 882
798 883
799 883
799 884
800 884
800 885
801 885
801 886
802 888
802 895
802 896
802 906
803 888
803 889
804 889
804 890
805 890
805 891
806 891
806 892
807 892
807 893
808 893
808 894
809 894
809 895
810 897
810 905
810 906
810 917
811 897
811 898
812 898
812 899
813 899
813 900
814 900
814 901
815 901
815 902
816 902
816 903
817 903
817 904
818 904
818 905
819 907
819 916
819 917
819 929
820 907
820 908
821 908
821 909
822 909
822 910
823 910
823 911
824 911
824 912
825 912
825 913
826 913
826 914
827 914
827 915
828 915
828 916
829 918
829 928
829 929
829 12413
829 12414
830 918
830 919
831 919
831 920
832 920
832 921
833 921
833 922
834 922
834 923
835 923
835 924
836 924
836 925
837 925
837 926
838 926
838 927
839 927
839 928
840 930
840 934
840 941
841 930
841 931
842 931
842 932
843 932
843 933
844 933
844 934
845 935
845 940
845 941
845 949
846 935
846 936
847 936
847 937
848 937
848 938
849 938
849 939
850 939
850 940
851 942
851 948
851 949
851 958
852 942
852 943
853 943
853 944
854 944
854 945
855 945
855 946
856 946
856 947
857 947
857 948
858 950
858 957
858 958
858 968
859 950
859 951
860 951
860 952
861 952
861 953
862 953
862 954
863 954
863 955
864 955
864 956
865 956
865 957
866 959
866 967
866 968
866 979
867 959
867 960
868 960
868 961
869 961
869 962
870 962
870 963
871 963
871 964
872 964
872 965
873 965
873 966
874 966
874 967
875 969
875 978
875 979
875 991
876 969
876 970
877 970
877 971
878 971
878 972
879 972
879 973
880 973
880 974
881 974
881 975
882 975
882 976
883 976
883 977
884 977
884 978
885 980
885 990
885 991
885 12414
885 12415
886 980
886 981
887 981
887 982
888 982
888 983
889 983
889 984
890 984
890 985
891 985
891 986
892 986
892 987
893 987
893 988
894 988
894 989
895 989
895 990
896 992
896 996
896 1003
897 992
897 993
898 993
898 994
899 994
899 995
900 995
900 996
901 997
901 1002
901 1003
901 1011
902 997
902 998
903 998
903 999
904 999
904 1000
905 1000
905 1001
906 1001
906 1002
907 1004
907 1010
907 1011
907 1020
908 1004
908 1005
909 1005
909 1006
910 1006
910 1007
911 1007
911 1008
912 1008
912 1009
913 1009
913 1010
914 1012
914 1019
914 1020
914 1030
915 1012
915 1013
916 1013
916 1014
917 1014
917 1015
918 1015
918 1016
919 1016
919 1017
920 1017
920 1018
921 1018
921 1019
922 1021
922 1029
922 1030
922 1041
923 1021
923 1022
924 1022
924 1023
925 1023
925 1024
926 1024
926 1025
927 1025
927 1026
928 1026
928 1027
929 1027
929 1028
930 1028
930 1029
931 1031
931 1040
931 1041
931 1053
932 1031
932 1032
933 1032
933 1033
934 1033
934 1034
935 1034
935 1035
936 1035
936 1036
937 1036
937 1037
938 1037
938 1038
939 1038
939 1039
940 1039
940 1040
941 1042
941 1052
941 1053
941 12415
941 12416
942 1042
942 1043
943 1043
943 1044
944 1044
944 1045
945 1045
945 1046
946 1046
946 1047
947 1047
947 1048
948 1048
948 1049
949 1049
949 1050
950 1050
950 1051
951 1051
951 1052
952 1054
952 1058
952 1065
953 1054
953 1055
954 1055
954 1056
955 1056
955 1057
956 1057
956 1058
957 1059
957 1064
957 1065
957 1073
958 1059
958 1060
959 1060
959 1061
960 1061
960 1062
961 1062
961 1063
962 1063
962 1064
963 1066
963 1072
963 1073
963 1082
964 1066
964 1067
965 1067
965 1068
966 1068
966 1069
967 1069
967 1070
968 1070
968 1071
969 1071
969 1072
970 1074
970 1081
970 1082
970 1092
971 1074
971 1075
972 1075
972 1076
973 1076
973 1077
974 1077
974 1078
975 1078
975 1079
976 1079
976 1080
977 1080
977 1081
978 1083
978 1091
978 1092
978 1103
979 1083
979 1084
980 1084
980 1085
981 1085
981 1086
982 1086
982 1087
983 1087
983 1088
984 1088
984 1089
985 1089
985 1090
986 1090
986 1091
987 1093
987 1102
987 1103
987 1115
988 1093
988 1094
989 1094
989 1095
990 1095
990 1096
991 1096
991 1097
992 1097
992 1098
993 1098
993 1099
994 1099
994 1100
995 1100
995 1101
996 1101
996 1102
997 1104
997 1114
997 1115
997 12416
997 12417
998 1104
998 1105
999 1105
999 1106
1000 1106
1000 1107
1001 1107
1001 1108
1002 1108
1002 1109
1003 1109
1003 1110
1004 1110
1004 1111
1005 1111
1005 1112
1006 1112
1006 1113
1007 1113
1007 1114
1008 1116
1008 1120
1008 1127
1009 1116
1009 1117
1010 1117
1010 1118
1011 1118
1011 1119
1012 1119
1012 1120
1013 1121
1013 1126
1013 1127
1013 1135
1014 1121
1014 1122
1015 1122
1015 1123
1016 1123
1016 1124
1017 1124
1017 1125
1018 1125
1018 1126
1019 1128
1019 1134
1019 1135
1019 1144
1020 1128
1020 1129
1021 1129
1021 1130
1022 1130
1022 1131
1023 1131
1023 1132
1024 1132
1024 1133
1025 1133
1025 1134
1026 1136
1026 1143
1026 1144
1026 1154
1027 1136
1027 1137
1028 1137
1028 1138
1029 1138
1029 1139
1030 1139
1030 1140
1031 1140
1031 1141
1032 1141
1032 1142
1033 1142
1033 1143
1034 1145
1034 1153
1034 1154
1034 1165
1035 1145
1035 1146
1036 1146
1036 1147
1037 1147
1037 1148
1038 1148
1038 1149
1039 1149
1039 1150
1040 1150
1040 1151
1041 1151
1041 1152
1042 1152
1042 1153
1043 1155
1043 1164
1043 1165
1043 1177
1044 1155
1044 1156
1045 1156
1045 1157
1046 1157
1046 1158
1047 1158
1047 1159
1048 1159
1048 1160
1049 1160
1049 1161
1050 1161
1050 1162
1051 1162
1051 1163
1052 1163
1052 1164
1053 1166
1053 1176
1053 1177
1053 12417
1053 12418
1054 1166
1054 1167
1055 1167
1055 1168
1056 1168
1056 1169
1057 1169
1057 1170
1058 1170
1058 1171
1059 1171
1059 1172
1060 1172
1060 1173
1061 1173
1061 1174
1062 1174
1062 1175
1063 1175
1063 1176
1064 1178
1064 1182
1064 1189
1065 1178
1065 1179
1066 1179
1066 1180
1067 1180
1067 1181
1068 1181
1068 1182
1069 1183
1069 1188
1069 1189
1069 1197
1070 1183
1070 1184
1071 1184
1071 1185
1072 1185
1072 1186
1073 1186
1073 1187
1074 1187
1074 1188
1075 1190
1075 1196
1075 1197
1075 1206
1076 1190
1076 1191
1077 1191
1077 1192
1078 1192
1078 1193
1079 1193
1079 1194
1080 1194
1080 1195
1081 1195
1081 1196
1082 1198
1082 1205
1082 1206
1082 1216
1083 1198
1083 1199
1084 1199
1084 1200
1085 1200
1085 1201
1086 1201
1086 1202
1087 1202
1087 1203
1088 1203
1088 1204
1089 1204
1089 1205
1090 1207
1090 1215
1090 1216
1090 1227
1091 1207
1091 1208
1092 1208
1092 1209
1093 1209
1093 1210
1094 1210
1094 1211
1095 1211
1095 1212
1096 1212
1096 1213
1097 1213
1097 1214
1098 1214
1098 1215
1099 1217
1099 1226
1099 1227
1099 1239
1100 1217
1100 1218
1101 1218
1101 1219
1102 1219
1102 1220
1103 1220
1103 1221
1104 1221
1104 1222
1105 1222
1105 1223
1106 1223
1106 1224
1107 1224
1107 1225
1108 1225
1108 1226
1109 1228
1109 1238
1109 1239
1109 12418
1109 12419
1110 1228
1110 1229
1111 1229
1111 1230
1112 1230
1112 1231
1113 1231
1113 1232
1114 1232
1114 1233
1115 1233
1115 1234
1116 1234
1116 1235
1117 1235
1117 1236
1118 1236
1118 1237
1119 1237
1119 1238
1120 1240
1120 1244
1120 1251
1121 1240
1121 1241
1122 1241
1122 1242
1123 1242
1123 1243
1124 1243
1124 1244
1125 1245
1125 1250
1125 1251
1125 1259
1126 1245
1126 1246
1127 1246
1127 1247
1128 1247
1128 1248
1129 1248
1129 1249
1130 1249
1130 1250
1131 1252
1131 1258
1131 1259
1131 1268
1132 1252
1132 1253
1133 1253
1133 1254
1134 1254
1134 1255
1135 1255
1135 1256
1136 1256
1136 1257
1137 1257
1137 1258
1138 1260
1138 1267
1138 1268
1138 1278
1139 1260
1139 1261
1140 1261
1140 1262
1141 1262
1141 1263
1142 1263
1142 1264
1143 1264
1143 1265
1144 1265
1144 1266
1145 1266
1145 1267
1146 1269
1146 1277
1146 1278
1146 1289
1147 1269
1147 1270
1148 1270
1148 1271
1149 1271
1149 1272
1150 1272
1150 1273
1151 1273
1151 1274
1152 1274
1152 1275
1153 1275
1153 1276
1154 1276
1154 1277
1155 1279
1155 1288
1155 1289
1155 1301
1156 1279
1156 1280
1157 1280
1157 1281
1158 1281
1158 1282
1159 1282
1159 1283
1160 1283
1160 1284
1161 1284
1161 1285
1162 1285
1162 1286
1163 1286
1163 1287
1164 1287
1164 1288
1165 1290
1165 1300
1165 1301
1165 12419
1165 12420
1166 1290
1166 1291
1167 1291
1167 1292
1168 1292
1168 1293
1169 1293
1169 1294
1170 1294
1170 1295
1171 1295
1171 1296
1172 1296
1172 1297
1173 1297
1173 1298
1174 1298
1174 1299
1175 1299
1175 1300
1176 1302
1176 1306
1176 1313
1177 1302
1177 1303
1178 1303
1178 1304
1179 1304
1179 1305
1180 1305
1180 1306
1181 1307
1181 1312
1181 1313
1181 1321
1182 1307
1182 1308
1183 1308
1183 1309
1184 1309
1184 1310
1185 1310
1185 1311
1186 1311
1186 1312
1187 1314
1187 1320
1187 1321
1187 1330
1188 1314
1188 1315
1189 1315
1189 1316
1190 1316
1190 1317
1191 1317
1191 1318
1192 1318
1192 1319
1193 1319
1193 1320
1194 1322
1194 1329
1194 1330
1194 1340
1195 1322
1195 1323
1196 1323
1196 1324
1197 1324
1197 1325
1198 1325
1198 1326
1199 1326
1199 1327
1200 1327
1200 1328
1201 1328
1201 1329
1202 1331
1202 1339
1202 1340
1202 1351
1203 1331
1203 1332
1204 1332
1204 1333
1205 1333
1205 1334
1206 1334
1206 1335
1207 1335
1207 1336
1208 1336
1208 1337
1209 1337
1209 1338
1210 1338
1210 1339
1211 1341
1211 1350
1211 1351
1211 1363
1212 1341
1212 1342
1213 1342
1213 1343
1214 1343
1214 1344
1215 1344
1215 1345
1216 1345
1216 1346
1217 1346
1217 1347
1218 1347
1218 1348
1219 1348
1219 1349
1220 1349
1220 1350
1221 1352
1221 1362
1221 1363
1221 12420
1221 12421
1222 1352
1222 1353
1223 1353
1223 1354
1224 1354
1224 1355
1225 1355
1225 1356
1226 1356
1226 1357
1227 1357
1227 1358
1228 1358
1228 1359
1229 1359
1229 1360
1230 1360
1230 1361
1231 1361
1231 1362
1232 1364
1232 1368
1232 1375
1233 1364
1233 1365
1234 1365
1234 1366
1235 1366
1235 1367
1236 1367
1236 1368
1237 1369
1237 1374
1237 1375
1237 1383
1238 1369
1238 1370
1239 1370
1239 1371
1240 1371
1240 1372
1241 1372
1241 1373
1242 1373
1242 1374
1243 1376
1243 1382
1243 1383
1243 1392
1244 1376
1244 1377
1245 1377
1245 1378
1246 1378
1246 1379
1247 1379
1247 1380
1248 1380
1248 1381
1249 1381
1249 1382
1250 1384
1250 1391
1250 1392
1250 1402
1251 1384
1251 1385
1252 1385
1252 1386
1253 1386
1253 1387
1254 1387
1254 1388
1255 1388
1255 1389
1256 1389
1256 1390
1257 1390
1257 1391
1258 1393
1258 1401
1258 1402
1258 1413
1259 1393
1259 1394
1260 1394
1260 1395
1261 1395
1261 1396
1262 1396
1262 1397
1263 1397
1263 1398
1264 1398
1264 1399
1265 1399
1265 1400
1266 1400
1266 1401
1267 1403
1267 1412
1267 1413
1267 1425
1268 1403
1268 1404
1269 1404
1269 1405
1270 1405
1270 1406
1271 1406
1271 1407
1272 1407
1272 1408
1273 1408
1273 1409
1274 1409
1274 1410
1275 1410
1275 1411
1276 1411
1276 1412
1277 1414
1277 1424
1277 1425
1277 12421
1277 12422
1278 1414
1278 1415
1279 1415
1279 1416
1280 1416
1280 1417
1281 1417
1281 1418
1282 1418
1282 1419
1283 1419
1283 1420
1284 1420
1284 1421
1285 1421
1285 1422
1286 1422
1286 1423
1287 1423
1287 1424
1288 1426
1288 1430
1288 1437
1289 1426
1289 1427
1290 1427
1290 1428
1291 1428
1291 1429
1292 1429
1292 1430
1293 1431
1293 1436
1293 1437
1293 1445
1294 1431
1294 1432
1295 1432
1295 1433
1296 1433
1296 1434
1297 1434
1297 1435
1298 1435
1298 1436
1299 1438
1299 1444
1299 1445
1299 1454
1300 1438
1300 1439
1301 1439
1301 1440
1302 1440
1302 1441
1303 1441
1303 1442
1304 1442
1304 1443
1305 1443
1305 1444
1306 1446
1306 1453
1306 1454
1306 1464
1307 1446
1307 1447
1308 1447
1308 1448
1309 1448
1309 1449
1310 1449
1310 1450
1311 1450
1311 1451
1312 1451
1312 1452
1313 1452
1313 1453
1314 1455
1314 1463
1314 1464
1314 1475
1315 1455
1315 1456
1316 1456
1316 1457
1317 1457
1317 1458
1318 1458
1318 1459
1319 1459
1319 1460
1320 1460
1320 1461
1321 1461
1321 1462
1322 1462
1322 1463
1323 1465
1323 1474
1323 1475
1323 1487
1324 1465
1324 1466
1325 1466
1325 1467
1326 1467
1326 1468
1327 1468
1327 1469
1328 1469
1328 1470
1329 1470
1329 1471
1330 1471
1330 1472
1331 1472
1331 1473
1332 1473
1332 1474
1333 1476
1333 1486
1333 1487
1333 12422
1333 12423
1334 1476
1334 1477
1335 1477
1335 1478
1336 1478
1336 1479
1337 1479
1337 1480
1338 1480
1338 1481
1339 1481
1339 1482
1340 1482
1340 1483
1341 1483
1341 1484
1342 1484
1342 1485
1343 1485
1343 1486
1344 1488
1344 1492
1344 1499
1345 1488
1345 1489
1346 1489
1346 1490
1347 1490
1347 1491
1348 1491
1348 1492
1349 1493
1349 1498
1349 1499
1349 1507
1350 1493
1350 1494
1351 1494
1351 1495
1352 1495
1352 1496
1353 1496
1353 1497
1354 1497
1354 1498
1355 1500
1355 1506
1355 1507
1355 1516
1356 1500
1356 1501
1357 1501
1357 1502
1358 1502
1358 1503
1359 1503
1359 1504
1360 1504
1360 1505
1361 1505
1361 1506
1362 1508
1362 1515
1362 1516
1362 1526
1363 1508
1363 1509
1364 1509
1364 1510
1365 1510
1365 1511
1366 1511
1366 1512
1367 1512
1367 1513
1368 1513
1368 1514
1369 1514
1369 1515
1370 1517
1370 1525
1370 1526
1370 1537
1371 1517
1371 1518
1372 1518
1372 1519
1373 1519
1373 1520
1374 1520
1374 1521
1375 1521
1375 1522
1376 1522
1376 1523
1377 1523
1377 1524
1378 1524
1378 1525
1379 1527
1379 1536
1379 1537
1379 1549
1380 1527
1380 1528
1381 1528
1381 1529
1382 1529
1382 1530
1383 1530
1383 1531
1384 1531
1384 1532
1385 1532
1385 1533
1386 1533
1386 1534
1387 1534
1387 1535
1388 1535
1388 1536
1389 1538
1389 1548
1389 1549
1389 12423
1389 12424
1390 1538
1390 1539
1391 1539
1391 1540
1392 1540
1392 1541
1393 1541
1393 1542
1394 1542
1394 1543
1395 1543
1395 1544
1396 1544
1396 1545
1397 1545
1397 1546
1398 1546
1398 1547
1399 1547
1399 1548
1400 1550
1400 1554
1400 1561
1401 1550
1401 1551
1402 1551
1402 1552
1403 1552
1403 1553
1404 1553
1404 1554
1405 1555
1405 1560
1405 1561
1405 1569
1406 1555
1406 1556
1407 1556
1407 1557
1408 1557
1408 1558
1409 1558
1409 1559
1410 1559
1410 1560
1411 1562
1411 1568
1411 1569
1411 1578
1412 1562
1412 1563
1413 1563
1413 1564
1414 1564
1414 1565
1415 1565
1415 1566
1416 1566
1416 1567
1417 1567
1417 1568
1418 1570
1418 1577
1418 1578
1418 1588
1419 1570
1419 1571
1420 1571
1420 1572
1421 1572
1421 1573
1422 1573
1422 1574
1423 1574
1423 1575
1424 1575
1424 1576
1425 1576
1425 1577
1426 1579
1426 1587
1426 1588
1426 1599
1427 1579
1427 1580
1428 1580
1428 1581
1429 1581
1429 1582
1430 1582
1430 1583
1431 1583
1431 1584
1432 1584
1432 1585
1433 1585
1433 1586
1434 1586
1434 1587
1435 1589
1435 1598
1435 1599
1435 1611
1436 1589
1436 1590
1437 1590
1437 1591
1438 1591
1438 1592
1439 1592
1439 1593
1440 1593
1440 1594
1441 1594
1441 1595
1442 1595
1442 1596
1443 1596
1443 1597
1444 1597
1444 1598
1445 1600
1445 1610
1445 1611
1445 12424
1445 12425
1446 1600
1446 1601
1447 1601
1447 1602
1448 1602
1448 1603
1449 1603
1449 1604
1450 1604
1450 1605
1451 1605
1451 1606
1452 1606
1452 1607
1453 1607
1453 1608
1454 1608
1454 1609
1455 1609
1455 1610
1456 1612
1456 1616
1456 1623
1457 1612
1457 1613
1458 1613
1458 1614
1459 1614
1459 1615
1460 1615
1460 1616
1461 1617
1461 1622
1461 1623
1461 1631
1462 1617
1462 1618
1463 1618
1463 1619
1464 1619
1464 1620
1465 1620
1465 1621
1466 1621
1466 1622
1467 1624
1467 1630
1467 1631
1467 1640
1468 1624
1468 1625
1469 1625
1469 1626
1470 1626
1470 1627
1471 1627
1471 1628
1472 1628
1472 1629
1473 1629
1473 1630
1474 1632
1474 1639
1474 1640
1474 1650
1475 1632
1475 1633
1476 1633
1476 1634
1477 1634
1477 1635
1478 1635
1478 1636
1479 1636
1479 1637
1480 1637
1480 1638
1481 1638
1481 1639
1482 1641
1482 1649
1482 1650
1482 1661
1483 1641
1483 1642
1484 1642
1484 1643
1485 1643
1485 1644
1486 1644
1486 1645
1487 1645
1487 1646
1488 1646
1488 1647
1489 1647
1489 1648
1490 1648
1490 1649
1491 1651
1491 1660
1491 1661
1491 1673
1492 1651
1492 1652
1493 1652
1493 1653
1494 1653
1494 1654
1495 1654
1495 1655
1496 1655
1496 1656
1497 1656
1497 1657
1498 1657
1498 1658
1499 1658
1499 1659
1500 1659
1500 1660
1501 1662
1501 1672
1501 1673
1501 12425
1501 12426
1502 1662
1502 1663
1503 1663
1503 1664
1504 1664
1504 1665
1505 1665
1505 1666
1506 1666
1506 1667
1507 1667
1507 1668
1508 1668
1508 1669
1509 1669
1509 1670
1510 1670
1510 1671
1511 1671
1511 1672
1512 1674
1512 1678
1512 1685
1513 1674
1513 1675
1514 1675
1514 1676
1515 1676
1515 1677
1516 1677
1516 1678
1517 1679
1517 1684
1517 1685
1517 1693
1518 1679
1518 1680
1519 1680
1519 1681
1520 1681
1520 1682
1521 1682
1521 1683
1522 1683
1522 1684
1523 1686
1523 1692
1523 1693
1523 1702
1524 1686
1524 1687
1525 1687
1525 1688
1526 1688
1526 1689
1527 1689
1527 1690
1528 1690
1528 1691
1529 1691
1529 1692
1530 1694
1530 1701
1530 1702
1530 1712
1531 1694
1531 1695
1532 1695
1532 1696
1533 1696
1533 1697
1534 1697
1534 1698
1535 1698
1535 1699
1536 1699
1536 1700
1537 1700
1537 1701
1538 1703
1538 1711
1538 1712
1538 1723
1539 1703
1539 1704
1540 1704
1540 1705
1541 1705
1541 1706
1542 1706
1542 1707
1543 1707
1543 1708
1544 1708
1544 1709
1545 1709
1545 1710
1546 1710
1546 1711
1547 1713
1547 1722
1547 1723
1547 1735
1548 1713
1548 1714
1549 1714
1549 1715
1550 1715
1550 1716
1551 1716
1551 1717
1552 1717
1552 1718
1553 1718
1553 1719
1554 1719
1554 1720
1555 1720
1555 1721
1556 1721
1556 1722
1557 1724
1557 1734
1557 1735
1557 12426
1557 12427
1558 1724
1558 1725
1559 1725
1559 1726
1560 1726
1560 1727
1561 1727
1561 1728
1562 1728
1562 1729
1563 1729
1563 1730
1564 1730
1564 1731
1565 1731
1565 1732
1566 1732
1566 1733
1567 1733
1567 1734
1568 1736
1568 1740
1568 1747
1569 1736
1569 1737
1570 1737
1570 1738
1571 1738
1571 1739
1572 1739
1572 1740
1573 1741
1573 1746
1573 1747
1573 1755
1574 1741
1574 1742
1575 1742
1575 1743
1576 1743
1576 1744
1577 1744
1577 1745
1578 1745
1578 1746
1579 1748
1579 1754
1579 1755
1579 1764
1580 1748
1580 1749
1581 1749
1581 1750
1582 1750
1582 1751
1583 1751
1583 1752
1584 1752
1584 1753
1585 1753
1585 1754
1586 1756
1586 1763
1586 1764
1586 1774
1587 1756
1587 1757
1588 1757
1588 1758
1589 1758
1589 1759
1590 1759
1590 1760
1591 1760
1591 1761
1592 1761
1592 1762
1593 1762
1593 1763
1594 1765
1594 1773
1594 1774
1594 1785
1595 1765
1595 1766
1596 1766
1596 1767
1597 1767
1597 1768
1598 1768
1598 1769
1599 1769
1599 1770
1600 1770
1600 1771
1601 1771
1601 1772
1602 1772
1602 1773
1603 1775
1603 1784
1603 1785
1603 1797
1604 1775
1604 1776
1605 1776
1605 1777
1606 1777
1606 1778
1607 1778
1607 1779
1608 1779
1608 1780
1609 1780
1609 1781
1610 1781
1610 1782
1611 1782
1611 1783
1612 1783
1612 1784
1613 1786
1613 1796
1613 1797
1613 12427
1613 12428
1614 1786
1614 1787
1615 1787
1615 1788
1616 1788
1616 1789
1617 1789
1617 1790
1618 1790
1618 1791
1619 1791
1619 1792
1620 1792
1620 1793
1621 1793
1621 1794
1622 1794
1622 1795
1623 1795
1623 1796
1624 1798
1624 1802
1624 1809
1625 1798
1625 1799
1626 1799
1626 1800
1627 1800
1627 1801
1628 1801
1628 1802
1629 1803
1629 1808
1629 1809
1629 1817
1630 1803
1630 1804
1631 1804
1631 1805
1632 1805
1632 1806
1633 1806
1633 1807
1634 1807
1634 1808
1635 1810
1635 1816
1635 1817
1635 1826
1636 1810
1636 1811
1637 1811
1637 1812
1638 1812
1638 1813
1639 1813
1639 1814
1640 1814
1640 1815
1641 1815
1641 1816
1642 1818
1642 1825
1642 1826
1642 1836
1643 1818
1643 1819
1644 1819
1644 1820
1645 1820
1645 1821
1646 1821
1646 1822
1647 1822
1647 1823
1648 1823
1648 1824
1649 1824
1649 1825
1650 1827
1650 1835
1650 1836
1650 1847
1651 1827
1651 1828
1652 1828
1652 1829
1653 1829
1653 1830
1654 1830
1654 1831
1655 1831
1655 1832
1656 1832
1656 1833
1657 1833
1657 1834
1658 1834
1658 1835
1659 1837
1659 1846
1659 1847
1659 1859
1660 1837
1660 1838
1661 1838
1661 1839
1662 1839
1662 1840
1663 1840
1663 1841
1664 1841
1664 1842
1665 1842
1665 1843
1666 1843
1666 1844
1667 1844
1667 1845
1668 1845
1668 1846
1669 1848
1669 1858
1669 1859
1669 12428
1669 12429
1670 1848
1670 1849
1671 1849
1671 1850
1672 1850
1672 1851
1673 1851
1673 1852
1674 1852
1674 1853
1675 1853
1675 1854
1676 1854
1676 1855
1677 1855
1677 1856
1678 1856
1678 1857
1679 1857
1679 1858
1680 1860
1680 1864
1680 1871
1681 1860
1681 1861
1682 1861
1682 1862
1683 1862
1683 1863
1684 1863
1684 1864
1685 1865
1685 1870
1685 1871
1685 1879
1686 1865
1686 1866
1687 1866
1687 1867
1688 1867
1688 1868
1689 1868
1689 1869
1690 1869
1690 1870
1691 1872
1691 1878
1691 1879
1691 1888
1692 1872
1692 1873
1693 1873
1693 1874
1694 1874
1694 1875
1695 1875
1695 1876
1696 1876
1696 1877
1697 1877
1697 1878
1698 1880
1698 1887
1698 1888
1698 1898
1699 1880
1699 1881
1700 1881
1700 1882
1701 1882
1701 1883
1702 1883
1702 1884
1703 1884
1703 1885
1704 1885
1704 1886
1705 1886
1705 1887
1706 1889
1706 1897
1706 1898
1706 1909
1707 1889
1707 1890
1708 1890
1708 1891
1709 1891
1709 1892
1710 1892
1710 1893
1711 1893
1711 1894
1712 1894
1712 1895
1713 1895
1713 1896
1714 1896
1714 1897
1715 1899
1715 1908
1715 1909
1715 1921
1716 1899
1716 1900
1717 1900
1717 1901
1718 1901
1718 1902
1719 1902
1719 1903
1720 1903
1720 1904
1721 1904
1721 1905
1722 1905
1722 1906
1723 1906
1723 1907
1724 1907
1724 1908
1725 1910
1725 1920
1725 1921
1725 12429
1725 12430
1726 1910
1726 1911
1727 1911
1727 1912
1728 1912
1728 1913
1729 1913
1729 1914
1730 1914
1730 1915
1731 1915
1731 1916
1732 1916
1732 1917
1733 1917
1733 1918
1734 1918
1734 1919
1735 1919
1735 1920
1736 1922
1736 1926
1736 1933
1737 1922
1737 1923
1738 1923
1738 1924
1739 1924
1739 1925
1740 1925
1740 1926
1741 1927
1741 1932
1741 1933
1741 1941
1742 1927
1742 1928
1743 1928
1743 1929
1744 1929
1744 1930
1745 1930
1745 1931
1746 1931
1746 1932
1747 1934
1747 1940
1747 1941
1747 1950
1748 1934
1748 1935
1749 1935
1749 1936
1750 1936
1750 1937
1751 1937
1751 1938
1752 1938
1752 1939
1753 1939
1753 1940
1754 1942
1754 1949
1754 1950
1754 1960
1755 1942
1755 1943
1756 1943
1756 1944
1757 1944
1757 1945
1758 1945
1758 1946
1759 1946
1759 1947
1760 1947
1760 1948
1761 1948
1761 1949
1762 1951
1762 1959
1762 1960
1762 1971
1763 1951
1763 1952
1764 1952
1764 1953
1765 1953
1765 1954
1766 1954
1766 1955
1767 1955
1767 1956
1768 1956
1768 1957
1769 1957
1769 1958
1770 1958
1770 1959
1771 1961
1771 1970
1771 1971
1771 1983
1772 1961
1772 1962
1773 1962
1773 1963
1774 1963
1774 1964
1775 1964
1775 1965
1776 1965
1776 1966
1777 1966
1777 1967
1778 1967
1778 1968
1779 1968
1779 1969
1780 1969
1780 1970
1781 1972
1781 1982
1781 1983
1781 12430
1781 12431
1782 1972
1782 1973
1783 1973
1783 1974
1784 1974
1784 1975
1785 1975
1785 1976
1786 1976
1786 1977
1787 1977
1787 1978
1788 1978
1788 1979
1789 1979
1789 1980
1790 1980
1790 1981
1791 1981
1791 1982
1792 1984
1792 1988
1792 1995
1793 1984
1793 1985
1794 1985
1794 1986
1795 1986
1795 1987
1796 1987
1796 1988
1797 1989
1797 1994
1797 1995
1797 2003
1798 1989
1798 1990
1799 1990
1799 1991
1800 1991
1800 1992
1801 1992
1801 1993
1802 1993
1802 1994
1803 1996
1803 2002
1803 2003
1803 2012
1804 1996
1804 1997
1805 1997
1805 1998
1806 1998
1806 1999
1807 1999
1807 2000
1808 2000
1808 2001
1809 2001
1809 2002
1810 2004
1810 2011
1810 2012
1810 2022
1811 2004
1811 2005
1812 2005
1812 2006
1813 2006
1813 2007
1814 2007
1814 2008
1815 2008
1815 2009
1816 2009
1816 2010
1817 2010
1817 2011
1818 2013
1818 2021
1818 2022
1818 2033
1819 2013
1819 2014
1820 2014
1820 2015
1821 2015
1821 2016
1822 2016
1822 2017
1823 2017
1823 2018
1824 2018
1824 2019
1825 2019
1825 2020
1826 2020
1826 2021
1827 2023
1827 2032
1827 2033
1827 2045
1828 2023
1828 2024
1829 2024
1829 2025
1830 2025
1830 2026
1831 2026
1831 2027
1832 2027
1832 2028
1833 2028
1833 2029
1834 2029
1834 2030
1835 2030
1835 2031
1836 2031
1836 2032
1837 2034
1837 2044
1837 2045
1837 12431
1837 12432
1838 2034
1838 2035
1839 2035
1839 2036
1840 2036
1840 2037
1841 2037
1841 2038
1842 2038
1842 2039
1843 2039
1843 2040
1844 2040
1844 2041
1845 2041
1845 2042
1846 2042
1846 2043
1847 2043
1847 2044
1848 2046
1848 2050
1848 2057
1849 2046
1849 2047
1850 2047
1850 2048
1851 2048
1851 2049
1852 2049
1852 2050
1853 2051
1853 2056
1853 2057
1853 2065
1854 2051
1854 2052
1855 2052
1855 2053
1856 2053
1856 2054
1857 2054
1857 2055
1858 2055
1858 2056
1859 2058
1859 2064
1859 2065
1859 2074
1860 2058
1860 2059
1861 2059
1861 2060
1862 2060
1862 2061
1863 2061
1863 2062
1864 2062
1864 2063
1865 2063
1865 2064
1866 2066
1866 2073
1866 2074
1866 2084
1867 2066
1867 2067
1868 2067
1868 2068
1869 2068
1869 2069
1870 2069
1870 2070
1871 2070
1871 2071
1872 2071
1872 2072
1873 2072
1873 2073
1874 2075
1874 2083
1874 2084
1874 2095
1875 2075
1875 2076
1876 2076
1876 2077
1877 2077
1877 2078
1878 2078
1878 2079
1879 2079
1879 2080
1880 2080
1880 2081
1881 2081
1881 2082
1882 2082
1882 2083
1883 2085
1883 2094
1883 2095
1883 2107
1884 2085
1884 2086
1885 2086
1885 2087
1886 2087
1886 2088
1887 2088
1887 2089
1888 2089
1888 2090
1889 2090
1889 2091
1890 2091
1890 2092
1891 2092
1891 2093
1892 2093
1892 2094
1893 2096
1893 2106
1893 2107
1893 12432
1893 12433
1894 2096
1894 2097
1895 2097
1895 2098
1896 2098
1896 2099
1897 2099
1897 2100
1898 2100
1898 2101
1899 2101
1899 2102
1900 2102
1900 2103
1901 2103
1901 2104
1902 2104
1902 2105
1903 2105
1903 2106
1904 2108
1904 2112
1904 2119
1905 2108
1905 2109
1906 2109
1906 2110
1907 2110
1907 2111
1908 2111
1908 2112
1909 2113
1909 2118
1909 2119
1909 2127
1910 2113
1910 2114
1911 2114
1911 2115
1912 2115
1912 2116
1913 2116
1913 2117
1914 2117
1914 2118
1915 2120
1915 2126
1915 2127
1915 2136
1916 2120
1916 2121
1917 2121
1917 2122
1918 2122
1918 2123
1919 2123
1919 2124
1920 2124
1920 2125
1921 2125
1921 2126
1922 2128
1922 2135
1922 2136
1922 2146
1923 2128
1923 2129
1924 2129
1924 2130
1925 2130
1925 2131
1926 2131
1926 2132
1927 2132
1927 2133
1928 2133
1928 2134
1929 2134
1929 2135
1930 2137
1930 2145
1930 2146
1930 2157
1931 2137
1931 2138
1932 2138
1932 2139
1933 2139
1933 2140
1934 2140
1934 2141
1935 2141
1935 2142
1936 2142
1936 2143
1937 2143
1937 2144
1938 2144
1938 2145
1939 2147
1939 2156
1939 2157
1939 2169
1940 2147
1940 2148
1941 2148
1941 2149
1942 2149
1942 2150
1943 2150
1943 2151
1944 2151
1944 2152
1945 2152
1945 2153
1946 2153
1946 2154
1947 2154
1947 2155
1948 2155
1948 2156
1949 2158
1949 2168
1949 2169
1949 12433
1949 12434
1950 2158
1950 2159
1951 2159
1951 2160
1952 2160
1952 2161
1953 2161
1953 2162
1954 2162
1954 2163
1955 2163
1955 2164
1956 2164
1956 2165
1957 2165
1957 2166
1958 2166
1958 2167
1959 2167
1959 2168
1960 2170
1960 2174
1960 2181
1961 2170
1961 2171
1962 2171
1962 2172
1963 2172
1963 2173
1964 2173
1964 2174
1965 2175
1965 2180
1965 2181
1965 2189
1966 2175
1966 2176
1967 2176
1967 2177
1968 2177
1968 2178
1969 2178
1969 2179
1970 2179
1970 2180
1971 2182
1971 2188
1971 2189
1971 2198
1972 2182
1972 2183
1973 2183
1973 2184
1974 2184
1974 2185
1975 2185
1975 2186
1976 2186
1976 2187
1977 2187
1977 2188
1978 2190
1978 2197
1978 2198
1978 2208
1979 2190
1979 2191
1980 2191
1980 2192
1981 2192
1981 2193
1982 2193
1982 2194
1983 2194
1983 2195
1984 2195
1984 2196
1985 2196
1985 2197
1986 2199
1986 2207
1986 2208
1986 2219
1987 2199
1987 2200
1988 2200
1988 2201
1989 2201
1989 2202
1990 2202
1990 2203
1991 2203
1991 2204
1992 2204
1992 2205
1993 2205
1993 2206
1994 2206
1994 2207
1995 2209
1995 2218
1995 2219
1995 2231
1996 2209
1996 2210
1997 2210
1997 2211
1998 2211
1998 2212
1999 2212
1999 2213
2000 2213
2000 2214
2001 2214
2001 2215
2002 2215
2002 2216
2003 2216
2003 2217
2004 2217
2004 2218
2005 2220
2005 2230
2005 2231
2005 12434
2005 12435
2006 2220
2006 2221
2007 2221
2007 2222
2008 2222
2008 2223
2009 2223
2009 2224
2010 2224
2010 2225
2011 2225
2011 2226
2012 2226
2012 2227
2013 2227
2013 2228
2014 2228
2014 2229
2015 2229
2015 2230
2016 2232
2016 2236
2016 2243
2017 2232
2017 2233
2018 2233
2018 2234
2019 2234
2019 2235
2020 2235
2020 2236
2021 2237
2021 2242
2021 2243
2021 2251
2022 2237
2022 2238
2023 2238
2023 2239
2024 2239
2024 2240
2025 2240
2025 2241
2026 2241
2026 2242
2027 2244
2027 2250
2027 2251
2027 2260
2028 2244
2028 2245
2029 2245
2029 2246
2030 2246
2030 2247
2031 2247
2031 2248
2032 2248
2032 2249
2033 2249
2033 2250
2034 2252
2034 2259
2034 2260
2034 2270
2035 2252
2035 2253
2036 2253
2036 2254
2037 2254
2037 2255
2038 2255
2038 2256
2039 2256
2039 2257
2040 2257
2040 2258
2041 2258
2041 2259
2042 2261
2042 2269
2042 2270
2042 2281
2043 2261
2043 2262
2044 2262
2044 2263
2045 2263
2045 2264
2046 2264
2046 2265
2047 2265
2047 2266
2048 2266
2048 2267
2049 2267
2049 2268
2050 2268
2050 2269
2051 2271
2051 2280
2051 2281
2051 2293
2052 2271
2052 2272
2053 2272
2053 2273
2054 2273
2054 2274
2055 2274
2055 2275
2056 2275
2056 2276
2057 2276
2057 2277
2058 2277
2058 2278
2059 2278
2059 2279
2060 2279
2060 2280
2061 2282
2061 2292
2061 2293
2061 12435
2061 12436
2062 2282
2062 2283
2063 2283
2063 2284
2064 2284
2064 2285
2065 2285
2065 2286
2066 2286
2066 2287
2067 2287
2067 2288
2068 2288
2068 2289
2069 2289
2069 2290
2070 2290
2070 2291
2071 2291
2071 2292
2072 2294
2072 2298
2072 2305
2073 2294
2073 2295
2074 2295
2074 2296
2075 2296
2075 2297
2076 2297
2076 2298
2077 2299
2077 2304
2077 2305
2077 2313
2078 2299
2078 2300
2079 2300
2079 2301
2080 2301
2080 2302
2081 2302
2081 2303
2082 2303
2082 2304
2083 2306
2083 2312
2083 2313
2083 2322
2084 2306
2084 2307
2085 2307
2085 2308
2086 2308
2086 2309
2087 2309
2087 2310
2088 2310
2088 2311
2089 2311
2089 2312
2090 2314
2090 2321
2090 2322
2090 2332
2091 2314
2091 2315
2092 2315
2092 2316
2093 2316
2093 2317
2094 2317
2094 2318
2095 2318
2095 2319
2096 2319
2096 2320
2097 2320
2097 2321
2098 2323
2098 2331
2098 2332
2098 2343
2099 2323
2099 2324
2100 2324
2100 2325
2101 2325
2101 2326
2102 2326
2102 2327
2103 2327
2103 2328
2104 2328
2104 2329
2105 2329
2105 2330
2106 2330
2106 2331
2107 2333
2107 2342
2107 2343
2107 2355
2108 2333
2108 2334
2109 2334
2109 2335
2110 2335
2110 2336
2111 2336
2111 2337
2112 2337
2112 2338
2113 2338
2113 2339
2114 2339
2114 2340
2115 2340
2115 2341
2116 2341
2116 2342
2117 2344
2117 2354
2117 2355
2117 12436
2117 12437
2118 2344
2118 2345
2119 2345
2119 2346
2120 2346
2120 2347
2121 2347
2121 2348
2122 2348
2122 2349
2123 2349
2123 2350
2124 2350
2124 2351
2125 2351
2125 2352
2126 2352
2126 2353
2127 2353
2127 2354
2128 2356
2128 2360
2128 2367
2129 2356
2129 2357
2130 2357
2130 2358
2131 2358
2131 2359
2132 2359
2132 2360
2133 2361
2133 2366
2133 2367
2133 2375
2134 2361
2134 2362
2135 2362
2135 2363
2136 2363
2136 2364
2137 2364
2137 2365
2138 2365
2138 2366
2139 2368
2139 2374
2139 2375
2139 2384
2140 2368
2140 2369
2141 2369
2141 2370
2142 2370
2142 2371
2143 2371
2143 2372
2144 2372
2144 2373
2145 2373
2145 2374
2146 2376
2146 2383
2146 2384
2146 2394
2147 2376
2147 2377
2148 2377
2148 2378
2149 2378
2149 2379
2150 2379
2150 2380
2151 2380
2151 2381
2152 2381
2152 2382
2153 2382
2153 2383
2154 2385
2154 2393
2154 2394
2154 2405
2155 2385
2155 2386
2156 2386
2156 2387
2157 2387
2157 2388
2158 2388
2158 2389
2159 2389
2159 2390
2160 2390
2160 2391
2161 2391
2161 2392
2162 2392
2162 2393
2163 2395
2163 2404
2163 2405
2163 2417
2164 2395
2164 2396
2165 2396
2165 2397
2166 2397
2166 2398
2167 2398
2167 2399
2168 2399
2168 2400
2169 2400
2169 2401
2170 2401
2170 2402
2171 2402
2171 2403
2172 2403
2172 2404
2173 2406
2173 2416
2173 2417
2173 12437
2173 12438
2174 2406
2174 2407
2175 2407
2175 2408
2176 2408
2176 2409
2177 2409
2177 2410
2178 2410
2178 2411
2179 2411
2179 2412
2180 2412
2180 2413
2181 2413
2181 2414
2182 2414
2182 2415
2183 2415
2183 2416
2184 2418
2184 2422
2184 2429
2185 2418
2185 2419
2186 2419
2186 2420
2187 2420
2187 2421
2188 2421
2188 2422
2189 2423
2189 2428
2189 2429
2189 2437
2190 2423
2190 2424
2191 2424
2191 2425
2192 2425
2192 2426
2193 2426
2193 2427
2194 2427
2194 2428
2195 2430
2195 2436
2195 2437
2195 2446
2196 2430
2196 2431
2197 2431
2197 2432
2198 2432
2198 2433
2199 2433
2199 2434
2200 2434
2200 2435
2201 2435
2201 2436
2202 2438
2202 2445
2202 2446
2202 2456
2203 2438
2203 2439
2204 2439
2204 2440
2205 2440
2205 2441
2206 2441
2206 2442
2207 2442
2207 2443
2208 2443
2208 2444
2209 2444
2209 2445
2210 2447
2210 2455
2210 2456
2210 2467
2211 2447
2211 2448
2212 2448
2212 2449
2213 2449
2213 2450
2214 2450
2214 2451
2215 2451
2215 2452
2216 2452
2216 2453
2217 2453
2217 2454
2218 2454
2218 2455
2219 2457
2219 2466
2219 2467
2219 2479
2220 2457
2220 2458
2221 2458
2221 2459
2222 2459
2222 2460
2223 2460
2223 2461
2224 2461
2224 2462
2225 2462
2225 2463
2226 2463
2226 2464
2227 2464
2227 2465
2228 2465
2228 2466
2229 2468
2229 2478
2229 2479
2229 12438
2229 12439
2230 2468
2230 2469
2231 2469
2231 2470
2232 2470
2232 2471
2233 2471
2233 2472
2234 2472
2234 2473
2235 2473
2235 2474
2236 2474
2236 2475
2237 2475
2237 2476
2238 2476
2238 2477
2239 2477
2239 2478
2240 2480
2240 2484
2240 2491
2241 2480
2241 2481
2242 2481
2242 2482
2243 2482
2243 2483
2244 2483
2244 2484
2245 2485
2245 2490
2245 2491
2245 2499
2246 2485
2246 2486
2247 2486
2247 2487
2248 2487
2248 2488
2249 2488
2249 2489
2250 2489
2250 2490
2251 2492
2251 2498
2251 2499
2251 2508
2252 2492
2252 2493
2253 2493
2253 2494
2254 2494
2254 2495
2255 2495
2255 2496
2256 2496
2256 2497
2257 2497
2257 2498
2258 2500
2258 2507
2258 2508
2258 2518
2259 2500
2259 2501
2260 2501
2260 2502
2261 2502
2261 2503
2262 2503
2262 2504
2263 2504
2263 2505
2264 2505
2264 2506
2265 2506
2265 2507
2266 2509
2266 2517
2266 2518
2266 2529
2267 2509
2267 2510
2268 2510
2268 2511
2269 2511
2269 2512
2270 2512
2270 2513
2271 2513
2271 2514
2272 2514
2272 2515
2273 2515
2273 2516
2274 2516
2274 2517
2275 2519
2275 2528
2275 2529
2275 2541
2276 2519
2276 2520
2277 2520
2277 2521
2278 2521
2278 2522
2279 2522
2279 2523
2280 2523
2280 2524
2281 2524
2281 2525
2282 2525
2282 2526
2283 2526
2283 2527
2284 2527
2284 2528
2285 2530
2285 2540
2285 2541
2285 12439
2285 12440
2286 2530
2286 2531
2287 2531
2287 2532
2288 2532
2288 2533
2289 2533
2289 2534
2290 2534
2290 2535
2291 2535
2291 2536
2292 2536
2292 2537
2293 2537
2293 2538
2294 2538
2294 2539
2295 2539
2295 2540
2296 2542
2296 2546
2296 2553
2297 2542
2297 2543
2298 2543
2298 2544
2299 2544
2299 2545
2300 2545
2300 2546
2301 2547
2301 2552
2301 2553
2301 2561
2302 2547
2302 2548
2303 2548
2303 2549
2304 2549
2304 2550
2305 2550
2305 2551
2306 2551
2306 2552
2307 2554
2307 2560
2307 2561
2307 2570
2308 2554
2308 2555
2309 2555
2309 2556
2310 2556
2310 2557
2311 2557
2311 2558
2312 2558
2312 2559
2313 2559
2313 2560
2314 2562
2314 2569
2314 2570
2314 2580
2315 2562
2315 2563
2316 2563
2316 2564
2317 2564
2317 2565
2318 2565
2318 2566
2319 2566
2319 2567
2320 2567
2320 2568
2321 2568
2321 2569
2322 2571
2322 2579
2322 2580
2322 2591
2323 2571
2323 2572
2324 2572
2324 2573
2325 2573
2325 2574
2326 2574
2326 2575
2327 2575
2327 2576
2328 2576
2328 2577
2329 2577
2329 2578
2330 2578
2330 2579
2331 2581
2331 2590
2331 2591
2331 2603
2332 2581
2332 2582
2333 2582
2333 2583
2334 2583
2334 2584
2335 2584
2335 2585
2336 2585
2336 2586
2337 2586
2337 2587
2338 2587
2338 2588
2339 2588
2339 2589
2340 2589
2340 2590
2341 2592
2341 2602
2341 2603
2341 12440
2341 12441
2342 2592
2342 2593
2343 2593
2343 2594
2344 2594
2344 2595
2345 2595
2345 2596
2346 2596
2346 2597
2347 2597
2347 2598
2348 2598
2348 2599
2349 2599
2349 2600
2350 2600
2350 2601
2351 2601
2351 2602
2352 2604
2352 2608
2352 2615
2353 2604
2353 2605
2354 2605
2354 2606
2355 2606
2355 2607
2356 2607
2356 2608
2357 2609
2357 2614
2357 2615
2357 2623
2358 2609
2358 2610
2359 2610
2359 2611
2360 2611
2360 2612
2361 2612
2361 2613
2362 2613
2362 2614
2363 2616
2363 2622
2363 2623
2363 2632
2364 2616
2364 2617
2365 2617
2365 2618
2366 2618
2366 2619
2367 2619
2367 2620
2368 2620
2368 2621
2369 2621
2369 2622
2370 2624
2370 2631
2370 2632
2370 2642
2371 2624
2371 2625
2372 2625
2372 2626
2373 2626
2373 2627
2374 2627
2374 2628
2375 2628
2375 2629
2376 2629
2376 2630
2377 2630
2377 2631
2378 2633
2378 2641
2378 2642
2378 2653
2379 2633
2379 2634
2380 2634
2380 2635
2381 2635
2381 2636
2382 2636
2382 2637
2383 2637
2383 2638
2384 2638
2384 2639
2385 2639
2385 2640
2386 2640
2386 2641
2387 2643
2387 2652
2387 2653
2387 2665
2388 2643
2388 2644
2389 2644
2389 2645
2390 2645
2390 2646
2391 2646
2391 2647
2392 2647
2392 2648
2393 2648
2393 2649
2394 2649
2394 2650
2395 2650
2395 2651
2396 2651
2396 2652
2397 2654
2397 2664
2397 2665
2397 12441
2397 12442
2398 2654
2398 2655
2399 2655
2399 2656
2400 2656
2400 2657
2401 2657
2401 2658
2402 2658
2402 2659
2403 2659
2403 2660
2404 2660
2404 2661
2405 2661
2405 2662
2406 2662
2406 2663
2407 2663
2407 2664
2408 2666
2408 2670
2408 2677
2409 2666
2409 2667
2410 2667
2410 2668
2411 2668
2411 2669
2412 2669
2412 2670
2413 2671
2413 2676
2413 2677
2413 2685
2414 2671
2414 2672
2415 2672
2415 2673
2416 2673
2416 2674
2417 2674
2417 2675
2418 2675
2418 2676
2419 2678
2419 2684
2419 2685
2419 2694
2420 2678
2420 2679
2421 2679
2421 2680
2422 2680
2422 2681
2423 2681
2423 2682
2424 2682
2424 2683
2425 2683
2425 2684
2426 2686
2426 2693
2426 2694
2426 2704
2427 2686
2427 2687
2428 2687
2428 2688
2429 2688
2429 2689
2430 2689
2430 2690
2431 2690
2431 2691
2432 2691
2432 2692
2433 2692
2433 2693
2434 2695
2434 2703
2434 2704
2434 2715
2435 2695
2435 2696
2436 2696
2436 2697
2437 2697
2437 2698
2438 2698
2438 2699
2439 2699
2439 2700
2440 2700
2440 2701
2441 2701
2441 2702
2442 2702
2442 2703
2443 2705
2443 2714
2443 2715
2443 2727
2444 2705
2444 2706
2445 2706
2445 2707
2446 2707
2446 2708
2447 2708
2447 2709
2448 2709
2448 2710
2449 2710
2449 2711
2450 2711
2450 2712
2451 2712
2451 2713
2452 2713
2452 2714
2453 2716
2453 2726
2453 2727
2453 12442
2453 12443
2454 2716
2454 2717
2455 2717
2455 2718
2456 2718
2456 2719
2457 2719
2457 2720
2458 2720
2458 2721
2459 2721
2459 2722
2460 2722
2460 2723
2461 2723
2461 2724
2462 2724
2462 2725
2463 2725
2463 2726
2464 2728
2464 2732
2464 2739
2465 2728
2465 2729
2466 2729
2466 2730
2467 2730
2467 2731
2468 2731
2468 2732
2469 2733
2469 2738
2469 2739
2469 2747
2470 2733
2470 2734
2471 2734
2471 2735
2472 2735
2472 2736
2473 2736
2473 2737
2474 2737
2474 2738
2475 2740
2475 2746
2475 2747
2475 2756
2476 2740
2476 2741
2477 2741
2477 2742
2478 2742
2478 2743
2479 2743
2479 2744
2480 2744
2480 2745
2481 2745
2481 2746
2482 2748
2482 2755
2482 2756
2482 2766
2483 2748
2483 2749
2484 2749
2484 2750
2485 2750
2485 2751
2486 2751
2486 2752
2487 2752
2487 2753
2488 2753
2488 2754
2489 2754
2489 2755
2490 2757
2490 2765
2490 2766
2490 2777
2491 2757
2491 2758
2492 2758
2492 2759
2493 2759
2493 2760
2494 2760
2494 2761
2495 2761
2495 2762
2496 2762
2496 2763
2497 2763
2497 2764
2498 2764
2498 2765
2499 2767
2499 2776
2499 2777
2499 2789
2500 2767
2500 2768
2501 2768
2501 2769
2502 2769
2502 2770
2503 2770
2503 2771
2504 2771
2504 2772
2505 2772
2505 2773
2506 2773
2506 2774
2507 2774
2507 2775
2508 2775
2508 2776
2509 2778
2509 2788
2509 2789
2509 12443
2509 12444
2510 2778
2510 2779
2511 2779
2511 2780
2512 2780
2512 2781
2513 2781
2513 2782
2514 2782
2514 2783
2515 2783
2515 2784
2516 2784
2516 2785
2517 2785
2517 2786
2518 2786
2518 2787
2519 2787
2519 2788
2520 2790
2520 2794
2520 2801
2521 2790
2521 2791
2522 2791
2522 2792
2523 2792
2523 2793
2524 2793
2524 2794
2525 2795
2525 2800
2525 2801
2525 2809
2526 2795
2526 2796
2527 2796
2527 2797
2528 2797
2528 2798
2529 2798
2529 2799
2530 2799
2530 2800
2531 2802
2531 2808
2531 2809
2531 2818
2532 2802
2532 2803
2533 2803
2533 2804
2534 2804
2534 2805
2535 2805
2535 2806
2536 2806
2536 2807
2537 2807
2537 2808
2538 2810
2538 2817
2538 2818
2538 2828
2539 2810
2539 2811
2540 2811
2540 2812
2541 2812
2541 2813
2542 2813
2542 2814
2543 2814
2543 2815
2544 2815
2544 2816
2545 2816
2545 2817
2546 2819
2546 2827
2546 2828
2546 2839
2547 2819
2547 2820
2548 2820
2548 2821
2549 2821
2549 2822
2550 2822
2550 2823
2551 2823
2551 2824
2552 2824
2552 2825
2553 2825
2553 2826
2554 2826
2554 2827
2555 2829
2555 2838
2555 2839
2555 2851
2556 2829
2556 2830
2557 2830
2557 2831
2558 2831
2558 2832
2559 2832
2559 2833
2560 2833
2560 2834
2561 2834
2561 2835
2562 2835
2562 2836
2563 2836
2563 2837
2564 2837
2564 2838
2565 2840
2565 2850
2565 2851
2565 12444
2565 12445
2566 2840
2566 2841
2567 2841
2567 2842
2568 2842
2568 2843
2569 2843
2569 2844
2570 2844
2570 2845
2571 2845
2571 2846
2572 2846
2572 2847
2573 2847
2573 2848
2574 2848
2574 2849
2575 2849
2575 2850
2576 2852
2576 2856
2576 2863
2577 2852
2577 2853
2578 2853
2578 2854
2579 2854
2579 2855
2580 2855
2580 2856
2581 2857
2581 2862
2581 2863
2581 2871
2582 2857
2582 2858
2583 2858
2583 2859
2584 2859
2584 2860
2585 2860
2585 2861
2586 2861
2586 2862
2587 2864
2587 2870
2587 2871
2587 2880
2588 2864
2588 2865
2589 2865
2589 2866
2590 2866
2590 2867
2591 2867
2591 2868
2592 2868
2592 2869
2593 2869
2593 2870
2594 2872
2594 2879
2594 2880
2594 2890
2595 2872
2595 2873
2596 2873
2596 2874
2597 2874
2597 2875
2598 2875
2598 2876
2599 2876
2599 2877
2600 2877
2600 2878
2601 2878
2601 2879
2602 2881
2602 2889
2602 2890
2602 2901
2603 2881
2603 2882
2604 2882
2604 2883
2605 2883
2605 2884
2606 2884
2606 2885
2607 2885
2607 2886
2608 2886
2608 2887
2609 2887
2609 2888
2610 2888
2610 2889
2611 2891
2611 2900
2611 2901
2611 2913
2612 2891
2612 2892
2613 2892
2613 2893
2614 2893
2614 2894
2615 2894
2615 2895
2616 2895
2616 2896
2617 2896
2617 2897
2618 2897
2618 2898
2619 2898
2619 2899
2620 2899
2620 2900
2621 2902
2621 2912
2621 2913
2621 12445
2621 12446
2622 2902
2622 2903
2623 2903
2623 2904
2624 2904
2624 2905
2625 2905
2625 2906
2626 2906
2626 2907
2627 2907
2627 2908
2628 2908
2628 2909
2629 2909
2629 2910
2630 2910
2630 2911
2631 2911
2631 2912
2632 2914
2632 2918
2632 2925
2633 2914
2633 2915
2634 2915
2634 2916
2635 2916
2635 2917
2636 2917
2636 2918
2637 2919
2637 2924
2637 2925
2637 2933
2638 2919
2638 2920
2639 2920
2639 2921
2640 2921
2640 2922
2641 2922
2641 2923
2642 2923
2642 2924
2643 2926
2643 2932
2643 2933
2643 2942
2644 2926
2644 2927
2645 2927
2645 2928
2646 2928
2646 2929
2647 2929
2647 2930
2648 2930
2648 2931
2649 2931
2649 2932
2650 2934
2650 2941
2650 2942
2650 2952
2651 2934
2651 2935
2652 2935
2652 2936
2653 2936
2653 2937
2654 2937
2654 2938
2655 2938
2655 2939
2656 2939
2656 2940
2657 2940
2657 2941
2658 2943
2658 2951
2658 2952
2658 2963
2659 2943
2659 2944
2660 2944
2660 2945
2661 2945
2661 2946
2662 2946
2662 2947
2663 2947
2663 2948
2664 2948
2664 2949
2665 2949
2665 2950
2666 2950
2666 2951
2667 2953
2667 2962
2667 2963
2667 2975
2668 2953
2668 2954
2669 2954
2669 2955
2670 2955
2670 2956
2671 2956
2671 2957
2672 2957
2672 2958
2673 2958
2673 2959
2674 2959
2674 2960
2675 2960
2675 2961
2676 2961
2676 2962
2677 2964
2677 2974
2677 2975
2677 12446
2677 12447
2678 2964
2678 2965
2679 2965
2679 2966
2680 2966
2680 2967
2681 2967
2681 2968
2682 2968
2682 2969
2683 2969
2683 2970
2684 2970
2684 2971
2685 2971
2685 2972
2686 2972
2686 2973
2687 2973
2687 2974
2688 2976
2688 2980
2688 2987
2689 2976
2689 2977
2690 2977
2690 2978
2691 2978
2691 2979
2692 2979
2692 2980
2693 2981
2693 2986
2693 2987
2693 2995
2694 2981
2694 2982
2695 2982
2695 2983
2696 2983
2696 2984
2697 2984
2697 2985
2698 2985
2698 2986
2699 2988
2699 2994
2699 2995
2699 3004
2700 2988
2700 2989
2701 2989
2701 2990
2702 2990
2702 2991
2703 2991
2703 2992
2704 2992
2704 2993
2705 2993
2705 2994
2706 2996
2706 3003
2706 3004
2706 3014
2707 2996
2707 2997
2708 2997
2708 2998
2709 2998
2709 2999
2710 2999
2710 3000
2711 3000
2711 3001
2712 3001
2712 3002
2713 3002
2713 3003
2714 3005
2714 3013
2714 3014
2714 3025
2715 3005
2715 3006
2716 3006
2716 3007
2717 3007
2717 3008
2718 3008
2718 3009
2719 3009
2719 3010
2720 3010
2720 3011
2721 3011
2721 3012
2722 3012
2722 3013
2723 3015
2723 3024
2723 3025
2723 3037
2724 3015
2724 3016
2725 3016
2725 3017
2726 3017
2726 3018
2727 3018
2727 3019
2728 3019
2728 3020
2729 3020
2729 3021
2730 3021
2730 3022
2731 3022
2731 3023
2732 3023
2732 3024
2733 3026
2733 3036
2733 3037
2733 12447
2733 12448
2734 3026
2734 3027
2735 3027
2735 3028
2736 3028
2736 3029
2737 3029
2737 3030
2738 3030
2738 3031
2739 3031
2739 3032
2740 3032
2740 3033
2741 3033
2741 3034
2742 3034
2742 3035
2743 3035
2743 3036
2744 3038
2744 3042
2744 3049
2745 3038
2745 3039
2746 3039
2746 3040
2747 3040
2747 3041
2748 3041
2748 3042
2749 3043
2749 3048
2749 3049
2749 3057
2750 3043
2750 3044
2751 3044
2751 3045
2752 3045
2752 3046
2753 3046
2753 3047
2754 3047
2754 3048
2755 3050
2755 3056
2755 3057
2755 3066
2756 3050
2756 3051
2757 3051
2757 3052
2758 3052
2758 3053
2759 3053
2759 3054
2760 3054
2760 3055
2761 3055
2761 3056
2762 3058
2762 3065
2762 3066
2762 3076
2763 3058
2763 3059
2764 3059
2764 3060
2765 3060
2765 3061
2766 3061
2766 3062
2767 3062
2767 3063
2768 3063
2768 3064
2769 3064
2769 3065
2770 3067
2770 3075
2770 3076
2770 3087
2771 3067
2771 3068
2772 3068
2772 3069
2773 3069
2773 3070
2774 3070
2774 3071
2775 3071
2775 3072
2776 3072
2776 3073
2777 3073
2777 3074
2778 3074
2778 3075
2779 3077
2779 3086
2779 3087
2779 3099
2780 3077
2780 3078
2781 3078
2781 3079
2782 3079
2782 3080
2783 3080
2783 3081
2784 3081
2784 3082
2785 3082
2785 3083
2786 3083
2786 3084
2787 3084
2787 3085
2788 3085
2788 3086
2789 3088
2789 3098
2789 3099
2789 12448
2789 12449
2790 3088
2790 3089
2791 3089
2791 3090
2792 3090
2792 3091
2793 3091
2793 3092
2794 3092
2794 3093
2795 3093
2795 3094
2796 3094
2796 3095
2797 3095
2797 3096
2798 3096
2798 3097
2799 3097
2799 3098
2800 3100
2800 3104
2800 3111
2801 3100
2801 3101
2802 3101
2802 3102
2803 3102
2803 3103
2804 3103
2804 3104
2805 3105
2805 3110
2805 3111
2805 3119
2806 3105
2806 3106
2807 3106
2807 3107
2808 3107
2808 3108
2809 3108
2809 3109
2810 3109
2810 3110
2811 3112
2811 3118
2811 3119
2811 3128
2812 3112
2812 3113
2813 3113
2813 3114
2814 3114
2814 3115
2815 3115
2815 3116
2816 3116
2816 3117
2817 3117
2817 3118
2818 3120
2818 3127
2818 3128
2818 3138
2819 3120
2819 3121
2820 3121
2820 3122
2821 3122
2821 3123
2822 3123
2822 3124
2823 3124
2823 3125
2824 3125
2824 3126
2825 3126
2825 3127
2826 3129
2826 3137
2826 3138
2826 3149
2827 3129
2827 3130
2828 3130
2828 3131
2829 3131
2829 3132
2830 3132
2830 3133
2831 3133
2831 3134
2832 3134
2832 3135
2833 3135
2833 3136
2834 3136
2834 3137
2835 3139
2835 3148
2835 3149
2835 3161
2836 3139
2836 3140
2837 3140
2837 3141
2838 3141
2838 3142
2839 3142
2839 3143
2840 3143
2840 3144
2841 3144
2841 3145
2842 3145
2842 3146
2843 3146
2843 3147
2844 3147
2844 3148
2845 3150
2845 3160
2845 3161
2845 12449
2845 12450
2846 3150
2846 3151
2847 3151
2847 3152
2848 3152
2848 3153
2849 3153
2849 3154
2850 3154
2850 3155
2851 3155
2851 3156
2852 3156
2852 3157
2853 3157
2853 3158
2854 3158
2854 3159
2855 3159
2855 3160
2856 3162
2856 3166
2856 3173
2857 3162
2857 3163
2858 3163
2858 3164
2859 3164
2859 3165
2860 3165
2860 3166
2861 3167
2861 3172
2861 3173
2861 3181
2862 3167
2862 3168
2863 3168
2863 3169
2864 3169
2864 3170
2865 3170
2865 3171
2866 3171
2866 3172
2867 3174
2867 3180
2867 3181
2867 3190
2868 3174
2868 3175
2869 3175
2869 3176
2870 3176
2870 3177
2871 3177
2871 3178
2872 3178
2872 3179
2873 3179
2873 3180
2874 3182
2874 3189
2874 3190
2874 3200
2875 3182
2875 3183
2876 3183
2876 3184
2877 3184
2877 3185
2878 3185
2878 3186
2879 3186
2879 3187
2880 3187
2880 3188
2881 3188
2881 3189
2882 3191
2882 3199
2882 3200
2882 3211
2883 3191
2883 3192
2884 3192
2884 3193
2885 3193
2885 3194
2886 3194
2886 3195
2887 3195
2887 3196
2888 3196
2888 3197
2889 3197
2889 3198
2890 3198
2890 3199
2891 3201
2891 3210
2891 3211
2891 3223
2892 3201
2892 3202
2893 3202
2893 3203
2894 3203
2894 3204
2895 3204
2895 3205
2896 3205
2896 3206
2897 3206
2897 3207
2898 3207
2898 3208
2899 3208
2899 3209
2900 3209
2900 3210
2901 3212
2901 3222
2901 3223
2901 12450
2901 12451
2902 3212
2902 3213
2903 3213
2903 3214
2904 3214
2904 3215
2905 3215
2905 3216
2906 3216
2906 3217
2907 3217
2907 3218
2908 3218
2908 3219
2909 3219
2909 3220
2910 3220
2910 3221
2911 3221
2911 3222
2912 3224
2912 3228
2912 3235
2913 3224
2913 3225
2914 3225
2914 3226
2915 3226
2915 3227
2916 3227
2916 3228
2917 3229
2917 3234
2917 3235
2917 3243
2918 3229
2918 3230
2919 3230
2919 3231
2920 3231
2920 3232
2921 3232
2921 3233
2922 3233
2922 3234
2923 3236
2923 3242
2923 3243
2923 3252
2924 3236
2924 3237
2925 3237
2925 3238
2926 3238
2926 3239
2927 3239
2927 3240
2928 3240
2928 3241
2929 3241
2929 3242
2930 3244
2930 3251
2930 3252
2930 3262
2931 3244
2931 3245
2932 3245
2932 3246
2933 3246
2933 3247
2934 3247
2934 3248
2935 3248
2935 3249
2936 3249
2936 3250
2937 3250
2937 3251
2938 3253
2938 3261
2938 3262
2938 3273
2939 3253
2939 3254
2940 3254
2940 3255
2941 3255
2941 3256
2942 3256
2942 3257
2943 3257
2943 3258
2944 3258
2944 3259
2945 3259
2945 3260
2946 3260
2946 3261
2947 3263
2947 3272
2947 3273
2947 3285
2948 3263
2948 3264
2949 3264
2949 3265
2950 3265
2950 3266
2951 3266
2951 3267
2952 3267
2952 3268
2953 3268
2953 3269
2954 3269
2954 3270
2955 3270
2955 3271
2956 3271
2956 3272
2957 3274
2957 3284
2957 3285
2957 12451
2957 12452
2958 3274
2958 3275
2959 3275
2959 3276
2960 3276
2960 3277
2961 3277
2961 3278
2962 3278
2962 3279
2963 3279
2963 3280
2964 3280
2964 3281
2965 3281
2965 3282
2966 3282
2966 3283
2967 3283
2967 3284
2968 3286
2968 3290
2968 3297
2969 3286
2969 3287
2970 3287
2970 3288
2971 3288
2971 3289
2972 3289
2972 3290
2973 3291
2973 3296
2973 3297
2973 3305
2974 3291
2974 3292
2975 3292
2975 3293
2976 3293
2976 3294
2977 3294
2977 3295
2978 3295
2978 3296
2979 3298
2979 3304
2979 3305
2979 3314
2980 3298
2980 3299
2981 3299
2981 3300
2982 3300
2982 3301
2983 3301
2983 3302
2984 3302
2984 3303
2985 3303
2985 3304
2986 3306
2986 3313
2986 3314
2986 3324
2987 3306
2987 3307
2988 3307
2988 3308
2989 3308
2989 3309
2990 3309
2990 3310
2991 3310
2991 3311
2992 3311
2992 3312
2993 3312
2993 3313
2994 3315
2994 3323
2994 3324
2994 3335
2995 3315
2995 3316
2996 3316
2996 3317
2997 3317
2997 3318
2998 3318
2998 3319
2999 3319
2999 3320
3000 3320
3000 3321
3001 3321
3001 3322
3002 3322
3002 3323
3003 3325
3003 3334
3003 3335
3003 3347
3004 3325
3004 3326
3005 3326
3005 3327
3006 3327
3006 3328
3007 3328
3007 3329
3008 3329
3008 3330
3009 3330
3009 3331
3010 3331
3010 3332
3011 3332
3011 3333
3012 3333
3012 3334
3013 3336
3013 3346
3013 3347
3013 12452
3013 12453
3014 3336
3014 3337
3015 3337
3015 3338
3016 3338
3016 3339
3017 3339
3017 3340
3018 3340
3018 3341
3019 3341
3019 3342
3020 3342
3020 3343
3021 3343
3021 3344
3022 3344
3022 3345
3023 3345
3023 3346
3024 3348
3024 3352
3024 3359
3025 3348
3025 3349
3026 3349
3026 3350
3027 3350
3027 3351
3028 3351
3028 3352
3029 3353
3029 3358
3029 3359
3029 3367
3030 3353
3030 3354
3031 3354
3031 3355
3032 3355
3032 3356
3033 3356
3033 3357
3034 3357
3034 3358
3035 3360
3035 3366
3035 3367
3035 3376
3036 3360
3036 3361
3037 3361
3037 3362
3038 3362
3038 3363
3039 3363
3039 3364
3040 3364
3040 3365
3041 3365
3041 3366
3042 3368
3042 3375
3042 3376
3042 3386
3043 3368
3043 3369
3044 3369
3044 3370
3045 3370
3045 3371
3046 3371
3046 3372
3047 3372
3047 3373
3048 3373
3048 3374
3049 3374
3049 3375
3050 3377
3050 3385
3050 3386
3050 3397
3051 3377
3051 3378
3052 3378
3052 3379
3053 3379
3053 3380
3054 3380
3054 3381
3055 3381
3055 3382
3056 3382
3056 3383
3057 3383
3057 3384
3058 3384
3058 3385
3059 3387
3059 3396
3059 3397
3059 3409
3060 3387
3060 3388
3061 3388
3061 3389
3062 3389
3062 3390
3063 3390
3063 3391
3064 3391
3064 3392
3065 3392
3065 3393
3066 3393
3066 3394
3067 3394
3067 3395
3068 3395
3068 3396
3069 3398
3069 3408
3069 3409
3069 12453
3069 12454
3070 3398
3070 3399
3071 3399
3071 3400
3072 3400
3072 3401
3073 3401
3073 3402
3074 3402
3074 3403
3075 3403
3075 3404
3076 3404
3076 3405
3077 3405
3077 3406
3078 3406
3078 3407
3079 3407
3079 3408
3080 3410
3080 3414
3080 3421
3081 3410
3081 3411
3082 3411
3082 3412
3083 3412
3083 3413
3084 3413
3084 3414
3085 3415
3085 3420
3085 3421
3085 3429
3086 3415
3086 3416
3087 3416
3087 3417
3088 3417
3088 3418
3089 3418
3089 3419
3090 3419
3090 3420
3091 3422
3091 3428
3091 3429
3091 3438
3092 3422
3092 3423
3093 3423
3093 3424
3094 3424
3094 3425
3095 3425
3095 3426
3096 3426
3096 3427
3097 3427
3097 3428
3098 3430
3098 3437
3098 3438
3098 3448
3099 3430
3099 3431
3100 3431
3100 3432
3101 3432
3101 3433
3102 3433
3102 3434
3103 3434
3103 3435
3104 3435
3104 3436
3105 3436
3105 3437
3106 3439
3106 3447
3106 3448
3106 3459
3107 3439
3107 3440
3108 3440
3108 3441
3109 3441
3109 3442
3110 3442
3110 3443
3111 3443
3111 3444
3112 3444
3112 3445
3113 3445
3113 3446
3114 3446
3114 3447
3115 3449
3115 3458
3115 3459
3115 3471
3116 3449
3116 3450
3117 3450
3117 3451
3118 3451
3118 3452
3119 3452
3119 3453
3120 3453
3120 3454
3121 3454
3121 3455
3122 3455
3122 3456
3123 3456
3123 3457
3124 3457
3124 3458
3125 3460
3125 3470
3125 3471
3125 12454
3125 12455
3126 3460
3126 3461
3127 3461
3127 3462
3128 3462
3128 3463
3129 3463
3129 3464
3130 3464
3130 3465
3131 3465
3131 3466
3132 3466
3132 3467
3133 3467
3133 3468
3134 3468
3134 3469
3135 3469
3135 3470
3136 3472
3136 3476
3136 3483
3137 3472
3137 3473
3138 3473
3138 3474
3139 3474
3139 3475
3140 3475
3140 3476
3141 3477
3141 3482
3141 3483
3141 3491
3142 3477
3142 3478
3143 3478
3143 3479
3144 3479
3144 3480
3145 3480
3145 3481
3146 3481
3146 3482
3147 3484
3147 3490
3147 3491
3147 3500
3148 3484
3148 3485
3149 3485
3149 3486
3150 3486
3150 3487
3151 3487
3151 3488
3152 3488
3152 3489
3153 3489
3153 3490
3154 3492
3154 3499
3154 3500
3154 3510
3155 3492
3155 3493
3156 3493
3156 3494
3157 3494
3157 3495
3158 3495
3158 3496
3159 3496
3159 3497
3160 3497
3160 3498
3161 3498
3161 3499
3162 3501
3162 3509
3162 3510
3162 3521
3163 3501
3163 3502
3164 3502
3164 3503
3165 3503
3165 3504
3166 3504
3166 3505
3167 3505
3167 3506
3168 3506
3168 3507
3169 3507
3169 3508
3170 3508
3170 3509
3171 3511
3171 3520
3171 3521
3171 3533
3172 3511
3172 3512
3173 3512
3173 3513
3174 3513
3174 3514
3175 3514
3175 3515
3176 3515
3176 3516
3177 3516
3177 3517
3178 3517
3178 3518
3179 3518
3179 3519
3180 3519
3180 3520
3181 3522
3181 3532
3181 3533
3181 12455
3181 12456
3182 3522
3182 3523
3183 3523
3183 3524
3184 3524
3184 3525
3185 3525
3185 3526
3186 3526
3186 3527
3187 3527
3187 3528
3188 3528
3188 3529
3189 3529
3189 3530
3190 3530
3190 3531
3191 3531
3191 3532
3192 3534
3192 3538
3192 3545
3193 3534
3193 3535
3194 3535
3194 3536
3195 3536
3195 3537
3196 3537
3196 3538
3197 3539
3197 3544
3197 3545
3197 3553
3198 3539
3198 3540
3199 3540
3199 3541
3200 3541
3200 3542
3201 3542
3201 3543
3202 3543
3202 3544
3203 3546
3203 3552
3203 3553
3203 3562
3204 3546
3204 3547
3205 3547
3205 3548
3206 3548
3206 3549
3207 3549
3207 3550
3208 3550
3208 3551
3209 3551
3209 3552
3210 3554
3210 3561
3210 3562
3210 3572
3211 3554
3211 3555
3212 3555
3212 3556
3213 3556
3213 3557
3214 3557
3214 3558
3215 3558
3215 3559
3216 3559
3216 3560
3217 3560
3217 3561
3218 3563
3218 3571
3218 3572
3218 3583
3219 3563
3219 3564
3220 3564
3220 3565
3221 3565
3221 3566
3222 3566
3222 3567
3223 3567
3223 3568
3224 3568
3224 3569
3225 3569
3225 3570
3226 3570
3226 3571
3227 3573
3227 3582
3227 3583
3227 3595
3228 3573
3228 3574
3229 3574
3229 3575
3230 3575
3230 3576
3231 3576
3231 3577
3232 3577
3232 3578
3233 3578
3233 3579
3234 3579
3234 3580
3235 3580
3235 3581
3236 3581
3236 3582
3237 3584
3237 3594
3237 3595
3237 12456
3237 12457
3238 3584
3238 3585
3239 3585
3239 3586
3240 3586
3240 3587
3241 3587
3241 3588
3242 3588
3242 3589
3243 3589
3243 3590
3244 3590
3244 3591
3245 3591
3245 3592
3246 3592
3246 3593
3247 3593
3247 3594
3248 3596
3248 3600
3248 3607
3249 3596
3249 3597
3250 3597
3250 3598
3251 3598
3251 3599
3252 3599
3252 3600
3253 3601
3253 3606
3253 3607
3253 3615
3254 3601
3254 3602
3255 3602
3255 3603
3256 3603
3256 3604
3257 3604
3257 3605
3258 3605
3258 3606
3259 3608
3259 3614
3259 3615
3259 3624
3260 3608
3260 3609
3261 3609
3261 3610
3262 3610
3262 3611
3263 3611
3263 3612
3264 3612
3264 3613
3265 3613
3265 3614
3266 3616
3266 3623
3266 3624
3266 3634
3267 3616
3267 3617
3268 3617
3268 3618
3269 3618
3269 3619
3270 3619
3270 3620
3271 3620
3271 3621
3272 3621
3272 3622
3273 3622
3273 3623
3274 3625
3274 3633
3274 3634
3274 3645
3275 3625
3275 3626
3276 3626
3276 3627
3277 3627
3277 3628
3278 3628
3278 3629
3279 3629
3279 3630
3280 3630
3280 3631
3281 3631
3281 3632
3282 3632
3282 3633
3283 3635
3283 3644
3283 3645
3283 3657
3284 3635
3284 3636
3285 3636
3285 3637
3286 3637
3286 3638
3287 3638
3287 3639
3288 3639
3288 3640
3289 3640
3289 3641
3290 3641
3290 3642
3291 3642
3291 3643
3292 3643
3292 3644
3293 3646
3293 3656
3293 3657
3293 12457
3293 12458
3294 3646
3294 3647
3295 3647
3295 3648
3296 3648
3296 3649
3297 3649
3297 3650
3298 3650
3298 3651
3299 3651
3299 3652
3300 3652
3300 3653
3301 3653
3301 3654
3302 3654
3302 3655
3303 3655
3303 3656
3304 3658
3304 3662
3304 3669
3305 3658
3305 3659
3306 3659
3306 3660
3307 3660
3307 3661
3308 3661
3308 3662
3309 3663
3309 3668
3309 3669
3309 3677
3310 3663
3310 3664
3311 3664
3311 3665
3312 3665
3312 3666
3313 3666
3313 3667
3314 3667
3314 3668
3315 3670
3315 3676
3315 3677
3315 3686
3316 3670
3316 3671
3317 3671
3317 3672
3318 3672
3318 3673
3319 3673
3319 3674
3320 3674
3320 3675
3321 3675
3321 3676
3322 3678
3322 3685
3322 3686
3322 3696
3323 3678
3323 3679
3324 3679
3324 3680
3325 3680
3325 3681
3326 3681
3326 3682
3327 3682
3327 3683
3328 3683
3328 3684
3329 3684
3329 3685
3330 3687
3330 3695
3330 3696
3330 3707
3331 3687
3331 3688
3332 3688
3332 3689
3333 3689
3333 3690
3334 3690
3334 3691
3335 3691
3335 3692
3336 3692
3336 3693
3337 3693
3337 3694
3338 3694
3338 3695
3339 3697
3339 3706
3339 3707
3339 3719
3340 3697
3340 3698
3341 3698
3341 3699
3342 3699
3342 3700
3343 3700
3343 3701
3344 3701
3344 3702
3345 3702
3345 3703
3346 3703
3346 3704
3347 3704
3347 3705
3348 3705
3348 3706
3349 3708
3349 3718
3349 3719
3349 12458
3349 12459
3350 3708
3350 3709
3351 3709
3351 3710
3352 3710
3352 3711
3353 3711
3353 3712
3354 3712
3354 3713
3355 3713
3355 3714
3356 3714
3356 3715
3357 3715
3357 3716
3358 3716
3358 3717
3359 3717
3359 3718
3360 3720
3360 3724
3360 3731
3361 3720
3361 3721
3362 3721
3362 3722
3363 3722
3363 3723
3364 3723
3364 3724
3365 3725
3365 3730
3365 3731
3365 3739
3366 3725
3366 3726
3367 3726
3367 3727
3368 3727
3368 3728
3369 3728
3369 3729
3370 3729
3370 3730
3371 3732
3371 3738
3371 3739
3371 3748
3372 3732
3372 3733
3373 3733
3373 3734
3374 3734
3374 3735
3375 3735
3375 3736
3376 3736
3376 3737
3377 3737
3377 3738
3378 3740
3378 3747
3378 3748
3378 3758
3379 3740
3379 3741
3380 3741
3380 3742
3381 3742
3381 3743
3382 3743
3382 3744
3383 3744
3383 3745
3384 3745
3384 3746
3385 3746
3385 3747
3386 3749
3386 3757
3386 3758
3386 3769
3387 3749
3387 3750
3388 3750
3388 3751
3389 3751
3389 3752
3390 3752
3390 3753
3391 3753
3391 3754
3392 3754
3392 3755
3393 3755
3393 3756
3394 3756
3394 3757
3395 3759
3395 3768
3395 3769
3395 3781
3396 3759
3396 3760
3397 3760
3397 3761
3398 3761
3398 3762
3399 3762
3399 3763
3400 3763
3400 3764
3401 3764
3401 3765
3402 3765
3402 3766
3403 3766
3403 3767
3404 3767
3404 3768
3405 3770
3405 3780
3405 3781
3405 12459
3405 12460
3406 3770
3406 3771
3407 3771
3407 3772
3408 3772
3408 3773
3409 3773
3409 3774
3410 3774
3410 3775
3411 3775
3411 3776
3412 3776
3412 3777
3413 3777
3413 3778
3414 3778
3414 3779
3415 3779
3415 3780
3416 3782
3416 3786
3416 3793
3417 3782
3417 3783
3418 3783
3418 3784
3419 3784
3419 3785
3420 3785
3420 3786
3421 3787
3421 3792
3421 3793
3421 3801
3422 3787
3422 3788
3423 3788
3423 3789
3424 3789
3424 3790
3425 3790
3425 3791
3426 3791
3426 3792
3427 3794
3427 3800
3427 3801
3427 3810
3428 3794
3428 3795
3429 3795
3429 3796
3430 3796
3430 3797
3431 3797
3431 3798
3432 3798
3432 3799
3433 3799
3433 3800
3434 3802
3434 3809
3434 3810
3434 3820
3435 3802
3435 3803
3436 3803
3436 3804
3437 3804
3437 3805
3438 3805
3438 3806
3439 3806
3439 3807
3440 3807
3440 3808
3441 3808
3441 3809
3442 3811
3442 3819
3442 3820
3442 3831
3443 3811
3443 3812
3444 3812
3444 3813
3445 3813
3445 3814
3446 3814
3446 3815
3447 3815
3447 3816
3448 3816
3448 3817
3449 3817
3449 3818
3450 3818
3450 3819
3451 3821
3451 3830
3451 3831
3451 3843
3452 3821
3452 3822
3453 3822
3453 3823
3454 3823
3454 3824
3455 3824
3455 3825
3456 3825
3456 3826
3457 3826
3457 3827
3458 3827
3458 3828
3459 3828
3459 3829
3460 3829
3460 3830
3461 3832
3461 3842
3461 3843
3461 12460
3461 12461
3462 3832
3462 3833
3463 3833
3463 3834
3464 3834
3464 3835
3465 3835
3465 3836
3466 3836
3466 3837
3467 3837
3467 3838
3468 3838
3468 3839
3469 3839
3469 3840
3470 3840
3470 3841
3471 3841
3471 3842
3472 3844
3472 3848
3472 3855
3473 3844
3473 3845
3474 3845
3474 3846
3475 3846
3475 3847
3476 3847
3476 3848
3477 3849
3477 3854
3477 3855
3477 3863
3478 3849
3478 3850
3479 3850
3479 3851
3480 3851
3480 3852
3481 3852
3481 3853
3482 3853
3482 3854
3483 3856
3483 3862
3483 3863
3483 3872
3484 3856
3484 3857
3485 3857
3485 3858
3486 3858
3486 3859
3487 3859
3487 3860
3488 3860
3488 3861
3489 3861
3489 3862
3490 3864
3490 3871
3490 3872
3490 3882
3491 3864
3491 3865
3492 3865
3492 3866
3493 3866
3493 3867
3494 3867
3494 3868
3495 3868
3495 3869
3496 3869
3496 3870
3497 3870
3497 3871
3498 3873
3498 3881
3498 3882
3498 3893
3499 3873
3499 3874
3500 3874
3500 3875
3501 3875
3501 3876
3502 3876
3502 3877
3503 3877
3503 3878
3504 3878
3504 3879
3505 3879
3505 3880
3506 3880
3506 3881
3507 3883
3507 3892
3507 3893
3507 3905
3508 3883
3508 3884
3509 3884
3509 3885
3510 3885
3510 3886
3511 3886
3511 3887
3512 3887
3512 3888
3513 3888
3513 3889
3514 3889
3514 3890
3515 3890
3515 3891
3516 3891
3516 3892
3517 3894
3517 3904
3517 3905
3517 12461
3517 12462
3518 3894
3518 3895
3519 3895
3519 3896
3520 3896
3520 3897
3521 3897
3521 3898
3522 3898
3522 3899
3523 3899
3523 3900
3524 3900
3524 3901
3525 3901
3525 3902
3526 3902
3526 3903
3527 3903
3527 3904
3528 3906
3528 3910
3528 3917
3529 3906
3529 3907
3530 3907
3530 3908
3531 3908
3531 3909
3532 3909
3532 3910
3533 3911
3533 3916
3533 3917
3533 3925
3534 3911
3534 3912
3535 3912
3535 3913
3536 3913
3536 3914
3537 3914
3537 3915
3538 3915
3538 3916
3539 3918
3539 3924
3539 3925
3539 3934
3540 3918
3540 3919
3541 3919
3541 3920
3542 3920
3542 3921
3543 3921
3543 3922
3544 3922
3544 3923
3545 3923
3545 3924
3546 3926
3546 3933
3546 3934
3546 3944
3547 3926
3547 3927
3548 3927
3548 3928
3549 3928
3549 3929
3550 3929
3550 3930
3551 3930
3551 3931
3552 3931
3552 3932
3553 3932
3553 3933
3554 3935
3554 3943
3554 3944
3554 3955
3555 3935
3555 3936
3556 3936
3556 3937
3557 3937
3557 3938
3558 3938
3558 3939
3559 3939
3559 3940
3560 3940
3560 3941
3561 3941
3561 3942
3562 3942
3562 3943
3563 3945
3563 3954
3563 3955
3563 3967
3564 3945
3564 3946
3565 3946
3565 3947
3566 3947
3566 3948
3567 3948
3567 3949
3568 3949
3568 3950
3569 3950
3569 3951
3570 3951
3570 3952
3571 3952
3571 3953
3572 3953
3572 3954
3573 3956
3573 3966
3573 3967
3573 12462
3573 12463
3574 3956
3574 3957
3575 3957
3575 3958
3576 3958
3576 3959
3577 3959
3577 3960
3578 3960
3578 3961
3579 3961
3579 3962
3580 3962
3580 3963
3581 3963
3581 3964
3582 3964
3582 3965
3583 3965
3583 3966
3584 3968
3584 3972
3584 3979
3585 3968
3585 3969
3586 3969
3586 3970
3587 3970
3587 3971
3588 3971
3588 3972
3589 3973
3589 3978
3589 3979
3589 3987
3590 3973
3590 3974
3591 3974
3591 3975
3592 3975
3592 3976
3593 3976
3593 3977
3594 3977
3594 3978
3595 3980
3595 3986
3595 3987
3595 3996
3596 3980
3596 3981
3597 3981
3597 3982
3598 3982
3598 3983
3599 3983
3599 3984
3600 3984
3600 3985
3601 3985
3601 3986
3602 3988
3602 3995
3602 3996
3602 4006
3603 3988
3603 3989
3604 3989
3604 3990
3605 3990
3605 3991
3606 3991
3606 3992
3607 3992
3607 3993
3608 3993
3608 3994
3609 3994
3609 3995
3610 3997
3610 4005
3610 4006
3610 4017
3611 3997
3611 3998
3612 3998
3612 3999
3613 3999
3613 4000
3614 4000
3614 4001
3615 4001
3615 4002
3616 4002
3616 4003
3617 4003
3617 4004
3618 4004
3618 4005
3619 4007
3619 4016
3619 4017
3619 4029
3620 4007
3620 4008
3621 4008
3621 4009
3622 4009
3622 4010
3623 4010
3623 4011
3624 4011
3624 4012
3625 4012
3625 4013
3626 4013
3626 4014
3627 4014
3627 4015
3628 4015
3628 4016
3629 4018
3629 4028
3629 4029
3629 12463
3629 12464
3630 4018
3630 4019
3631 4019
3631 4020
3632 4020
3632 4021
3633 4021
3633 4022
3634 4022
3634 4023
3635 4023
3635 4024
3636 4024
3636 4025
3637 4025
3637 4026
3638 4026
3638 4027
3639 4027
3639 4028
3640 4030
3640 4034
3640 4041
3641 4030
3641 4031
3642 4031
3642 4032
3643 4032
3643 4033
3644 4033
3644 4034
3645 4035
3645 4040
3645 4041
3645 4049
3646 4035
3646 4036
3647 4036
3647 4037
3648 4037
3648 4038
3649 4038
3649 4039
3650 4039
3650 4040
3651 4042
3651 4048
3651 4049
3651 4058
3652 4042
3652 4043
3653 4043
3653 4044
3654 4044
3654 4045
3655 4045
3655 4046
3656 4046
3656 4047
3657 4047
3657 4048
3658 4050
3658 4057
3658 4058
3658 4068
3659 4050
3659 4051
3660 4051
3660 4052
3661 4052
3661 4053
3662 4053
3662 4054
3663 4054
3663 4055
3664 4055
3664 4056
3665 4056
3665 4057
3666 4059
3666 4067
3666 4068
3666 4079
3667 4059
3667 4060
3668 4060
3668 4061
3669 4061
3669 4062
3670 4062
3670 4063
3671 4063
3671 4064
3672 4064
3672 4065
3673 4065
3673 4066
3674 4066
3674 4067
3675 4069
3675 4078
3675 4079
3675 4091
3676 4069
3676 4070
3677 4070
3677 4071
3678 4071
3678 4072
3679 4072
3679 4073
3680 4073
3680 4074
3681 4074
3681 4075
3682 4075
3682 4076
3683 4076
3683 4077
3684 4077
3684 4078
3685 4080
3685 4090
3685 4091
3685 12464
3685 12465
3686 4080
3686 4081
3687 4081
3687 4082
3688 4082
3688 4083
3689 4083
3689 4084
3690 4084
3690 4085
3691 4085
3691 4086
3692 4086
3692 4087
3693 4087
3693 4088
3694 4088
3694 4089
3695 4089
3695 4090
3696 4092
3696 4096
3696 4103
3697 4092
3697 4093
3698 4093
3698 4094
3699 4094
3699 4095
3700 4095
3700 4096
3701 4097
3701 4102
3701 4103
3701 4111
3702 4097
3702 4098
3703 4098
3703 4099
3704 4099
3704 4100
3705 4100
3705 4101
3706 4101
3706 4102
3707 4104
3707 4110
3707 4111
3707 4120
3708 4104
3708 4105
3709 4105
3709 4106
3710 4106
3710 4107
3711 4107
3711 4108
3712 4108
3712 4109
3713 4109
3713 4110
3714 4112
3714 4119
3714 4120
3714 4130
3715 4112
3715 4113
3716 4113
3716 4114
3717 4114
3717 4115
3718 4115
3718 4116
3719 4116
3719 4117
3720 4117
3720 4118
3721 4118
3721 4119
3722 4121
3722 4129
3722 4130
3722 4141
3723 4121
3723 4122
3724 4122
3724 4123
3725 4123
3725 4124
3726 4124
3726 4125
3727 4125
3727 4126
3728 4126
3728 4127
3729 4127
3729 4128
3730 4128
3730 4129
3731 4131
3731 4140
3731 4141
3731 4153
3732 4131
3732 4132
3733 4132
3733 4133
3734 4133
3734 4134
3735 4134
3735 4135
3736 4135
3736 4136
3737 4136
3737 4137
3738 4137
3738 4138
3739 4138
3739 4139
3740 4139
3740 4140
3741 4142
3741 4152
3741 4153
3741 12465
3741 12466
3742 4142
3742 4143
3743 4143
3743 4144
3744 4144
3744 4145
3745 4145
3745 4146
3746 4146
3746 4147
3747 4147
3747 4148
3748 4148
3748 4149
3749 4149
3749 4150
3750 4150
3750 4151
3751 4151
3751 4152
3752 4154
3752 4158
3752 4165
3753 4154
3753 4155
3754 4155
3754 4156
3755 4156
3755 4157
3756 4157
3756 4158
3757 4159
3757 4164
3757 4165
3757 4173
3758 4159
3758 4160
3759 4160
3759 4161
3760 4161
3760 4162
3761 4162
3761 4163
3762 4163
3762 4164
3763 4166
3763 4172
3763 4173
3763 4182
3764 4166
3764 4167
3765 4167
3765 4168
3766 4168
3766 4169
3767 4169
3767 4170
3768 4170
3768 4171
3769 4171
3769 4172
3770 4174
3770 4181
3770 4182
3770 4192
3771 4174
3771 4175
3772 4175
3772 4176
3773 4176
3773 4177
3774 4177
3774 4178
3775 4178
3775 4179
3776 4179
3776 4180
3777 4180
3777 4181
3778 4183
3778 4191
3778 4192
3778 4203
3779 4183
3779 4184
3780 4184
3780 4185
3781 4185
3781 4186
3782 4186
3782 4187
3783 4187
3783 4188
3784 4188
3784 4189
3785 4189
3785 4190
3786 4190
3786 4191
3787 4193
3787 4202
3787 4203
3787 4215
3788 4193
3788 4194
3789 4194
3789 4195
3790 4195
3790 4196
3791 4196
3791 4197
3792 4197
3792 4198
3793 4198
3793 4199
3794 4199
3794 4200
3795 4200
3795 4201
3796 4201
3796 4202
3797 4204
3797 4214
3797 4215
3797 12466
3797 12467
3798 4204
3798 4205
3799 4205
3799 4206
3800 4206
3800 4207
3801 4207
3801 4208
3802 4208
3802 4209
3803 4209
3803 4210
3804 4210
3804 4211
3805 4211
3805 4212
3806 4212
3806 4213
3807 4213
3807 4214
3808 4216
3808 4220
3808 4227
3809 4216
3809 4217
3810 4217
3810 4218
3811 4218
3811 4219
3812 4219
3812 4220
3813 4221
3813 4226
3813 4227
3813 4235
3814 4221
3814 4222
3815 4222
3815 4223
3816 4223
3816 4224
3817 4224
3817 4225
3818 4225
3818 4226
3819 4228
3819 4234
3819 4235
3819 4244
3820 4228
3820 4229
3821 4229
3821 4230
3822 4230
3822 4231
3823 4231
3823 4232
3824 4232
3824 4233
3825 4233
3825 4234
3826 4236
3826 4243
3826 4244
3826 4254
3827 4236
3827 4237
3828 4237
3828 4238
3829 4238
3829 4239
3830 4239
3830 4240
3831 4240
3831 4241
3832 4241
3832 4242
3833 4242
3833 4243
3834 4245
3834 4253
3834 4254
3834 4265
3835 4245
3835 4246
3836 4246
3836 4247
3837 4247
3837 4248
3838 4248
3838 4249
3839 4249
3839 4250
3840 4250
3840 4251
3841 4251
3841 4252
3842 4252
3842 4253
3843 4255
3843 4264
3843 4265
3843 4277
3844 4255
3844 4256
3845 4256
3845 4257
3846 4257
3846 4258
3847 4258
3847 4259
3848 4259
3848 4260
3849 4260
3849 4261
3850 4261
3850 4262
3851 4262
3851 4263
3852 4263
3852 4264
3853 4266
3853 4276
3853 4277
3853 12467
3853 12468
3854 4266
3854 4267
3855 4267
3855 4268
3856 4268
3856 4269
3857 4269
3857 4270
3858 4270
3858 4271
3859 4271
3859 4272
3860 4272
3860 4273
3861 4273
3861 4274
3862 4274
3862 4275
3863 4275
3863 4276
3864 4278
3864 4282
3864 4289
3865 4278
3865 4279
3866 4279
3866 4280
3867 4280
3867 4281
3868 4281
3868 4282
3869 4283
3869 4288
3869 4289
3869 4297
3870 4283
3870 4284
3871 4284
3871 4285
3872 4285
3872 4286
3873 4286
3873 4287
3874 4287
3874 4288
3875 4290
3875 4296
3875 4297
3875 4306
3876 4290
3876 4291
3877 4291
3877 4292
3878 4292
3878 4293
3879 4293
3879 4294
3880 4294
3880 4295
3881 4295
3881 4296
3882 4298
3882 4305
3882 4306
3882 4316
3883 4298
3883 4299
3884 4299
3884 4300
3885 4300
3885 4301
3886 4301
3886 4302
3887 4302
3887 4303
3888 4303
3888 4304
3889 4304
3889 4305
3890 4307
3890 4315
3890 4316
3890 4327
3891 4307
3891 4308
3892 4308
3892 4309
3893 4309
3893 4310
3894 4310
3894 4311
3895 4311
3895 4312
3896 4312
3896 4313
3897 4313
3897 4314
3898 4314
3898 4315
3899 4317
3899 4326
3899 4327
3899 4339
3900 4317
3900 4318
3901 4318
3901 4319
3902 4319
3902 4320
3903 4320
3903 4321
3904 4321
3904 4322
3905 4322
3905 4323
3906 4323
3906 4324
3907 4324
3907 4325
3908 4325
3908 4326
3909 4328
3909 4338
3909 4339
3909 12468
3909 12469
3910 4328
3910 4329
3911 4329
3911 4330
3912 4330
3912 4331
3913 4331
3913 4332
3914 4332
3914 4333
3915 4333
3915 4334
3916 4334
3916 4335
3917 4335
3917 4336
3918 4336
3918 4337
3919 4337
3919 4338
3920 4340
3920 4344
3920 4351
3921 4340
3921 4341
3922 4341
3922 4342
3923 4342
3923 4343
3924 4343
3924 4344
3925 4345
3925 4350
3925 4351
3925 4359
3926 4345
3926 4346
3927 4346
3927 4347
3928 4347
3928 4348
3929 4348
3929 4349
3930 4349
3930 4350
3931 4352
3931 4358
3931 4359
3931 4368
3932 4352
3932 4353
3933 4353
3933 4354
3934 4354
3934 4355
3935 4355
3935 4356
3936 4356
3936 4357
3937 4357
3937 4358
3938 4360
3938 4367
3938 4368
3938 4378
3939 4360
3939 4361
3940 4361
3940 4362
3941 4362
3941 4363
3942 4363
3942 4364
3943 4364
3943 4365
3944 4365
3944 4366
3945 4366
3945 4367
3946 4369
3946 4377
3946 4378
3946 4389
3947 4369
3947 4370
3948 4370
3948 4371
3949 4371
3949 4372
3950 4372
3950 4373
3951 4373
3951 4374
3952 4374
3952 4375
3953 4375
3953 4376
3954 4376
3954 4377
3955 4379
3955 4388
3955 4389
3955 4401
3956 4379
3956 4380
3957 4380
3957 4381
3958 4381
3958 4382
3959 4382
3959 4383
3960 4383
3960 4384
3961 4384
3961 4385
3962 4385
3962 4386
3963 4386
3963 4387
3964 4387
3964 4388
3965 4390
3965 4400
3965 4401
3965 12469
3965 12470
3966 4390
3966 4391
3967 4391
3967 4392
3968 4392
3968 4393
3969 4393
3969 4394
3970 4394
3970 4395
3971 4395
3971 4396
3972 4396
3972 4397
3973 4397
3973 4398
3974 4398
3974 4399
3975 4399
3975 4400
3976 4402
3976 4406
3976 4413
3977 4402
3977 4403
3978 4403
3978 4404
3979 4404
3979 4405
3980 4405
3980 4406
3981 4407
3981 4412
3981 4413
3981 4421
3982 4407
3982 4408
3983 4408
3983 4409
3984 4409
3984 4410
3985 4410
3985 4411
3986 4411
3986 4412
3987 4414
3987 4420
3987 4421
3987 4430
3988 4414
3988 4415
3989 4415
3989 4416
3990 4416
3990 4417
3991 4417
3991 4418
3992 4418
3992 4419
3993 4419
3993 4420
3994 4422
3994 4429
3994 4430
3994 4440
3995 4422
3995 4423
3996 4423
3996 4424
3997 4424
3997 4425
3998 4425
3998 4426
3999 4426
3999 4427
4000 4427
4000 4428
4001 4428
4001 4429
4002 4431
4002 4439
4002 4440
4002 4451
4003 4431
4003 4432
4004 4432
4004 4433
4005 4433
4005 4434
4006 4434
4006 4435
4007 4435
4007 4436
4008 4436
4008 4437
4009 4437
4009 4438
4010 4438
4010 4439
4011 4441
4011 4450
4011 4451
4011 4463
4012 4441
4012 4442
4013 4442
4013 4443
4014 4443
4014 4444
4015 4444
4015 4445
4016 4445
4016 4446
4017 4446
4017 4447
4018 4447
4018 4448
4019 4448
4019 4449
4020 4449
4020 4450
4021 4452
4021 4462
4021 4463
4021 12470
4021 12471
4022 4452
4022 4453
4023 4453
4023 4454
4024 4454
4024 4455
4025 4455
4025 4456
4026 4456
4026 4457
4027 4457
4027 4458
4028 4458
4028 4459
4029 4459
4029 4460
4030 4460
4030 4461
4031 4461
4031 4462
4032 4464
4032 4468
4032 4475
4033 4464
4033 4465
4034 4465
4034 4466
4035 4466
4035 4467
4036 4467
4036 4468
4037 4469
4037 4474
4037 4475
4037 4483
4038 4469
4038 4470
4039 4470
4039 4471
4040 4471
4040 4472
4041 4472
4041 4473
4042 4473
4042 4474
4043 4476
4043 4482
4043 4483
4043 4492
4044 4476
4044 4477
4045 4477
4045 4478
4046 4478
4046 4479
4047 4479
4047 4480
4048 4480
4048 4481
4049 4481
4049 4482
4050 4484
4050 4491
4050 4492
4050 4502
4051 4484
4051 4485
4052 4485
4052 4486
4053 4486
4053 4487
4054 4487
4054 4488
4055 4488
4055 4489
4056 4489
4056 4490
4057 4490
4057 4491
4058 4493
4058 4501
4058 4502
4058 4513
4059 4493
4059 4494
4060 4494
4060 4495
4061 4495
4061 4496
4062 4496
4062 4497
4063 4497
4063 4498
4064 4498
4064 4499
4065 4499
4065 4500
4066 4500
4066 4501
4067 4503
4067 4512
4067 4513
4067 4525
4068 4503
4068 4504
4069 4504
4069 4505
4070 4505
4070 4506
4071 4506
4071 4507
4072 4507
4072 4508
4073 4508
4073 4509
4074 4509
4074 4510
4075 4510
4075 4511
4076 4511
4076 4512
4077 4514
4077 4524
4077 4525
4077 12471
4077 12472
4078 4514
4078 4515
4079 4515
4079 4516
4080 4516
4080 4517
4081 4517
4081 4518
4082 4518
4082 4519
4083 4519
4083 4520
4084 4520
4084 4521
4085 4521
4085 4522
4086 4522
4086 4523
4087 4523
4087 4524
4088 4526
4088 4530
4088 4537
4089 4526
4089 4527
4090 4527
4090 4528
4091 4528
4091 4529
4092 4529
4092 4530
4093 4531
4093 4536
4093 4537
4093 4545
4094 4531
4094 4532
4095 4532
4095 4533
4096 4533
4096 4534
4097 4534
4097 4535
4098 4535
4098 4536
4099 4538
4099 4544
4099 4545
4099 4554
4100 4538
4100 4539
4101 4539
4101 4540
4102 4540
4102 4541
4103 4541
4103 4542
4104 4542
4104 4543
4105 4543
4105 4544
4106 4546
4106 4553
4106 4554
4106 4564
4107 4546
4107 4547
4108 4547
4108 4548
4109 4548
4109 4549
4110 4549
4110 4550
4111 4550
4111 4551
4112 4551
4112 4552
4113 4552
4113 4553
4114 4555
4114 4563
4114 4564
4114 4575
4115 4555
4115 4556
4116 4556
4116 4557
4117 4557
4117 4558
4118 4558
4118 4559
4119 4559
4119 4560
4120 4560
4120 4561
4121 4561
4121 4562
4122 4562
4122 4563
4123 4565
4123 4574
4123 4575
4123 4587
4124 4565
4124 4566
4125 4566
4125 4567
4126 4567
4126 4568
4127 4568
4127 4569
4128 4569
4128 4570
4129 4570
4129 4571
4130 4571
4130 4572
4131 4572
4131 4573
4132 4573
4132 4574
4133 4576
4133 4586
4133 4587
4133 12472
4133 12473
4134 4576
4134 4577
4135 4577
4135 4578
4136 4578
4136 4579
4137 4579
4137 4580
4138 4580
4138 4581
4139 4581
4139 4582
4140 4582
4140 4583
4141 4583
4141 4584
4142 4584
4142 4585
4143 4585
4143 4586
4144 4588
4144 4592
4144 4599
4145 4588
4145 4589
4146 4589
4146 4590
4147 4590
4147 4591
4148 4591
4148 4592
4149 4593
4149 4598
4149 4599
4149 4607
4150 4593
4150 4594
4151 4594
4151 4595
4152 4595
4152 4596
4153 4596
4153 4597
4154 4597
4154 4598
4155 4600
4155 4606
4155 4607
4155 4616
4156 4600
4156 4601
4157 4601
4157 4602
4158 4602
4158 4603
4159 4603
4159 4604
4160 4604
4160 4605
4161 4605
4161 4606
4162 4608
4162 4615
4162 4616
4162 4626
4163 4608
4163 4609
4164 4609
4164 4610
4165 4610
4165 4611
4166 4611
4166 4612
4167 4612
4167 4613
4168 4613
4168 4614
4169 4614
4169 4615
4170 4617
4170 4625
4170 4626
4170 4637
4171 4617
4171 4618
4172 4618
4172 4619
4173 4619
4173 4620
4174 4620
4174 4621
4175 4621
4175 4622
4176 4622
4176 4623
4177 4623
4177 4624
4178 4624
4178 4625
4179 4627
4179 4636
4179 4637
4179 4649
4180 4627
4180 4628
4181 4628
4181 4629
4182 4629
4182 4630
4183 4630
4183 4631
4184 4631
4184 4632
4185 4632
4185 4633
4186 4633
4186 4634
4187 4634
4187 4635
4188 4635
4188 4636
4189 4638
4189 4648
4189 4649
4189 12473
4189 12474
4190 4638
4190 4639
4191 4639
4191 4640
4192 4640
4192 4641
4193 4641
4193 4642
4194 4642
4194 4643
4195 4643
4195 4644
4196 4644
4196 4645
4197 4645
4197 4646
4198 4646
4198 4647
4199 4647
4199 4648
4200 4650
4200 4654
4200 4661
4201 4650
4201 4651
4202 4651
4202 4652
4203 4652
4203 4653
4204 4653
4204 4654
4205 4655
4205 4660
4205 4661
4205 4669
4206 4655
4206 4656
4207 4656
4207 4657
4208 4657
4208 4658
4209 4658
4209 4659
4210 4659
4210 4660
4211 4662
4211 4668
4211 4669
4211 4678
4212 4662
4212 4663
4213 4663
4213 4664
4214 4664
4214 4665
4215 4665
4215 4666
4216 4666
4216 4667
4217 4667
4217 4668
4218 4670
4218 4677
4218 4678
4218 4688
4219 4670
4219 4671
4220 4671
4220 4672
4221 4672
4221 4673
4222 4673
4222 4674
4223 4674
4223 4675
4224 4675
4224 4676
4225 4676
4225 4677
4226 4679
4226 4687
4226 4688
4226 4699
4227 4679
4227 4680
4228 4680
4228 4681
4229 4681
4229 4682
4230 4682
4230 4683
4231 4683
4231 4684
4232 4684
4232 4685
4233 4685
4233 4686
4234 4686
4234 4687
4235 4689
4235 4698
4235 4699
4235 4711
4236 4689
4236 4690
4237 4690
4237 4691
4238 4691
4238 4692
4239 4692
4239 4693
4240 4693
4240 4694
4241 4694
4241 4695
4242 4695
4242 4696
4243 4696
4243 4697
4244 4697
4244 4698
4245 4700
4245 4710
4245 4711
4245 12474
4245 12475
4246 4700
4246 4701
4247 4701
4247 4702
4248 4702
4248 4703
4249 4703
4249 4704
4250 4704
4250 4705
4251 4705
4251 4706
4252 4706
4252 4707
4253 4707
4253 4708
4254 4708
4254 4709
4255 4709
4255 4710
4256 4712
4256 4716
4256 4723
4257 4712
4257 4713
4258 4713
4258 4714
4259 4714
4259 4715
4260 4715
4260 4716
4261 4717
4261 4722
4261 4723
4261 4731
4262 4717
4262 4718
4263 4718
4263 4719
4264 4719
4264 4720
4265 4720
4265 4721
4266 4721
4266 4722
4267 4724
4267 4730
4267 4731
4267 4740
4268 4724
4268 4725
4269 4725
4269 4726
4270 4726
4270 4727
4271 4727
4271 4728
4272 4728
4272 4729
4273 4729
4273 4730
4274 4732
4274 4739
4274 4740
4274 4750
4275 4732
4275 4733
4276 4733
4276 4734
4277 4734
4277 4735
4278 4735
4278 4736
4279 4736
4279 4737
4280 4737
4280 4738
4281 4738
4281 4739
4282 4741
4282 4749
4282 4750
4282 4761
4283 4741
4283 4742
4284 4742
4284 4743
4285 4743
4285 4744
4286 4744
4286 4745
4287 4745
4287 4746
4288 4746
4288 4747
4289 4747
4289 4748
4290 4748
4290 4749
4291 4751
4291 4760
4291 4761
4291 4773
4292 4751
4292 4752
4293 4752
4293 4753
4294 4753
4294 4754
4295 4754
4295 4755
4296 4755
4296 4756
4297 4756
4297 4757
4298 4757
4298 4758
4299 4758
4299 4759
4300 4759
4300 4760
4301 4762
4301 4772
4301 4773
4301 12475
4301 12476
4302 4762
4302 4763
4303 4763
4303 4764
4304 4764
4304 4765
4305 4765
4305 4766
4306 4766
4306 4767
4307 4767
4307 4768
4308 4768
4308 4769
4309 4769
4309 4770
4310 4770
4310 4771
4311 4771
4311 4772
4312 4774
4312 4778
4312 4785
4313 4774
4313 4775
4314 4775
4314 4776
4315 4776
4315 4777
4316 4777
4316 4778
4317 4779
4317 4784
4317 4785
4317 4793
4318 4779
4318 4780
4319 4780
4319 4781
4320 4781
4320 4782
4321 4782
4321 4783
4322 4783
4322 4784
4323 4786
4323 4792
4323 4793
4323 4802
4324 4786
4324 4787
4325 4787
4325 4788
4326 4788
4326 4789
4327 4789
4327 4790
4328 4790
4328 4791
4329 4791
4329 4792
4330 4794
4330 4801
4330 4802
4330 4812
4331 4794
4331 4795
4332 4795
4332 4796
4333 4796
4333 4797
4334 4797
4334 4798
4335 4798
4335 4799
4336 4799
4336 4800
4337 4800
4337 4801
4338 4803
4338 4811
4338 4812
4338 4823
4339 4803
4339 4804
4340 4804
4340 4805
4341 4805
4341 4806
4342 4806
4342 4807
4343 4807
4343 4808
4344 4808
4344 4809
4345 4809
4345 4810
4346 4810
4346 4811
4347 4813
4347 4822
4347 4823
4347 4835
4348 4813
4348 4814
4349 4814
4349 4815
4350 4815
4350 4816
4351 4816
4351 4817
4352 4817
4352 4818
4353 4818
4353 4819
4354 4819
4354 4820
4355 4820
4355 4821
4356 4821
4356 4822
4357 4824
4357 4834
4357 4835
4357 12476
4357 12477
4358 4824
4358 4825
4359 4825
4359 4826
4360 4826
4360 4827
4361 4827
4361 4828
4362 4828
4362 4829
4363 4829
4363 4830
4364 4830
4364 4831
4365 4831
4365 4832
4366 4832
4366 4833
4367 4833
4367 4834
4368 4836
4368 4840
4368 4847
4369 4836
4369 4837
4370 4837
4370 4838
4371 4838
4371 4839
4372 4839
4372 4840
4373 4841
4373 4846
4373 4847
4373 4855
4374 4841
4374 4842
4375 4842
4375 4843
4376 4843
4376 4844
4377 4844
4377 4845
4378 4845
4378 4846
4379 4848
4379 4854
4379 4855
4379 4864
4380 4848
4380 4849
4381 4849
4381 4850
4382 4850
4382 4851
4383 4851
4383 4852
4384 4852
4384 4853
4385 4853
4385 4854
4386 4856
4386 4863
4386 4864
4386 4874
4387 4856
4387 4857
4388 4857
4388 4858
4389 4858
4389 4859
4390 4859
4390 4860
4391 4860
4391 4861
4392 4861
4392 4862
4393 4862
4393 4863
4394 4865
4394 4873
4394 4874
4394 4885
4395 4865
4395 4866
4396 4866
4396 4867
4397 4867
4397 4868
4398 4868
4398 4869
4399 4869
4399 4870
4400 4870
4400 4871
4401 4871
4401 4872
4402 4872
4402 4873
4403 4875
4403 4884
4403 4885
4403 4897
4404 4875
4404 4876
4405 4876
4405 4877
4406 4877
4406 4878
4407 4878
4407 4879
4408 4879
4408 4880
4409 4880
4409 4881
4410 4881
4410 4882
4411 4882
4411 4883
4412 4883
4412 4884
4413 4886
4413 4896
4413 4897
4413 12477
4413 12478
4414 4886
4414 4887
4415 4887
4415 4888
4416 4888
4416 4889
4417 4889
4417 4890
4418 4890
4418 4891
4419 4891
4419 4892
4420 4892
4420 4893
4421 4893
4421 4894
4422 4894
4422 4895
4423 4895
4423 4896
4424 4898
4424 4902
4424 4909
4425 4898
4425 4899
4426 4899
4426 4900
4427 4900
4427 4901
4428 4901
4428 4902
4429 4903
4429 4908
4429 4909
4429 4917
4430 4903
4430 4904
4431 4904
4431 4905
4432 4905
4432 4906
4433 4906
4433 4907
4434 4907
4434 4908
4435 4910
4435 4916
4435 4917
4435 4926
4436 4910
4436 4911
4437 4911
4437 4912
4438 4912
4438 4913
4439 4913
4439 4914
4440 4914
4440 4915
4441 4915
4441 4916
4442 4918
4442 4925
4442 4926
4442 4936
4443 4918
4443 4919
4444 4919
4444 4920
4445 4920
4445 4921
4446 4921
4446 4922
4447 4922
4447 4923
4448 4923
4448 4924
4449 4924
4449 4925
4450 4927
4450 4935
4450 4936
4450 4947
4451 4927
4451 4928
4452 4928
4452 4929
4453 4929
4453 4930
4454 4930
4454 4931
4455 4931
4455 4932
4456 4932
4456 4933
4457 4933
4457 4934
4458 4934
4458 4935
4459 4937
4459 4946
4459 4947
4459 4959
4460 4937
4460 4938
4461 4938
4461 4939
4462 4939
4462 4940
4463 4940
4463 4941
4464 4941
4464 4942
4465 4942
4465 4943
4466 4943
4466 4944
4467 4944
4467 4945
4468 4945
4468 4946
4469 4948
4469 4958
4469 4959
4469 12478
4469 12479
4470 4948
4470 4949
4471 4949
4471 4950
4472 4950
4472 4951
4473 4951
4473 4952
4474 4952
4474 4953
4475 4953
4475 4954
4476 4954
4476 4955
4477 4955
4477 4956
4478 4956
4478 4957
4479 4957
4479 4958
4480 4960
4480 4964
4480 4971
4481 4960
4481 4961
4482 4961
4482 4962
4483 4962
4483 4963
4484 4963
4484 4964
4485 4965
4485 4970
4485 4971
4485 4979
4486 4965
4486 4966
4487 4966
4487 4967
4488 4967
4488 4968
4489 4968
4489 4969
4490 4969
4490 4970
4491 4972
4491 4978
4491 4979
4491 4988
4492 4972
4492 4973
4493 4973
4493 4974
4494 4974
4494 4975
4495 4975
4495 4976
4496 4976
4496 4977
4497 4977
4497 4978
4498 4980
4498 4987
4498 4988
4498 4998
4499 4980
4499 4981
4500 4981
4500 4982
4501 4982
4501 4983
4502 4983
4502 4984
4503 4984
4503 4985
4504 4985
4504 4986
4505 4986
4505 4987
4506 4989
4506 4997
4506 4998
4506 5009
4507 4989
4507 4990
4508 4990
4508 4991
4509 4991
4509 4992
4510 4992
4510 4993
4511 4993
4511 4994
4512 4994
4512 4995
4513 4995
4513 4996
4514 4996
4514 4997
4515 4999
4515 5008
4515 5009
4515 5021
4516 4999
4516 5000
4517 5000
4517 5001
4518 5001
4518 5002
4519 5002
4519 5003
4520 5003
4520 5004
4521 5004
4521 5005
4522 5005
4522 5006
4523 5006
4523 5007
4524 5007
4524 5008
4525 5010
4525 5020
4525 5021
4525 12479
4525 12480
4526 5010
4526 5011
4527 5011
4527 5012
4528 5012
4528 5013
4529 5013
4529 5014
4530 5014
4530 5015
4531 5015
4531 5016
4532 5016
4532 5017
4533 5017
4533 5018
4534 5018
4534 5019
4535 5019
4535 5020
4536 5022
4536 5026
4536 5033
4537 5022
4537 5023
4538 5023
4538 5024
4539 5024
4539 5025
4540 5025
4540 5026
4541 5027
4541 5032
4541 5033
4541 5041
4542 5027
4542 5028
4543 5028
4543 5029
4544 5029
4544 5030
4545 5030
4545 5031
4546 5031
4546 5032
4547 5034
4547 5040
4547 5041
4547 5050
4548 5034
4548 5035
4549 5035
4549 5036
4550 5036
4550 5037
4551 5037
4551 5038
4552 5038
4552 5039
4553 5039
4553 5040
4554 5042
4554 5049
4554 5050
4554 5060
4555 5042
4555 5043
4556 5043
4556 5044
4557 5044
4557 5045
4558 5045
4558 5046
4559 5046
4559 5047
4560 5047
4560 5048
4561 5048
4561 5049
4562 5051
4562 5059
4562 5060
4562 5071
4563 5051
4563 5052
4564 5052
4564 5053
4565 5053
4565 5054
4566 5054
4566 5055
4567 5055
4567 5056
4568 5056
4568 5057
4569 5057
4569 5058
4570 5058
4570 5059
4571 5061
4571 5070
4571 5071
4571 5083
4572 5061
4572 5062
4573 5062
4573 5063
4574 5063
4574 5064
4575 5064
4575 5065
4576 5065
4576 5066
4577 5066
4577 5067
4578 5067
4578 5068
4579 5068
4579 5069
4580 5069
4580 5070
4581 5072
4581 5082
4581 5083
4581 12480
4581 12481
4582 5072
4582 5073
4583 5073
4583 5074
4584 5074
4584 5075
4585 5075
4585 5076
4586 5076
4586 5077
4587 5077
4587 5078
4588 5078
4588 5079
4589 5079
4589 5080
4590 5080
4590 5081
4591 5081
4591 5082
4592 5084
4592 5088
4592 5095
4593 5084
4593 5085
4594 5085
4594 5086
4595 5086
4595 5087
4596 5087
4596 5088
4597 5089
4597 5094
4597 5095
4597 5103
4598 5089
4598 5090
4599 5090
4599 5091
4600 5091
4600 5092
4601 5092
4601 5093
4602 5093
4602 5094
4603 5096
4603 5102
4603 5103
4603 5112
4604 5096
4604 5097
4605 5097
4605 5098
4606 5098
4606 5099
4607 5099
4607 5100
4608 5100
4608 5101
4609 5101
4609 5102
4610 5104
4610 5111
4610 5112
4610 5122
4611 5104
4611 5105
4612 5105
4612 5106
4613 5106
4613 5107
4614 5107
4614 5108
4615 5108
4615 5109
4616 5109
4616 5110
4617 5110
4617 5111
4618 5113
4618 5121
4618 5122
4618 5133
4619 5113
4619 5114
4620 5114
4620 5115
4621 5115
4621 5116
4622 5116
4622 5117
4623 5117
4623 5118
4624 5118
4624 5119
4625 5119
4625 5120
4626 5120
4626 5121
4627 5123
4627 5132
4627 5133
4627 5145
4628 5123
4628 5124
4629 5124
4629 5125
4630 5125
4630 5126
4631 5126
4631 5127
4632 5127
4632 5128
4633 5128
4633 5129
4634 5129
4634 5130
4635 5130
4635 5131
4636 5131
4636 5132
4637 5134
4637 5144
4637 5145
4637 12481
4637 12482
4638 5134
4638 5135
4639 5135
4639 5136
4640 5136
4640 5137
4641 5137
4641 5138
4642 5138
4642 5139
4643 5139
4643 5140
4644 5140
4644 5141
4645 5141
4645 5142
4646 5142
4646 5143
4647 5143
4647 5144
4648 5146
4648 5150
4648 5157
4649 5146
4649 5147
4650 5147
4650 5148
4651 5148
4651 5149
4652 5149
4652 5150
4653 5151
4653 5156
4653 5157
4653 5165
4654 5151
4654 5152
4655 5152
4655 5153
4656 5153
4656 5154
4657 5154
4657 5155
4658 5155
4658 5156
4659 5158
4659 5164
4659 5165
4659 5174
4660 5158
4660 5159
4661 5159
4661 5160
4662 5160
4662 5161
4663 5161
4663 5162
4664 5162
4664 5163
4665 5163
4665 5164
4666 5166
4666 5173
4666 5174
4666 5184
4667 5166
4667 5167
4668 5167
4668 5168
4669 5168
4669 5169
4670 5169
4670 5170
4671 5170
4671 5171
4672 5171
4672 5172
4673 5172
4673 5173
4674 5175
4674 5183
4674 5184
4674 5195
4675 5175
4675 5176
4676 5176
4676 5177
4677 5177
4677 5178
4678 5178
4678 5179
4679 5179
4679 5180
4680 5180
4680 5181
4681 5181
4681 5182
4682 5182
4682 5183
4683 5185
4683 5194
4683 5195
4683 5207
4684 5185
4684 5186
4685 5186
4685 5187
4686 5187
4686 5188
4687 5188
4687 5189
4688 5189
4688 5190
4689 5190
4689 5191
4690 5191
4690 5192
4691 5192
4691 5193
4692 5193
4692 5194
4693 5196
4693 5206
4693 5207
4693 12482
4693 12483
4694 5196
4694 5197
4695 5197
4695 5198
4696 5198
4696 5199
4697 5199
4697 5200
4698 5200
4698 5201
4699 5201
4699 5202
4700 5202
4700 5203
4701 5203
4701 5204
4702 5204
4702 5205
4703 5205
4703 5206
4704 5208
4704 5212
4704 5219
4705 5208
4705 5209
4706 5209
4706 5210
4707 5210
4707 5211
4708 5211
4708 5212
4709 5213
4709 5218
4709 5219
4709 5227
4710 5213
4710 5214
4711 5214
4711 5215
4712 5215
4712 5216
4713 5216
4713 5217
4714 5217
4714 5218
4715 5220
4715 5226
4715 5227
4715 5236
4716 5220
4716 5221
4717 5221
4717 5222
4718 5222
4718 5223
4719 5223
4719 5224
4720 5224
4720 5225
4721 5225
4721 5226
4722 5228
4722 5235
4722 5236
4722 5246
4723 5228
4723 5229
4724 5229
4724 5230
4725 5230
4725 5231
4726 5231
4726 5232
4727 5232
4727 5233
4728 5233
4728 5234
4729 5234
4729 5235
4730 5237
4730 5245
4730 5246
4730 5257
4731 5237
4731 5238
4732 5238
4732 5239
4733 5239
4733 5240
4734 5240
4734 5241
4735 5241
4735 5242
4736 5242
4736 5243
4737 5243
4737 5244
4738 5244
4738 5245
4739 5247
4739 5256
4739 5257
4739 5269
4740 5247
4740 5248
4741 5248
4741 5249
4742 5249
4742 5250
4743 5250
4743 5251
4744 5251
4744 5252
4745 5252
4745 5253
4746 5253
4746 5254
4747 5254
4747 5255
4748 5255
4748 5256
4749 5258
4749 5268
4749 5269
4749 12483
4749 12484
4750 5258
4750 5259
4751 5259
4751 5260
4752 5260
4752 5261
4753 5261
4753 5262
4754 5262
4754 5263
4755 5263
4755 5264
4756 5264
4756 5265
4757 5265
4757 5266
4758 5266
4758 5267
4759 5267
4759 5268
4760 5270
4760 5274
4760 5281
4761 5270
4761 5271
4762 5271
4762 5272
4763 5272
4763 5273
4764 5273
4764 5274
4765 5275
4765 5280
4765 5281
4765 5289
4766 5275
4766 5276
4767 5276
4767 5277
4768 5277
4768 5278
4769 5278
4769 5279
4770 5279
4770 5280
4771 5282
4771 5288
4771 5289
4771 5298
4772 5282
4772 5283
4773 5283
4773 5284
4774 5284
4774 5285
4775 5285
4775 5286
4776 5286
4776 5287
4777 5287
4777 5288
4778 5290
4778 5297
4778 5298
4778 5308
4779 5290
4779 5291
4780 5291
4780 5292
4781 5292
4781 5293
4782 5293
4782 5294
4783 5294
4783 5295
4784 5295
4784 5296
4785 5296
4785 5297
4786 5299
4786 5307
4786 5308
4786 5319
4787 5299
4787 5300
4788 5300
4788 5301
4789 5301
4789 5302
4790 5302
4790 5303
4791 5303
4791 5304
4792 5304
4792 5305
4793 5305
4793 5306
4794 5306
4794 5307
4795 5309
4795 5318
4795 5319
4795 5331
4796 5309
4796 5310
4797 5310
4797 5311
4798 5311
4798 5312
4799 5312
4799 5313
4800 5313
4800 5314
4801 5314
4801 5315
4802 5315
4802 5316
4803 5316
4803 5317
4804 5317
4804 5318
4805 5320
4805 5330
4805 5331
4805 12484
4805 12485
4806 5320
4806 5321
4807 5321
4807 5322
4808 5322
4808 5323
4809 5323
4809 5324
4810 5324
4810 5325
4811 5325
4811 5326
4812 5326
4812 5327
4813 5327
4813 5328
4814 5328
4814 5329
4815 5329
4815 5330
4816 5332
4816 5336
4816 5343
4817 5332
4817 5333
4818 5333
4818 5334
4819 5334
4819 5335
4820 5335
4820 5336
4821 5337
4821 5342
4821 5343
4821 5351
4822 5337
4822 5338
4823 5338
4823 5339
4824 5339
4824 5340
4825 5340
4825 5341
4826 5341
4826 5342
4827 5344
4827 5350
4827 5351
4827 5360
4828 5344
4828 5345
4829 5345
4829 5346
4830 5346
4830 5347
4831 5347
4831 5348
4832 5348
4832 5349
4833 5349
4833 5350
4834 5352
4834 5359
4834 5360
4834 5370
4835 5352
4835 5353
4836 5353
4836 5354
4837 5354
4837 5355
4838 5355
4838 5356
4839 5356
4839 5357
4840 5357
4840 5358
4841 5358
4841 5359
4842 5361
4842 5369
4842 5370
4842 5381
4843 5361
4843 5362
4844 5362
4844 5363
4845 5363
4845 5364
4846 5364
4846 5365
4847 5365
4847 5366
4848 5366
4848 5367
4849 5367
4849 5368
4850 5368
4850 5369
4851 5371
4851 5380
4851 5381
4851 5393
4852 5371
4852 5372
4853 5372
4853 5373
4854 5373
4854 5374
4855 5374
4855 5375
4856 5375
4856 5376
4857 5376
4857 5377
4858 5377
4858 5378
4859 5378
4859 5379
4860 5379
4860 5380
4861 5382
4861 5392
4861 5393
4861 12485
4861 12486
4862 5382
4862 5383
4863 5383
4863 5384
4864 5384
4864 5385
4865 5385
4865 5386
4866 5386
4866 5387
4867 5387
4867 5388
4868 5388
4868 5389
4869 5389
4869 5390
4870 5390
4870 5391
4871 5391
4871 5392
4872 5394
4872 5398
4872 5405
4873 5394
4873 5395
4874 5395
4874 5396
4875 5396
4875 5397
4876 5397
4876 5398
4877 5399
4877 5404
4877 5405
4877 5413
4878 5399
4878 5400
4879 5400
4879 5401
4880 5401
4880 5402
4881 5402
4881 5403
4882 5403
4882 5404
4883 5406
4883 5412
4883 5413
4883 5422
4884 5406
4884 5407
4885 5407
4885 5408
4886 5408
4886 5409
4887 5409
4887 5410
4888 5410
4888 5411
4889 5411
4889 5412
4890 5414
4890 5421
4890 5422
4890 5432
4891 5414
4891 5415
4892 5415
4892 5416
4893 5416
4893 5417
4894 5417
4894 5418
4895 5418
4895 5419
4896 5419
4896 5420
4897 5420
4897 5421
4898 5423
4898 5431
4898 5432
4898 5443
4899 5423
4899 5424
4900 5424
4900 5425
4901 5425
4901 5426
4902 5426
4902 5427
4903 5427
4903 5428
4904 5428
4904 5429
4905 5429
4905 5430
4906 5430
4906 5431
4907 5433
4907 5442
4907 5443
4907 5455
4908 5433
4908 5434
4909 5434
4909 5435
4910 5435
4910 5436
4911 5436
4911 5437
4912 5437
4912 5438
4913 5438
4913 5439
4914 5439
4914 5440
4915 5440
4915 5441
4916 5441
4916 5442
4917 5444
4917 5454
4917 5455
4917 12486
4917 12487
4918 5444
4918 5445
4919 5445
4919 5446
4920 5446
4920 5447
4921 5447
4921 5448
4922 5448
4922 5449
4923 5449
4923 5450
4924 5450
4924 5451
4925 5451
4925 5452
4926 5452
4926 5453
4927 5453
4927 5454
4928 5456
4928 5460
4928 5467
4929 5456
4929 5457
4930 5457
4930 5458
4931 5458
4931 5459
4932 5459
4932 5460
4933 5461
4933 5466
4933 5467
4933 5475
4934 5461
4934 5462
4935 5462
4935 5463
4936 5463
4936 5464
4937 5464
4937 5465
4938 5465
4938 5466
4939 5468
4939 5474
4939 5475
4939 5484
4940 5468
4940 5469
4941 5469
4941 5470
4942 5470
4942 5471
4943 5471
4943 5472
4944 5472
4944 5473
4945 5473
4945 5474
4946 5476
4946 5483
4946 5484
4946 5494
4947 5476
4947 5477
4948 5477
4948 5478
4949 5478
4949 5479
4950 5479
4950 5480
4951 5480
4951 5481
4952 5481
4952 5482
4953 5482
4953 5483
4954 5485
4954 5493
4954 5494
4954 5505
4955 5485
4955 5486
4956 5486
4956 5487
4957 5487
4957 5488
4958 5488
4958 5489
4959 5489
4959 5490
4960 5490
4960 5491
4961 5491
4961 5492
4962 5492
4962 5493
4963 5495
4963 5504
4963 5505
4963 5517
4964 5495
4964 5496
4965 5496
4965 5497
4966 5497
4966 5498
4967 5498
4967 5499
4968 5499
4968 5500
4969 5500
4969 5501
4970 5501
4970 5502
4971 5502
4971 5503
4972 5503
4972 5504
4973 5506
4973 5516
4973 5517
4973 12487
4973 12488
4974 5506
4974 5507
4975 5507
4975 5508
4976 5508
4976 5509
4977 5509
4977 5510
4978 5510
4978 5511
4979 5511
4979 5512
4980 5512
4980 5513
4981 5513
4981 5514
4982 5514
4982 5515
4983 5515
4983 5516
4984 5518
4984 5522
4984 5529
4985 5518
4985 5519
4986 5519
4986 5520
4987 5520
4987 5521
4988 5521
4988 5522
4989 5523
4989 5528
4989 5529
4989 5537
4990 5523
4990 5524
4991 5524
4991 5525
4992 5525
4992 5526
4993 5526
4993 5527
4994 5527
4994 5528
4995 5530
4995 5536
4995 5537
4995 5546
4996 5530
4996 5531
4997 5531
4997 5532
4998 5532
4998 5533
4999 5533
4999 5534
5000 5534
5000 5535
5001 5535
5001 5536
5002 5538
5002 5545
5002 5546
5002 5556
5003 5538
5003 5539
5004 5539
5004 5540
5005 5540
5005 5541
5006 5541
5006 5542
5007 5542
5007 5543
5008 5543
5008 5544
5009 5544
5009 5545
5010 5547
5010 5555
5010 5556
5010 5567
5011 5547
5011 5548
5012 5548
5012 5549
5013 5549
5013 5550
5014 5550
5014 5551
5015 5551
5015 5552
5016 5552
5016 5553
5017 5553
5017 5554
5018 5554
5018 5555
5019 5557
5019 5566
5019 5567
5019 5579
5020 5557
5020 5558
5021 5558
5021 5559
5022 5559
5022 5560
5023 5560
5023 5561
5024 5561
5024 5562
5025 5562
5025 5563
5026 5563
5026 5564
5027 5564
5027 5565
5028 5565
5028 5566
5029 5568
5029 5578
5029 5579
5029 12488
5029 12489
5030 5568
5030 5569
5031 5569
5031 5570
5032 5570
5032 5571
5033 5571
5033 5572
5034 5572
5034 5573
5035 5573
5035 5574
5036 5574
5036 5575
5037 5575
5037 5576
5038 5576
5038 5577
5039 5577
5039 5578
5040 5580
5040 5584
5040 5591
5041 5580
5041 5581
5042 5581
5042 5582
5043 5582
5043 5583
5044 5583
5044 5584
5045 5585
5045 5590
5045 5591
5045 5599
5046 5585
5046 5586
5047 5586
5047 5587
5048 5587
5048 5588
5049 5588
5049 5589
5050 5589
5050 5590
5051 5592
5051 5598
5051 5599
5051 5608
5052 5592
5052 5593
5053 5593
5053 5594
5054 5594
5054 5595
5055 5595
5055 5596
5056 5596
5056 5597
5057 5597
5057 5598
5058 5600
5058 5607
5058 5608
5058 5618
5059 5600
5059 5601
5060 5601
5060 5602
5061 5602
5061 5603
5062 5603
5062 5604
5063 5604
5063 5605
5064 5605
5064 5606
5065 5606
5065 5607
5066 5609
5066 5617
5066 5618
5066 5629
5067 5609
5067 5610
5068 5610
5068 5611
5069 5611
5069 5612
5070 5612
5070 5613
5071 5613
5071 5614
5072 5614
5072 5615
5073 5615
5073 5616
5074 5616
5074 5617
5075 5619
5075 5628
5075 5629
5075 5641
5076 5619
5076 5620
5077 5620
5077 5621
5078 5621
5078 5622
5079 5622
5079 5623
5080 5623
5080 5624
5081 5624
5081 5625
5082 5625
5082 5626
5083 5626
5083 5627
5084 5627
5084 5628
5085 5630
5085 5640
5085 5641
5085 12489
5085 12490
5086 5630
5086 5631
5087 5631
5087 5632
5088 5632
5088 5633
5089 5633
5089 5634
5090 5634
5090 5635
5091 5635
5091 5636
5092 5636
5092 5637
5093 5637
5093 5638
5094 5638
5094 5639
5095 5639
5095 5640
5096 5642
5096 5646
5096 5653
5097 5642
5097 5643
5098 5643
5098 5644
5099 5644
5099 5645
5100 5645
5100 5646
5101 5647
5101 5652
5101 5653
5101 5661
5102 5647
5102 5648
5103 5648
5103 5649
5104 5649
5104 5650
5105 5650
5105 5651
5106 5651
5106 5652
5107 5654
5107 5660
5107 5661
5107 5670
5108 5654
5108 5655
5109 5655
5109 5656
5110 5656
5110 5657
5111 5657
5111 5658
5112 5658
5112 5659
5113 5659
5113 5660
5114 5662
5114 5669
5114 5670
5114 5680
5115 5662
5115 5663
5116 5663
5116 5664
5117 5664
5117 5665
5118 5665
5118 5666
5119 5666
5119 5667
5120 5667
5120 5668
5121 5668
5121 5669
5122 5671
5122 5679
5122 5680
5122 5691
5123 5671
5123 5672
5124 5672
5124 5673
5125 5673
5125 5674
5126 5674
5126 5675
5127 5675
5127 5676
5128 5676
5128 5677
5129 5677
5129 5678
5130 5678
5130 5679
5131 5681
5131 5690
5131 5691
5131 5703
5132 5681
5132 5682
5133 5682
5133 5683
5134 5683
5134 5684
5135 5684
5135 5685
5136 5685
5136 5686
5137 5686
5137 5687
5138 5687
5138 5688
5139 5688
5139 5689
5140 5689
5140 5690
5141 5692
5141 5702
5141 5703
5141 12490
5141 12491
5142 5692
5142 5693
5143 5693
5143 5694
5144 5694
5144 5695
5145 5695
5145 5696
5146 5696
5146 5697
5147 5697
5147 5698
5148 5698
5148 5699
5149 5699
5149 5700
5150 5700
5150 5701
5151 5701
5151 5702
5152 5704
5152 5708
5152 5715
5153 5704
5153 5705
5154 5705
5154 5706
5155 5706
5155 5707
5156 5707
5156 5708
5157 5709
5157 5714
5157 5715
5157 5723
5158 5709
5158 5710
5159 5710
5159 5711
5160 5711
5160 5712
5161 5712
5161 5713
5162 5713
5162 5714
5163 5716
5163 5722
5163 5723
5163 5732
5164 5716
5164 5717
5165 5717
5165 5718
5166 5718
5166 5719
5167 5719
5167 5720
5168 5720
5168 5721
5169 5721
5169 5722
5170 5724
5170 5731
5170 5732
5170 5742
5171 5724
5171 5725
5172 5725
5172 5726
5173 5726
5173 5727
5174 5727
5174 5728
5175 5728
5175 5729
5176 5729
5176 5730
5177 5730
5177 5731
5178 5733
5178 5741
5178 5742
5178 5753
5179 5733
5179 5734
5180 5734
5180 5735
5181 5735
5181 5736
5182 5736
5182 5737
5183 5737
5183 5738
5184 5738
5184 5739
5185 5739
5185 5740
5186 5740
5186 5741
5187 5743
5187 5752
5187 5753
5187 5765
5188 5743
5188 5744
5189 5744
5189 5745
5190 5745
5190 5746
5191 5746
5191 5747
5192 5747
5192 5748
5193 5748
5193 5749
5194 5749
5194 5750
5195 5750
5195 5751
5196 5751
5196 5752
5197 5754
5197 5764
5197 5765
5197 12491
5197 12492
5198 5754
5198 5755
5199 5755
5199 5756
5200 5756
5200 5757
5201 5757
5201 5758
5202 5758
5202 5759
5203 5759
5203 5760
5204 5760
5204 5761
5205 5761
5205 5762
5206 5762
5206 5763
5207 5763
5207 5764
5208 5766
5208 5770
5208 5777
5209 5766
5209 5767
5210 5767
5210 5768
5211 5768
5211 5769
5212 5769
5212 5770
5213 5771
5213 5776
5213 5777
5213 5785
5214 5771
5214 5772
5215 5772
5215 5773
5216 5773
5216 5774
5217 5774
5217 5775
5218 5775
5218 5776
5219 5778
5219 5784
5219 5785
5219 5794
5220 5778
5220 5779
5221 5779
5221 5780
5222 5780
5222 5781
5223 5781
5223 5782
5224 5782
5224 5783
5225 5783
5225 5784
5226 5786
5226 5793
5226 5794
5226 5804
5227 5786
5227 5787
5228 5787
5228 5788
5229 5788
5229 5789
5230 5789
5230 5790
5231 5790
5231 5791
5232 5791
5232 5792
5233 5792
5233 5793
5234 5795
5234 5803
5234 5804
5234 5815
5235 5795
5235 5796
5236 5796
5236 5797
5237 5797
5237 5798
5238 5798
5238 5799
5239 5799
5239 5800
5240 5800
5240 5801
5241 5801
5241 5802
5242 5802
5242 5803
5243 5805
5243 5814
5243 5815
5243 5827
5244 5805
5244 5806
5245 5806
5245 5807
5246 5807
5246 5808
5247 5808
5247 5809
5248 5809
5248 5810
5249 5810
5249 5811
5250 5811
5250 5812
5251 5812
5251 5813
5252 5813
5252 5814
5253 5816
5253 5826
5253 5827
5253 12492
5253 12493
5254 5816
5254 5817
5255 5817
5255 5818
5256 5818
5256 5819
5257 5819
5257 5820
5258 5820
5258 5821
5259 5821
5259 5822
5260 5822
5260 5823
5261 5823
5261 5824
5262 5824
5262 5825
5263 5825
5263 5826
5264 5828
5264 5832
5264 5839
5265 5828
5265 5829
5266 5829
5266 5830
5267 5830
5267 5831
5268 5831
5268 5832
5269 5833
5269 5838
5269 5839
5269 5847
5270 5833
5270 5834
5271 5834
5271 5835
5272 5835
5272 5836
5273 5836
5273 5837
5274 5837
5274 5838
5275 5840
5275 5846
5275 5847
5275 5856
5276 5840
5276 5841
5277 5841
5277 5842
5278 5842
5278 5843
5279 5843
5279 5844
5280 5844
5280 5845
5281 5845
5281 5846
5282 5848
5282 5855
5282 5856
5282 5866
5283 5848
5283 5849
5284 5849
5284 5850
5285 5850
5285 5851
5286 5851
5286 5852
5287 5852
5287 5853
5288 5853
5288 5854
5289 5854
5289 5855
5290 5857
5290 5865
5290 5866
5290 5877
5291 5857
5291 5858
5292 5858
5292 5859
5293 5859
5293 5860
5294 5860
5294 5861
5295 5861
5295 5862
5296 5862
5296 5863
5297 5863
5297 5864
5298 5864
5298 5865
5299 5867
5299 5876
5299 5877
5299 5889
5300 5867
5300 5868
5301 5868
5301 5869
5302 5869
5302 5870
5303 5870
5303 5871
5304 5871
5304 5872
5305 5872
5305 5873
5306 5873
5306 5874
5307 5874
5307 5875
5308 5875
5308 5876
5309 5878
5309 5888
5309 5889
5309 12493
5309 12494
5310 5878
5310 5879
5311 5879
5311 5880
5312 5880
5312 5881
5313 5881
5313 5882
5314 5882
5314 5883
5315 5883
5315 5884
5316 5884
5316 5885
5317 5885
5317 5886
5318 5886
5318 5887
5319 5887
5319 5888
5320 5890
5320 5894
5320 5901
5321 5890
5321 5891
5322 5891
5322 5892
5323 5892
5323 5893
5324 5893
5324 5894
5325 5895
5325 5900
5325 5901
5325 5909
5326 5895
5326 5896
5327 5896
5327 5897
5328 5897
5328 5898
5329 5898
5329 5899
5330 5899
5330 5900
5331 5902
5331 5908
5331 5909
5331 5918
5332 5902
5332 5903
5333 5903
5333 5904
5334 5904
5334 5905
5335 5905
5335 5906
5336 5906
5336 5907
5337 5907
5337 5908
5338 5910
5338 5917
5338 5918
5338 5928
5339 5910
5339 5911
5340 5911
5340 5912
5341 5912
5341 5913
5342 5913
5342 5914
5343 5914
5343 5915
5344 5915
5344 5916
5345 5916
5345 5917
5346 5919
5346 5927
5346 5928
5346 5939
5347 5919
5347 5920
5348 5920
5348 5921
5349 5921
5349 5922
5350 5922
5350 5923
5351 5923
5351 5924
5352 5924
5352 5925
5353 5925
5353 5926
5354 5926
5354 5927
5355 5929
5355 5938
5355 5939
5355 5951
5356 5929
5356 5930
5357 5930
5357 5931
5358 5931
5358 5932
5359 5932
5359 5933
5360 5933
5360 5934
5361 5934
5361 5935
5362 5935
5362 5936
5363 5936
5363 5937
5364 5937
5364 5938
5365 5940
5365 5950
5365 5951
5365 12494
5365 12495
5366 5940
5366 5941
5367 5941
5367 5942
5368 5942
5368 5943
5369 5943
5369 5944
5370 5944
5370 5945
5371 5945
5371 5946
5372 5946
5372 5947
5373 5947
5373 5948
5374 5948
5374 5949
5375 5949
5375 5950
5376 5952
5376 5956
5376 5963
5377 5952
5377 5953
5378 5953
5378 5954
5379 5954
5379 5955
5380 5955
5380 5956
5381 5957
5381 5962
5381 5963
5381 5971
5382 5957
5382 5958
5383 5958
5383 5959
5384 5959
5384 5960
5385 5960
5385 5961
5386 5961
5386 5962
5387 5964
5387 5970
5387 5971
5387 5980
5388 5964
5388 5965
5389 5965
5389 5966
5390 5966
5390 5967
5391 5967
5391 5968
5392 5968
5392 5969
5393 5969
5393 5970
5394 5972
5394 5979
5394 5980
5394 5990
5395 5972
5395 5973
5396 5973
5396 5974
5397 5974
5397 5975
5398 5975
5398 5976
5399 5976
5399 5977
5400 5977
5400 5978
5401 5978
5401 5979
5402 5981
5402 5989
5402 5990
5402 6001
5403 5981
5403 5982
5404 5982
5404 5983
5405 5983
5405 5984
5406 5984
5406 5985
5407 5985
5407 5986
5408 5986
5408 5987
5409 5987
5409 5988
5410 5988
5410 5989
5411 5991
5411 6000
5411 6001
5411 6013
5412 5991
5412 5992
5413 5992
5413 5993
5414 5993
5414 5994
5415 5994
5415 5995
5416 5995
5416 5996
5417 5996
5417 5997
5418 5997
5418 5998
5419 5998
5419 5999
5420 5999
5420 6000
5421 6002
5421 6012
5421 6013
5421 12495
5421 12496
5422 6002
5422 6003
5423 6003
5423 6004
5424 6004
5424 6005
5425 6005
5425 6006
5426 6006
5426 6007
5427 6007
5427 6008
5428 6008
5428 6009
5429 6009
5429 6010
5430 6010
5430 6011
5431 6011
5431 6012
5432 6014
5432 6018
5432 6025
5433 6014
5433 6015
5434 6015
5434 6016
5435 6016
5435 6017
5436 6017
5436 6018
5437 6019
5437 6024
5437 6025
5437 6033
5438 6019
5438 6020
5439 6020
5439 6021
5440 6021
5440 6022
5441 6022
5441 6023
5442 6023
5442 6024
5443 6026
5443 6032
5443 6033
5443 6042
5444 6026
5444 6027
5445 6027
5445 6028
5446 6028
5446 6029
5447 6029
5447 6030
5448 6030
5448 6031
5449 6031
5449 6032
5450 6034
5450 6041
5450 6042
5450 6052
5451 6034
5451 6035
5452 6035
5452 6036
5453 6036
5453 6037
5454 6037
5454 6038
5455 6038
5455 6039
5456 6039
5456 6040
5457 6040
5457 6041
5458 6043
5458 6051
5458 6052
5458 6063
5459 6043
5459 6044
5460 6044
5460 6045
5461 6045
5461 6046
5462 6046
5462 6047
5463 6047
5463 6048
5464 6048
5464 6049
5465 6049
5465 6050
5466 6050
5466 6051
5467 6053
5467 6062
5467 6063
5467 6075
5468 6053
5468 6054
5469 6054
5469 6055
5470 6055
5470 6056
5471 6056
5471 6057
5472 6057
5472 6058
5473 6058
5473 6059
5474 6059
5474 6060
5475 6060
5475 6061
5476 6061
5476 6062
5477 6064
5477 6074
5477 6075
5477 12496
5477 12497
5478 6064
5478 6065
5479 6065
5479 6066
5480 6066
5480 6067
5481 6067
5481 6068
5482 6068
5482 6069
5483 6069
5483 6070
5484 6070
5484 6071
5485 6071
5485 6072
5486 6072
5486 6073
5487 6073
5487 6074
5488 6076
5488 6080
5488 6087
5489 6076
5489 6077
5490 6077
5490 6078
5491 6078
5491 6079
5492 6079
5492 6080
5493 6081
5493 6086
5493 6087
5493 6095
5494 6081
5494 6082
5495 6082
5495 6083
5496 6083
5496 6084
5497 6084
5497 6085
5498 6085
5498 6086
5499 6088
5499 6094
5499 6095
5499 6104
5500 6088
5500 6089
5501 6089
5501 6090
5502 6090
5502 6091
5503 6091
5503 6092
5504 6092
5504 6093
5505 6093
5505 6094
5506 6096
5506 6103
5506 6104
5506 6114
5507 6096
5507 6097
5508 6097
5508 6098
5509 6098
5509 6099
5510 6099
5510 6100
5511 6100
5511 6101
5512 6101
5512 6102
5513 6102
5513 6103
5514 6105
5514 6113
5514 6114
5514 6125
5515 6105
5515 6106
5516 6106
5516 6107
5517 6107
5517 6108
5518 6108
5518 6109
5519 6109
5519 6110
5520 6110
5520 6111
5521 6111
5521 6112
5522 6112
5522 6113
5523 6115
5523 6124
5523 6125
5523 6137
5524 6115
5524 6116
5525 6116
5525 6117
5526 6117
5526 6118
5527 6118
5527 6119
5528 6119
5528 6120
5529 6120
5529 6121
5530 6121
5530 6122
5531 6122
5531 6123
5532 6123
5532 6124
5533 6126
5533 6136
5533 6137
5533 12497
5533 12498
5534 6126
5534 6127
5535 6127
5535 6128
5536 6128
5536 6129
5537 6129
5537 6130
5538 6130
5538 6131
5539 6131
5539 6132
5540 6132
5540 6133
5541 6133
5541 6134
5542 6134
5542 6135
5543 6135
5543 6136
5544 6138
5544 6142
5544 6149
5545 6138
5545 6139
5546 6139
5546 6140
5547 6140
5547 6141
5548 6141
5548 6142
5549 6143
5549 6148
5549 6149
5549 6157
5550 6143
5550 6144
5551 6144
5551 6145
5552 6145
5552 6146
5553 6146
5553 6147
5554 6147
5554 6148
5555 6150
5555 6156
5555 6157
5555 6166
5556 6150
5556 6151
5557 6151
5557 6152
5558 6152
5558 6153
5559 6153
5559 6154
5560 6154
5560 6155
5561 6155
5561 6156
5562 6158
5562 6165
5562 6166
5562 6176
5563 6158
5563 6159
5564 6159
5564 6160
5565 6160
5565 6161
5566 6161
5566 6162
5567 6162
5567 6163
5568 6163
5568 6164
5569 6164
5569 6165
5570 6167
5570 6175
5570 6176
5570 6187
5571 6167
5571 6168
5572 6168
5572 6169
5573 6169
5573 6170
5574 6170
5574 6171
5575 6171
5575 6172
5576 6172
5576 6173
5577 6173
5577 6174
5578 6174
5578 6175
5579 6177
5579 6186
5579 6187
5579 6199
5580 6177
5580 6178
5581 6178
5581 6179
5582 6179
5582 6180
5583 6180
5583 6181
5584 6181
5584 6182
5585 6182
5585 6183
5586 6183
5586 6184
5587 6184
5587 6185
5588 6185
5588 6186
5589 6188
5589 6198
5589 6199
5589 12498
5589 12499
5590 6188
5590 6189
5591 6189
5591 6190
5592 6190
5592 6191
5593 6191
5593 6192
5594 6192
5594 6193
5595 6193
5595 6194
5596 6194
5596 6195
5597 6195
5597 6196
5598 6196
5598 6197
5599 6197
5599 6198
5600 6200
5600 6204
5600 6211
5601 6200
5601 6201
5602 6201
5602 6202
5603 6202
5603 6203
5604 6203
5604 6204
5605 6205
5605 6210
5605 6211
5605 6219
5606 6205
5606 6206
5607 6206
5607 6207
5608 6207
5608 6208
5609 6208
5609 6209
5610 6209
5610 6210
5611 6212
5611 6218
5611 6219
5611 6228
5612 6212
5612 6213
5613 6213
5613 6214
5614 6214
5614 6215
5615 6215
5615 6216
5616 6216
5616 6217
5617 6217
5617 6218
5618 6220
5618 6227
5618 6228
5618 6238
5619 6220
5619 6221
5620 6221
5620 6222
5621 6222
5621 6223
5622 6223
5622 6224
5623 6224
5623 6225
5624 6225
5624 6226
5625 6226
5625 6227
5626 6229
5626 6237
5626 6238
5626 6249
5627 6229
5627 6230
5628 6230
5628 6231
5629 6231
5629 6232
5630 6232
5630 6233
5631 6233
5631 6234
5632 6234
5632 6235
5633 6235
5633 6236
5634 6236
5634 6237
5635 6239
5635 6248
5635 6249
5635 6261
5636 6239
5636 6240
5637 6240
5637 6241
5638 6241
5638 6242
5639 6242
5639 6243
5640 6243
5640 6244
5641 6244
5641 6245
5642 6245
5642 6246
5643 6246
5643 6247
5644 6247
5644 6248
5645 6250
5645 6260
5645 6261
5645 12499
5645 12500
5646 6250
5646 6251
5647 6251
5647 6252
5648 6252
5648 6253
5649 6253
5649 6254
5650 6254
5650 6255
5651 6255
5651 6256
5652 6256
5652 6257
5653 6257
5653 6258
5654 6258
5654 6259
5655 6259
5655 6260
5656 6262
5656 6266
5656 6273
5657 6262
5657 6263
5658 6263
5658 6264
5659 6264
5659 6265
5660 6265
5660 6266
5661 6267
5661 6272
5661 6273
5661 6281
5662 6267
5662 6268
5663 6268
5663 6269
5664 6269
5664 6270
5665 6270
5665 6271
5666 6271
5666 6272
5667 6274
5667 6280
5667 6281
5667 6290
5668 6274
5668 6275
5669 6275
5669 6276
5670 6276
5670 6277
5671 6277
5671 6278
5672 6278
5672 6279
5673 6279
5673 6280
5674 6282
5674 6289
5674 6290
5674 6300
5675 6282
5675 6283
5676 6283
5676 6284
5677 6284
5677 6285
5678 6285
5678 6286
5679 6286
5679 6287
5680 6287
5680 6288
5681 6288
5681 6289
5682 6291
5682 6299
5682 6300
5682 6311
5683 6291
5683 6292
5684 6292
5684 6293
5685 6293
5685 6294
5686 6294
5686 6295
5687 6295
5687 6296
5688 6296
5688 6297
5689 6297
5689 6298
5690 6298
5690 6299
5691 6301
5691 6310
5691 6311
5691 6323
5692 6301
5692 6302
5693 6302
5693 6303
5694 6303
5694 6304
5695 6304
5695 6305
5696 6305
5696 6306
5697 6306
5697 6307
5698 6307
5698 6308
5699 6308
5699 6309
5700 6309
5700 6310
5701 6312
5701 6322
5701 6323
5701 12500
5701 12501
5702 6312
5702 6313
5703 6313
5703 6314
5704 6314
5704 6315
5705 6315
5705 6316
5706 6316
5706 6317
5707 6317
5707 6318
5708 6318
5708 6319
5709 6319
5709 6320
5710 6320
5710 6321
5711 6321
5711 6322
5712 6324
5712 6328
5712 6335
5713 6324
5713 6325
5714 6325
5714 6326
5715 6326
5715 6327
5716 6327
5716 6328
5717 6329
5717 6334
5717 6335
5717 6343
5718 6329
5718 6330
5719 6330
5719 6331
5720 6331
5720 6332
5721 6332
5721 6333
5722 6333
5722 6334
5723 6336
5723 6342
5723 6343
5723 6352
5724 6336
5724 6337
5725 6337
5725 6338
5726 6338
5726 6339
5727 6339
5727 6340
5728 6340
5728 6341
5729 6341
5729 6342
5730 6344
5730 6351
5730 6352
5730 6362
5731 6344
5731 6345
5732 6345
5732 6346
5733 6346
5733 6347
5734 6347
5734 6348
5735 6348
5735 6349
5736 6349
5736 6350
5737 6350
5737 6351
5738 6353
5738 6361
5738 6362
5738 6373
5739 6353
5739 6354
5740 6354
5740 6355
5741 6355
5741 6356
5742 6356
5742 6357
5743 6357
5743 6358
5744 6358
5744 6359
5745 6359
5745 6360
5746 6360
5746 6361
5747 6363
5747 6372
5747 6373
5747 6385
5748 6363
5748 6364
5749 6364
5749 6365
5750 6365
5750 6366
5751 6366
5751 6367
5752 6367
5752 6368
5753 6368
5753 6369
5754 6369
5754 6370
5755 6370
5755 6371
5756 6371
5756 6372
5757 6374
5757 6384
5757 6385
5757 12501
5757 12502
5758 6374
5758 6375
5759 6375
5759 6376
5760 6376
5760 6377
5761 6377
5761 6378
5762 6378
5762 6379
5763 6379
5763 6380
5764 6380
5764 6381
5765 6381
5765 6382
5766 6382
5766 6383
5767 6383
5767 6384
5768 6386
5768 6390
5768 6397
5769 6386
5769 6387
5770 6387
5770 6388
5771 6388
5771 6389
5772 6389
5772 6390
5773 6391
5773 6396
5773 6397
5773 6405
5774 6391
5774 6392
5775 6392
5775 6393
5776 6393
5776 6394
5777 6394
5777 6395
5778 6395
5778 6396
5779 6398
5779 6404
5779 6405
5779 6414
5780 6398
5780 6399
5781 6399
5781 6400
5782 6400
5782 6401
5783 6401
5783 6402
5784 6402
5784 6403
5785 6403
5785 6404
5786 6406
5786 6413
5786 6414
5786 6424
5787 6406
5787 6407
5788 6407
5788 6408
5789 6408
5789 6409
5790 6409
5790 6410
5791 6410
5791 6411
5792 6411
5792 6412
5793 6412
5793 6413
5794 6415
5794 6423
5794 6424
5794 6435
5795 6415
5795 6416
5796 6416
5796 6417
5797 6417
5797 6418
5798 6418
5798 6419
5799 6419
5799 6420
5800 6420
5800 6421
5801 6421
5801 6422
5802 6422
5802 6423
5803 6425
5803 6434
5803 6435
5803 6447
5804 6425
5804 6426
5805 6426
5805 6427
5806 6427
5806 6428
5807 6428
5807 6429
5808 6429
5808 6430
5809 6430
5809 6431
5810 6431
5810 6432
5811 6432
5811 6433
5812 6433
5812 6434
5813 6436
5813 6446
5813 6447
5813 12502
5813 12503
5814 6436
5814 6437
5815 6437
5815 6438
5816 6438
5816 6439
5817 6439
5817 6440
5818 6440
5818 6441
5819 6441
5819 6442
5820 6442
5820 6443
5821 6443
5821 6444
5822 6444
5822 6445
5823 6445
5823 6446
5824 6448
5824 6452
5824 6459
5825 6448
5825 6449
5826 6449
5826 6450
5827 6450
5827 6451
5828 6451
5828 6452
5829 6453
5829 6458
5829 6459
5829 6467
5830 6453
5830 6454
5831 6454
5831 6455
5832 6455
5832 6456
5833 6456
5833 6457
5834 6457
5834 6458
5835 6460
5835 6466
5835 6467
5835 6476
5836 6460
5836 6461
5837 6461
5837 6462
5838 6462
5838 6463
5839 6463
5839 6464
5840 6464
5840 6465
5841 6465
5841 6466
5842 6468
5842 6475
5842 6476
5842 6486
5843 6468
5843 6469
5844 6469
5844 6470
5845 6470
5845 6471
5846 6471
5846 6472
5847 6472
5847 6473
5848 6473
5848 6474
5849 6474
5849 6475
5850 6477
5850 6485
5850 6486
5850 6497
5851 6477
5851 6478
5852 6478
5852 6479
5853 6479
5853 6480
5854 6480
5854 6481
5855 6481
5855 6482
5856 6482
5856 6483
5857 6483
5857 6484
5858 6484
5858 6485
5859 6487
5859 6496
5859 6497
5859 6509
5860 6487
5860 6488
5861 6488
5861 6489
5862 6489
5862 6490
5863 6490
5863 6491
5864 6491
5864 6492
5865 6492
5865 6493
5866 6493
5866 6494
5867 6494
5867 6495
5868 6495
5868 6496
5869 6498
5869 6508
5869 6509
5869 12503
5869 12504
5870 6498
5870 6499
5871 6499
5871 6500
5872 6500
5872 6501
5873 6501
5873 6502
5874 6502
5874 6503
5875 6503
5875 6504
5876 6504
5876 6505
5877 6505
5877 6506
5878 6506
5878 6507
5879 6507
5879 6508
5880 6510
5880 6514
5880 6521
5881 6510
5881 6511
5882 6511
5882 6512
5883 6512
5883 6513
5884 6513
5884 6514
5885 6515
5885 6520
5885 6521
5885 6529
5886 6515
5886 6516
5887 6516
5887 6517
5888 6517
5888 6518
5889 6518
5889 6519
5890 6519
5890 6520
5891 6522
5891 6528
5891 6529
5891 6538
5892 6522
5892 6523
5893 6523
5893 6524
5894 6524
5894 6525
5895 6525
5895 6526
5896 6526
5896 6527
5897 6527
5897 6528
5898 6530
5898 6537
5898 6538
5898 6548
5899 6530
5899 6531
5900 6531
5900 6532
5901 6532
5901 6533
5902 6533
5902 6534
5903 6534
5903 6535
5904 6535
5904 6536
5905 6536
5905 6537
5906 6539
5906 6547
5906 6548
5906 6559
5907 6539
5907 6540
5908 6540
5908 6541
5909 6541
5909 6542
5910 6542
5910 6543
5911 6543
5911 6544
5912 6544
5912 6545
5913 6545
5913 6546
5914 6546
5914 6547
5915 6549
5915 6558
5915 6559
5915 6571
5916 6549
5916 6550
5917 6550
5917 6551
5918 6551
5918 6552
5919 6552
5919 6553
5920 6553
5920 6554
5921 6554
5921 6555
5922 6555
5922 6556
5923 6556
5923 6557
5924 6557
5924 6558
5925 6560
5925 6570
5925 6571
5925 12504
5925 12505
5926 6560
5926 6561
5927 6561
5927 6562
5928 6562
5928 6563
5929 6563
5929 6564
5930 6564
5930 6565
5931 6565
5931 6566
5932 6566
5932 6567
5933 6567
5933 6568
5934 6568
5934 6569
5935 6569
5935 6570
5936 6572
5936 6576
5936 6583
5937 6572
5937 6573
5938 6573
5938 6574
5939 6574
5939 6575
5940 6575
5940 6576
5941 6577
5941 6582
5941 6583
5941 6591
5942 6577
5942 6578
5943 6578
5943 6579
5944 6579
5944 6580
5945 6580
5945 6581
5946 6581
5946 6582
5947 6584
5947 6590
5947 6591
5947 6600
5948 6584
5948 6585
5949 6585
5949 6586
5950 6586
5950 6587
5951 6587
5951 6588
5952 6588
5952 6589
5953 6589
5953 6590
5954 6592
5954 6599
5954 6600
5954 6610
5955 6592
5955 6593
5956 6593
5956 6594
5957 6594
5957 6595
5958 6595
5958 6596
5959 6596
5959 6597
5960 6597
5960 6598
5961 6598
5961 6599
5962 6601
5962 6609
5962 6610
5962 6621
5963 6601
5963 6602
5964 6602
5964 6603
5965 6603
5965 6604
5966 6604
5966 6605
5967 6605
5967 6606
5968 6606
5968 6607
5969 6607
5969 6608
5970 6608
5970 6609
5971 6611
5971 6620
5971 6621
5971 6633
5972 6611
5972 6612
5973 6612
5973 6613
5974 6613
5974 6614
5975 6614
5975 6615
5976 6615
5976 6616
5977 6616
5977 6617
5978 6617
5978 6618
5979 6618
5979 6619
5980 6619
5980 6620
5981 6622
5981 6632
5981 6633
5981 12505
5981 12506
5982 6622
5982 6623
5983 6623
5983 6624
5984 6624
5984 6625
5985 6625
5985 6626
5986 6626
5986 6627
5987 6627
5987 6628
5988 6628
5988 6629
5989 6629
5989 6630
5990 6630
5990 6631
5991 6631
5991 6632
5992 6634
5992 6638
5992 6645
5993 6634
5993 6635
5994 6635
5994 6636
5995 6636
5995 6637
5996 6637
5996 6638
5997 6639
5997 6644
5997 6645
5997 6653
5998 6639
5998 6640
5999 6640
5999 6641
6000 6641
6000 6642
6001 6642
6001 6643
6002 6643
6002 6644
6003 6646
6003 6652
6003 6653
6003 6662
6004 6646
6004 6647
6005 6647
6005 6648
6006 6648
6006 6649
6007 6649
6007 6650
6008 6650
6008 6651
6009 6651
6009 6652
6010 6654
6010 6661
6010 6662
6010 6672
6011 6654
6011 6655
6012 6655
6012 6656
6013 6656
6013 6657
6014 6657
6014 6658
6015 6658
6015 6659
6016 6659
6016 6660
6017 6660
6017 6661
6018 6663
6018 6671
6018 6672
6018 6683
6019 6663
6019 6664
6020 6664
6020 6665
6021 6665
6021 6666
6022 6666
6022 6667
6023 6667
6023 6668
6024 6668
6024 6669
6025 6669
6025 6670
6026 6670
6026 6671
6027 6673
6027 6682
6027 6683
6027 6695
6028 6673
6028 6674
6029 6674
6029 6675
6030 6675
6030 6676
6031 6676
6031 6677
6032 6677
6032 6678
6033 6678
6033 6679
6034 6679
6034 6680
6035 6680
6035 6681
6036 6681
6036 6682
6037 6684
6037 6694
6037 6695
6037 12506
6037 12507
6038 6684
6038 6685
6039 6685
6039 6686
6040 6686
6040 6687
6041 6687
6041 6688
6042 6688
6042 6689
6043 6689
6043 6690
6044 6690
6044 6691
6045 6691
6045 6692
6046 6692
6046 6693
6047 6693
6047 6694
6048 6696
6048 6700
6048 6707
6049 6696
6049 6697
6050 6697
6050 6698
6051 6698
6051 6699
6052 6699
6052 6700
6053 6701
6053 6706
6053 6707
6053 6715
6054 6701
6054 6702
6055 6702
6055 6703
6056 6703
6056 6704
6057 6704
6057 6705
6058 6705
6058 6706
6059 6708
6059 6714
6059 6715
6059 6724
6060 6708
6060 6709
6061 6709
6061 6710
6062 6710
6062 6711
6063 6711
6063 6712
6064 6712
6064 6713
6065 6713
6065 6714
6066 6716
6066 6723
6066 6724
6066 6734
6067 6716
6067 6717
6068 6717
6068 6718
6069 6718
6069 6719
6070 6719
6070 6720
6071 6720
6071 6721
6072 6721
6072 6722
6073 6722
6073 6723
6074 6725
6074 6733
6074 6734
6074 6745
6075 6725
6075 6726
6076 6726
6076 6727
6077 6727
6077 6728
6078 6728
6078 6729
6079 6729
6079 6730
6080 6730
6080 6731
6081 6731
6081 6732
6082 6732
6082 6733
6083 6735
6083 6744
6083 6745
6083 6757
6084 6735
6084 6736
6085 6736
6085 6737
6086 6737
6086 6738
6087 6738
6087 6739
6088 6739
6088 6740
6089 6740
6089 6741
6090 6741
6090 6742
6091 6742
6091 6743
6092 6743
6092 6744
6093 6746
6093 6756
6093 6757
6093 12507
6093 12508
6094 6746
6094 6747
6095 6747
6095 6748
6096 6748
6096 6749
6097 6749
6097 6750
6098 6750
6098 6751
6099 6751
6099 6752
6100 6752
6100 6753
6101 6753
6101 6754
6102 6754
6102 6755
6103 6755
6103 6756
6104 6758
6104 6762
6104 6769
6105 6758
6105 6759
6106 6759
6106 6760
6107 6760
6107 6761
6108 6761
6108 6762
6109 6763
6109 6768
6109 6769
6109 6777
6110 6763
6110 6764
6111 6764
6111 6765
6112 6765
6112 6766
6113 6766
6113 6767
6114 6767
6114 6768
6115 6770
6115 6776
6115 6777
6115 6786
6116 6770
6116 6771
6117 6771
6117 6772
6118 6772
6118 6773
6119 6773
6119 6774
6120 6774
6120 6775
6121 6775
6121 6776
6122 6778
6122 6785
6122 6786
6122 6796
6123 6778
6123 6779
6124 6779
6124 6780
6125 6780
6125 6781
6126 6781
6126 6782
6127 6782
6127 6783
6128 6783
6128 6784
6129 6784
6129 6785
6130 6787
6130 6795
6130 6796
6130 6807
6131 6787
6131 6788
6132 6788
6132 6789
6133 6789
6133 6790
6134 6790
6134 6791
6135 6791
6135 6792
6136 6792
6136 6793
6137 6793
6137 6794
6138 6794
6138 6795
6139 6797
6139 6806
6139 6807
6139 6819
6140 6797
6140 6798
6141 6798
6141 6799
6142 6799
6142 6800
6143 6800
6143 6801
6144 6801
6144 6802
6145 6802
6145 6803
6146 6803
6146 6804
6147 6804
6147 6805
6148 6805
6148 6806
6149 6808
6149 6818
6149 6819
6149 12508
6149 12509
6150 6808
6150 6809
6151 6809
6151 6810
6152 6810
6152 6811
6153 6811
6153 6812
6154 6812
6154 6813
6155 6813
6155 6814
6156 6814
6156 6815
6157 6815
6157 6816
6158 6816
6158 6817
6159 6817
6159 6818
6160 6820
6160 6824
6160 6831
6161 6820
6161 6821
6162 6821
6162 6822
6163 6822
6163 6823
6164 6823
6164 6824
6165 6825
6165 6830
6165 6831
6165 6839
6166 6825
6166 6826
6167 6826
6167 6827
6168 6827
6168 6828
6169 6828
6169 6829
6170 6829
6170 6830
6171 6832
6171 6838
6171 6839
6171 6848
6172 6832
6172 6833
6173 6833
6173 6834
6174 6834
6174 6835
6175 6835
6175 6836
6176 6836
6176 6837
6177 6837
6177 6838
6178 6840
6178 6847
6178 6848
6178 6858
6179 6840
6179 6841
6180 6841
6180 6842
6181 6842
6181 6843
6182 6843
6182 6844
6183 6844
6183 6845
6184 6845
6184 6846
6185 6846
6185 6847
6186 6849
6186 6857
6186 6858
6186 6869
6187 6849
6187 6850
6188 6850
6188 6851
6189 6851
6189 6852
6190 6852
6190 6853
6191 6853
6191 6854
6192 6854
6192 6855
6193 6855
6193 6856
6194 6856
6194 6857
6195 6859
6195 6868
6195 6869
6195 6881
6196 6859
6196 6860
6197 6860
6197 6861
6198 6861
6198 6862
6199 6862
6199 6863
6200 6863
6200 6864
6201 6864
6201 6865
6202 6865
6202 6866
6203 6866
6203 6867
6204 6867
6204 6868
6205 6870
6205 6880
6205 6881
6205 12509
6205 12510
6206 6870
6206 6871
6207 6871
6207 6872
6208 6872
6208 6873
6209 6873
6209 6874
6210 6874
6210 6875
6211 6875
6211 6876
6212 6876
6212 6877
6213 6877
6213 6878
6214 6878
6214 6879
6215 6879
6215 6880
6216 6882
6216 6886
6216 6893
6217 6882
6217 6883
6218 6883
6218 6884
6219 6884
6219 6885
6220 6885
6220 6886
6221 6887
6221 6892
6221 6893
6221 6901
6222 6887
6222 6888
6223 6888
6223 6889
6224 6889
6224 6890
6225 6890
6225 6891
6226 6891
6226 6892
6227 6894
6227 6900
6227 6901
6227 6910
6228 6894
6228 6895
6229 6895
6229 6896
6230 6896
6230 6897
6231 6897
6231 6898
6232 6898
6232 6899
6233 6899
6233 6900
6234 6902
6234 6909
6234 6910
6234 6920
6235 6902
6235 6903
6236 6903
6236 6904
6237 6904
6237 6905
6238 6905
6238 6906
6239 6906
6239 6907
6240 6907
6240 6908
6241 6908
6241 6909
6242 6911
6242 6919
6242 6920
6242 6931
6243 6911
6243 6912
6244 6912
6244 6913
6245 6913
6245 6914
6246 6914
6246 6915
6247 6915
6247 6916
6248 6916
6248 6917
6249 6917
6249 6918
6250 6918
6250 6919
6251 6921
6251 6930
6251 6931
6251 6943
6252 6921
6252 6922
6253 6922
6253 6923
6254 6923
6254 6924
6255 6924
6255 6925
6256 6925
6256 6926
6257 6926
6257 6927
6258 6927
6258 6928
6259 6928
6259 6929
6260 6929
6260 6930
6261 6932
6261 6942
6261 6943
6261 12510
6261 12511
6262 6932
6262 6933
6263 6933
6263 6934
6264 6934
6264 6935
6265 6935
6265 6936
6266 6936
6266 6937
6267 6937
6267 6938
6268 6938
6268 6939
6269 6939
6269 6940
6270 6940
6270 6941
6271 6941
6271 6942
6272 6944
6272 6948
6272 6955
6273 6944
6273 6945
6274 6945
6274 6946
6275 6946
6275 6947
6276 6947
6276 6948
6277 6949
6277 6954
6277 6955
6277 6963
6278 6949
6278 6950
6279 6950
6279 6951
6280 6951
6280 6952
6281 6952
6281 6953
6282 6953
6282 6954
6283 6956
6283 6962
6283 6963
6283 6972
6284 6956
6284 6957
6285 6957
6285 6958
6286 6958
6286 6959
6287 6959
6287 6960
6288 6960
6288 6961
6289 6961
6289 6962
6290 6964
6290 6971
6290 6972
6290 6982
6291 6964
6291 6965
6292 6965
6292 6966
6293 6966
6293 6967
6294 6967
6294 6968
6295 6968
6295 6969
6296 6969
6296 6970
6297 6970
6297 6971
6298 6973
6298 6981
6298 6982
6298 6993
6299 6973
6299 6974
6300 6974
6300 6975
6301 6975
6301 6976
6302 6976
6302 6977
6303 6977
6303 6978
6304 6978
6304 6979
6305 6979
6305 6980
6306 6980
6306 6981
6307 6983
6307 6992
6307 6993
6307 7005
6308 6983
6308 6984
6309 6984
6309 6985
6310 6985
6310 6986
6311 6986
6311 6987
6312 6987
6312 6988
6313 6988
6313 6989
6314 6989
6314 6990
6315 6990
6315 6991
6316 6991
6316 6992
6317 6994
6317 7004
6317 7005
6317 12511
6317 12512
6318 6994
6318 6995
6319 6995
6319 6996
6320 6996
6320 6997
6321 6997
6321 6998
6322 6998
6322 6999
6323 6999
6323 7000
6324 7000
6324 7001
6325 7001
6325 7002
6326 7002
6326 7003
6327 7003
6327 7004
6328 7006
6328 7010
6328 7017
6329 7006
6329 7007
6330 7007
6330 7008
6331 7008
6331 7009
6332 7009
6332 7010
6333 7011
6333 7016
6333 7017
6333 7025
6334 7011
6334 7012
6335 7012
6335 7013
6336 7013
6336 7014
6337 7014
6337 7015
6338 7015
6338 7016
6339 7018
6339 7024
6339 7025
6339 7034
6340 7018
6340 7019
6341 7019
6341 7020
6342 7020
6342 7021
6343 7021
6343 7022
6344 7022
6344 7023
6345 7023
6345 7024
6346 7026
6346 7033
6346 7034
6346 7044
6347 7026
6347 7027
6348 7027
6348 7028
6349 7028
6349 7029
6350 7029
6350 7030
6351 7030
6351 7031
6352 7031
6352 7032
6353 7032
6353 7033
6354 7035
6354 7043
6354 7044
6354 7055
6355 7035
6355 7036
6356 7036
6356 7037
6357 7037
6357 7038
6358 7038
6358 7039
6359 7039
6359 7040
6360 7040
6360 7041
6361 7041
6361 7042
6362 7042
6362 7043
6363 7045
6363 7054
6363 7055
6363 7067
6364 7045
6364 7046
6365 7046
6365 7047
6366 7047
6366 7048
6367 7048
6367 7049
6368 7049
6368 7050
6369 7050
6369 7051
6370 7051
6370 7052
6371 7052
6371 7053
6372 7053
6372 7054
6373 7056
6373 7066
6373 7067
6373 12512
6373 12513
6374 7056
6374 7057
6375 7057
6375 7058
6376 7058
6376 7059
6377 7059
6377 7060
6378 7060
6378 7061
6379 7061
6379 7062
6380 7062
6380 7063
6381 7063
6381 7064
6382 7064
6382 7065
6383 7065
6383 7066
6384 7068
6384 7072
6384 7079
6385 7068
6385 7069
6386 7069
6386 7070
6387 7070
6387 7071
6388 7071
6388 7072
6389 7073
6389 7078
6389 7079
6389 7087
6390 7073
6390 7074
6391 7074
6391 7075
6392 7075
6392 7076
6393 7076
6393 7077
6394 7077
6394 7078
6395 7080
6395 7086
6395 7087
6395 7096
6396 7080
6396 7081
6397 7081
6397 7082
6398 7082
6398 7083
6399 7083
6399 7084
6400 7084
6400 7085
6401 7085
6401 7086
6402 7088
6402 7095
6402 7096
6402 7106
6403 7088
6403 7089
6404 7089
6404 7090
6405 7090
6405 7091
6406 7091
6406 7092
6407 7092
6407 7093
6408 7093
6408 7094
6409 7094
6409 7095
6410 7097
6410 7105
6410 7106
6410 7117
6411 7097
6411 7098
6412 7098
6412 7099
6413 7099
6413 7100
6414 7100
6414 7101
6415 7101
6415 7102
6416 7102
6416 7103
6417 7103
6417 7104
6418 7104
6418 7105
6419 7107
6419 7116
6419 7117
6419 7129
6420 7107
6420 7108
6421 7108
6421 7109
6422 7109
6422 7110
6423 7110
6423 7111
6424 7111
6424 7112
6425 7112
6425 7113
6426 7113
6426 7114
6427 7114
6427 7115
6428 7115
6428 7116
6429 7118
6429 7128
6429 7129
6429 12513
6429 12514
6430 7118
6430 7119
6431 7119
6431 7120
6432 7120
6432 7121
6433 7121
6433 7122
6434 7122
6434 7123
6435 7123
6435 7124
6436 7124
6436 7125
6437 7125
6437 7126
6438 7126
6438 7127
6439 7127
6439 7128
6440 7130
6440 7134
6440 7141
6441 7130
6441 7131
6442 7131
6442 7132
6443 7132
6443 7133
6444 7133
6444 7134
6445 7135
6445 7140
6445 7141
6445 7149
6446 7135
6446 7136
6447 7136
6447 7137
6448 7137
6448 7138
6449 7138
6449 7139
6450 7139
6450 7140
6451 7142
6451 7148
6451 7149
6451 7158
6452 7142
6452 7143
6453 7143
6453 7144
6454 7144
6454 7145
6455 7145
6455 7146
6456 7146
6456 7147
6457 7147
6457 7148
6458 7150
6458 7157
6458 7158
6458 7168
6459 7150
6459 7151
6460 7151
6460 7152
6461 7152
6461 7153
6462 7153
6462 7154
6463 7154
6463 7155
6464 7155
6464 7156
6465 7156
6465 7157
6466 7159
6466 7167
6466 7168
6466 7179
6467 7159
6467 7160
6468 7160
6468 7161
6469 7161
6469 7162
6470 7162
6470 7163
6471 7163
6471 7164
6472 7164
6472 7165
6473 7165
6473 7166
6474 7166
6474 7167
6475 7169
6475 7178
6475 7179
6475 7191
6476 7169
6476 7170
6477 7170
6477 7171
6478 7171
6478 7172
6479 7172
6479 7173
6480 7173
6480 7174
6481 7174
6481 7175
6482 7175
6482 7176
6483 7176
6483 7177
6484 7177
6484 7178
6485 7180
6485 7190
6485 7191
6485 12514
6485 12515
6486 7180
6486 7181
6487 7181
6487 7182
6488 7182
6488 7183
6489 7183
6489 7184
6490 7184
6490 7185
6491 7185
6491 7186
6492 7186
6492 7187
6493 7187
6493 7188
6494 7188
6494 7189
6495 7189
6495 7190
6496 7192
6496 7196
6496 7203
6497 7192
6497 7193
6498 7193
6498 7194
6499 7194
6499 7195
6500 7195
6500 7196
6501 7197
6501 7202
6501 7203
6501 7211
6502 7197
6502 7198
6503 7198
6503 7199
6504 7199
6504 7200
6505 7200
6505 7201
6506 7201
6506 7202
6507 7204
6507 7210
6507 7211
6507 7220
6508 7204
6508 7205
6509 7205
6509 7206
6510 7206
6510 7207
6511 7207
6511 7208
6512 7208
6512 7209
6513 7209
6513 7210
6514 7212
6514 7219
6514 7220
6514 7230
6515 7212
6515 7213
6516 7213
6516 7214
6517 7214
6517 7215
6518 7215
6518 7216
6519 7216
6519 7217
6520 7217
6520 7218
6521 7218
6521 7219
6522 7221
6522 7229
6522 7230
6522 7241
6523 7221
6523 7222
6524 7222
6524 7223
6525 7223
6525 7224
6526 7224
6526 7225
6527 7225
6527 7226
6528 7226
6528 7227
6529 7227
6529 7228
6530 7228
6530 7229
6531 7231
6531 7240
6531 7241
6531 7253
6532 7231
6532 7232
6533 7232
6533 7233
6534 7233
6534 7234
6535 7234
6535 7235
6536 7235
6536 7236
6537 7236
6537 7237
6538 7237
6538 7238
6539 7238
6539 7239
6540 7239
6540 7240
6541 7242
6541 7252
6541 7253
6541 12515
6541 12516
6542 7242
6542 7243
6543 7243
6543 7244
6544 7244
6544 7245
6545 7245
6545 7246
6546 7246
6546 7247
6547 7247
6547 7248
6548 7248
6548 7249
6549 7249
6549 7250
6550 7250
6550 7251
6551 7251
6551 7252
6552 7254
6552 7258
6552 7265
6553 7254
6553 7255
6554 7255
6554 7256
6555 7256
6555 7257
6556 7257
6556 7258
6557 7259
6557 7264
6557 7265
6557 7273
6558 7259
6558 7260
6559 7260
6559 7261
6560 7261
6560 7262
6561 7262
6561 7263
6562 7263
6562 7264
6563 7266
6563 7272
6563 7273
6563 7282
6564 7266
6564 7267
6565 7267
6565 7268
6566 7268
6566 7269
6567 7269
6567 7270
6568 7270
6568 7271
6569 7271
6569 7272
6570 7274
6570 7281
6570 7282
6570 7292
6571 7274
6571 7275
6572 7275
6572 7276
6573 7276
6573 7277
6574 7277
6574 7278
6575 7278
6575 7279
6576 7279
6576 7280
6577 7280
6577 7281
6578 7283
6578 7291
6578 7292
6578 7303
6579 7283
6579 7284
6580 7284
6580 7285
6581 7285
6581 7286
6582 7286
6582 7287
6583 7287
6583 7288
6584 7288
6584 7289
6585 7289
6585 7290
6586 7290
6586 7291
6587 7293
6587 7302
6587 7303
6587 7315
6588 7293
6588 7294
6589 7294
6589 7295
6590 7295
6590 7296
6591 7296
6591 7297
6592 7297
6592 7298
6593 7298
6593 7299
6594 7299
6594 7300
6595 7300
6595 7301
6596 7301
6596 7302
6597 7304
6597 7314
6597 7315
6597 12516
6597 12517
6598 7304
6598 7305
6599 7305
6599 7306
6600 7306
6600 7307
6601 7307
6601 7308
6602 7308
6602 7309
6603 7309
6603 7310
6604 7310
6604 7311
6605 7311
6605 7312
6606 7312
6606 7313
6607 7313
6607 7314
6608 7316
6608 7320
6608 7327
6609 7316
6609 7317
6610 7317
6610 7318
6611 7318
6611 7319
6612 7319
6612 7320
6613 7321
6613 7326
6613 7327
6613 7335
6614 7321
6614 7322
6615 7322
6615 7323
6616 7323
6616 7324
6617 7324
6617 7325
6618 7325
6618 7326
6619 7328
6619 7334
6619 7335
6619 7344
6620 7328
6620 7329
6621 7329
6621 7330
6622 7330
6622 7331
6623 7331
6623 7332
6624 7332
6624 7333
6625 7333
6625 7334
6626 7336
6626 7343
6626 7344
6626 7354
6627 7336
6627 7337
6628 7337
6628 7338
6629 7338
6629 7339
6630 7339
6630 7340
6631 7340
6631 7341
6632 7341
6632 7342
6633 7342
6633 7343
6634 7345
6634 7353
6634 7354
6634 7365
6635 7345
6635 7346
6636 7346
6636 7347
6637 7347
6637 7348
6638 7348
6638 7349
6639 7349
6639 7350
6640 7350
6640 7351
6641 7351
6641 7352
6642 7352
6642 7353
6643 7355
6643 7364
6643 7365
6643 7377
6644 7355
6644 7356
6645 7356
6645 7357
6646 7357
6646 7358
6647 7358
6647 7359
6648 7359
6648 7360
6649 7360
6649 7361
6650 7361
6650 7362
6651 7362
6651 7363
6652 7363
6652 7364
6653 7366
6653 7376
6653 7377
6653 12517
6653 12518
6654 7366
6654 7367
6655 7367
6655 7368
6656 7368
6656 7369
6657 7369
6657 7370
6658 7370
6658 7371
6659 7371
6659 7372
6660 7372
6660 7373
6661 7373
6661 7374
6662 7374
6662 7375
6663 7375
6663 7376
6664 7378
6664 7382
6664 7389
6665 7378
6665 7379
6666 7379
6666 7380
6667 7380
6667 7381
6668 7381
6668 7382
6669 7383
6669 7388
6669 7389
6669 7397
6670 7383
6670 7384
6671 7384
6671 7385
6672 7385
6672 7386
6673 7386
6673 7387
6674 7387
6674 7388
6675 7390
6675 7396
6675 7397
6675 7406
6676 7390
6676 7391
6677 7391
6677 7392
6678 7392
6678 7393
6679 7393
6679 7394
6680 7394
6680 7395
6681 7395
6681 7396
6682 7398
6682 7405
6682 7406
6682 7416
6683 7398
6683 7399
6684 7399
6684 7400
6685 7400
6685 7401
6686 7401
6686 7402
6687 7402
6687 7403
6688 7403
6688 7404
6689 7404
6689 7405
6690 7407
6690 7415
6690 7416
6690 7427
6691 7407
6691 7408
6692 7408
6692 7409
6693 7409
6693 7410
6694 7410
6694 7411
6695 7411
6695 7412
6696 7412
6696 7413
6697 7413
6697 7414
6698 7414
6698 7415
6699 7417
6699 7426
6699 7427
6699 7439
6700 7417
6700 7418
6701 7418
6701 7419
6702 7419
6702 7420
6703 7420
6703 7421
6704 7421
6704 7422
6705 7422
6705 7423
6706 7423
6706 7424
6707 7424
6707 7425
6708 7425
6708 7426
6709 7428
6709 7438
6709 7439
6709 12518
6709 12519
6710 7428
6710 7429
6711 7429
6711 7430
6712 7430
6712 7431
6713 7431
6713 7432
6714 7432
6714 7433
6715 7433
6715 7434
6716 7434
6716 7435
6717 7435
6717 7436
6718 7436
6718 7437
6719 7437
6719 7438
6720 7440
6720 7444
6720 7451
6721 7440
6721 7441
6722 7441
6722 7442
6723 7442
6723 7443
6724 7443
6724 7444
6725 7445
6725 7450
6725 7451
6725 7459
6726 7445
6726 7446
6727 7446
6727 7447
6728 7447
6728 7448
6729 7448
6729 7449
6730 7449
6730 7450
6731 7452
6731 7458
6731 7459
6731 7468
6732 7452
6732 7453
6733 7453
6733 7454
6734 7454
6734 7455
6735 7455
6735 7456
6736 7456
6736 7457
6737 7457
6737 7458
6738 7460
6738 7467
6738 7468
6738 7478
6739 7460
6739 7461
6740 7461
6740 7462
6741 7462
6741 7463
6742 7463
6742 7464
6743 7464
6743 7465
6744 7465
6744 7466
6745 7466
6745 7467
6746 7469
6746 7477
6746 7478
6746 7489
6747 7469
6747 7470
6748 7470
6748 7471
6749 7471
6749 7472
6750 7472
6750 7473
6751 7473
6751 7474
6752 7474
6752 7475
6753 7475
6753 7476
6754 7476
6754 7477
6755 7479
6755 7488
6755 7489
6755 7501
6756 7479
6756 7480
6757 7480
6757 7481
6758 7481
6758 7482
6759 7482
6759 7483
6760 7483
6760 7484
6761 7484
6761 7485
6762 7485
6762 7486
6763 7486
6763 7487
6764 7487
6764 7488
6765 7490
6765 7500
6765 7501
6765 12519
6765 12520
6766 7490
6766 7491
6767 7491
6767 7492
6768 7492
6768 7493
6769 7493
6769 7494
6770 7494
6770 7495
6771 7495
6771 7496
6772 7496
6772 7497
6773 7497
6773 7498
6774 7498
6774 7499
6775 7499
6775 7500
6776 7502
6776 7506
6776 7513
6777 7502
6777 7503
6778 7503
6778 7504
6779 7504
6779 7505
6780 7505
6780 7506
6781 7507
6781 7512
6781 7513
6781 7521
6782 7507
6782 7508
6783 7508
6783 7509
6784 7509
6784 7510
6785 7510
6785 7511
6786 7511
6786 7512
6787 7514
6787 7520
6787 7521
6787 7530
6788 7514
6788 7515
6789 7515
6789 7516
6790 7516
6790 7517
6791 7517
6791 7518
6792 7518
6792 7519
6793 7519
6793 7520
6794 7522
6794 7529
6794 7530
6794 7540
6795 7522
6795 7523
6796 7523
6796 7524
6797 7524
6797 7525
6798 7525
6798 7526
6799 7526
6799 7527
6800 7527
6800 7528
6801 7528
6801 7529
6802 7531
6802 7539
6802 7540
6802 7551
6803 7531
6803 7532
6804 7532
6804 7533
6805 7533
6805 7534
6806 7534
6806 7535
6807 7535
6807 7536
6808 7536
6808 7537
6809 7537
6809 7538
6810 7538
6810 7539
6811 7541
6811 7550
6811 7551
6811 7563
6812 7541
6812 7542
6813 7542
6813 7543
6814 7543
6814 7544
6815 7544
6815 7545
6816 7545
6816 7546
6817 7546
6817 7547
6818 7547
6818 7548
6819 7548
6819 7549
6820 7549
6820 7550
6821 7552
6821 7562
6821 7563
6821 12520
6821 12521
6822 7552
6822 7553
6823 7553
6823 7554
6824 7554
6824 7555
6825 7555
6825 7556
6826 7556
6826 7557
6827 7557
6827 7558
6828 7558
6828 7559
6829 7559
6829 7560
6830 7560
6830 7561
6831 7561
6831 7562
6832 7564
6832 7568
6832 7575
6833 7564
6833 7565
6834 7565
6834 7566
6835 7566
6835 7567
6836 7567
6836 7568
6837 7569
6837 7574
6837 7575
6837 7583
6838 7569
6838 7570
6839 7570
6839 7571
6840 7571
6840 7572
6841 7572
6841 7573
6842 7573
6842 7574
6843 7576
6843 7582
6843 7583
6843 7592
6844 7576
6844 7577
6845 7577
6845 7578
6846 7578
6846 7579
6847 7579
6847 7580
6848 7580
6848 7581
6849 7581
6849 7582
6850 7584
6850 7591
6850 7592
6850 7602
6851 7584
6851 7585
6852 7585
6852 7586
6853 7586
6853 7587
6854 7587
6854 7588
6855 7588
6855 7589
6856 7589
6856 7590
6857 7590
6857 7591
6858 7593
6858 7601
6858 7602
6858 7613
6859 7593
6859 7594
6860 7594
6860 7595
6861 7595
6861 7596
6862 7596
6862 7597
6863 7597
6863 7598
6864 7598
6864 7599
6865 7599
6865 7600
6866 7600
6866 7601
6867 7603
6867 7612
6867 7613
6867 7625
6868 7603
6868 7604
6869 7604
6869 7605
6870 7605
6870 7606
6871 7606
6871 7607
6872 7607
6872 7608
6873 7608
6873 7609
6874 7609
6874 7610
6875 7610
6875 7611
6876 7611
6876 7612
6877 7614
6877 7624
6877 7625
6877 12521
6877 12522
6878 7614
6878 7615
6879 7615
6879 7616
6880 7616
6880 7617
6881 7617
6881 7618
6882 7618
6882 7619
6883 7619
6883 7620
6884 7620
6884 7621
6885 7621
6885 7622
6886 7622
6886 7623
6887 7623
6887 7624
6888 7626
6888 7630
6888 7637
6889 7626
6889 7627
6890 7627
6890 7628
6891 7628
6891 7629
6892 7629
6892 7630
6893 7631
6893 7636
6893 7637
6893 7645
6894 7631
6894 7632
6895 7632
6895 7633
6896 7633
6896 7634
6897 7634
6897 7635
6898 7635
6898 7636
6899 7638
6899 7644
6899 7645
6899 7654
6900 7638
6900 7639
6901 7639
6901 7640
6902 7640
6902 7641
6903 7641
6903 7642
6904 7642
6904 7643
6905 7643
6905 7644
6906 7646
6906 7653
6906 7654
6906 7664
6907 7646
6907 7647
6908 7647
6908 7648
6909 7648
6909 7649
6910 7649
6910 7650
6911 7650
6911 7651
6912 7651
6912 7652
6913 7652
6913 7653
6914 7655
6914 7663
6914 7664
6914 7675
6915 7655
6915 7656
6916 7656
6916 7657
6917 7657
6917 7658
6918 7658
6918 7659
6919 7659
6919 7660
6920 7660
6920 7661
6921 7661
6921 7662
6922 7662
6922 7663
6923 7665
6923 7674
6923 7675
6923 7687
6924 7665
6924 7666
6925 7666
6925 7667
6926 7667
6926 7668
6927 7668
6927 7669
6928 7669
6928 7670
6929 7670
6929 7671
6930 7671
6930 7672
6931 7672
6931 7673
6932 7673
6932 7674
6933 7676
6933 7686
6933 7687
6933 12522
6933 12523
6934 7676
6934 7677
6935 7677
6935 7678
6936 7678
6936 7679
6937 7679
6937 7680
6938 7680
6938 7681
6939 7681
6939 7682
6940 7682
6940 7683
6941 7683
6941 7684
6942 7684
6942 7685
6943 7685
6943 7686
6944 7688
6944 7692
6944 7699
6945 7688
6945 7689
6946 7689
6946 7690
6947 7690
6947 7691
6948 7691
6948 7692
6949 7693
6949 7698
6949 7699
6949 7707
6950 7693
6950 7694
6951 7694
6951 7695
6952 7695
6952 7696
6953 7696
6953 7697
6954 7697
6954 7698
6955 7700
6955 7706
6955 7707
6955 7716
6956 7700
6956 7701
6957 7701
6957 7702
6958 7702
6958 7703
6959 7703
6959 7704
6960 7704
6960 7705
6961 7705
6961 7706
6962 7708
6962 7715
6962 7716
6962 7726
6963 7708
6963 7709
6964 7709
6964 7710
6965 7710
6965 7711
6966 7711
6966 7712
6967 7712
6967 7713
6968 7713
6968 7714
6969 7714
6969 7715
6970 7717
6970 7725
6970 7726
6970 7737
6971 7717
6971 7718
6972 7718
6972 7719
6973 7719
6973 7720
6974 7720
6974 7721
6975 7721
6975 7722
6976 7722
6976 7723
6977 7723
6977 7724
6978 7724
6978 7725
6979 7727
6979 7736
6979 7737
6979 7749
6980 7727
6980 7728
6981 7728
6981 7729
6982 7729
6982 7730
6983 7730
6983 7731
6984 7731
6984 7732
6985 7732
6985 7733
6986 7733
6986 7734
6987 7734
6987 7735
6988 7735
6988 7736
6989 7738
6989 7748
6989 7749
6989 12523
6989 12524
6990 7738
6990 7739
6991 7739
6991 7740
6992 7740
6992 7741
6993 7741
6993 7742
6994 7742
6994 7743
6995 7743
6995 7744
6996 7744
6996 7745
6997 7745
6997 7746
6998 7746
6998 7747
6999 7747
6999 7748
7000 7750
7000 7754
7000 7761
7001 7750
7001 7751
7002 7751
7002 7752
7003 7752
7003 7753
7004 7753
7004 7754
7005 7755
7005 7760
7005 7761
7005 7769
7006 7755
7006 7756
7007 7756
7007 7757
7008 7757
7008 7758
7009 7758
7009 7759
7010 7759
7010 7760
7011 7762
7011 7768
7011 7769
7011 7778
7012 7762
7012 7763
7013 7763
7013 7764
7014 7764
7014 7765
7015 7765
7015 7766
7016 7766
7016 7767
7017 7767
7017 7768
7018 7770
7018 7777
7018 7778
7018 7788
7019 7770
7019 7771
7020 7771
7020 7772
7021 7772
7021 7773
7022 7773
7022 7774
7023 7774
7023 7775
7024 7775
7024 7776
7025 7776
7025 7777
7026 7779
7026 7787
7026 7788
7026 7799
7027 7779
7027 7780
7028 7780
7028 7781
7029 7781
7029 7782
7030 7782
7030 7783
7031 7783
7031 7784
7032 7784
7032 7785
7033 7785
7033 7786
7034 7786
7034 7787
7035 7789
7035 7798
7035 7799
7035 7811
7036 7789
7036 7790
7037 7790
7037 7791
7038 7791
7038 7792
7039 7792
7039 7793
7040 7793
7040 7794
7041 7794
7041 7795
7042 7795
7042 7796
7043 7796
7043 7797
7044 7797
7044 7798
7045 7800
7045 7810
7045 7811
7045 12524
7045 12525
7046 7800
7046 7801
7047 7801
7047 7802
7048 7802
7048 7803
7049 7803
7049 7804
7050 7804
7050 7805
7051 7805
7051 7806
7052 7806
7052 7807
7053 7807
7053 7808
7054 7808
7054 7809
7055 7809
7055 7810
7056 7812
7056 7816
7056 7823
7057 7812
7057 7813
7058 7813
7058 7814
7059 7814
7059 7815
7060 7815
7060 7816
7061 7817
7061 7822
7061 7823
7061 7831
7062 7817
7062 7818
7063 7818
7063 7819
7064 7819
7064 7820
7065 7820
7065 7821
7066 7821
7066 7822
7067 7824
7067 7830
7067 7831
7067 7840
7068 7824
7068 7825
7069 7825
7069 7826
7070 7826
7070 7827
7071 7827
7071 7828
7072 7828
7072 7829
7073 7829
7073 7830
7074 7832
7074 7839
7074 7840
7074 7850
7075 7832
7075 7833
7076 7833
7076 7834
7077 7834
7077 7835
7078 7835
7078 7836
7079 7836
7079 7837
7080 7837
7080 7838
7081 7838
7081 7839
7082 7841
7082 7849
7082 7850
7082 7861
7083 7841
7083 7842
7084 7842
7084 7843
7085 7843
7085 7844
7086 7844
7086 7845
7087 7845
7087 7846
7088 7846
7088 7847
7089 7847
7089 7848
7090 7848
7090 7849
7091 7851
7091 7860
7091 7861
7091 7873
7092 7851
7092 7852
7093 7852
7093 7853
7094 7853
7094 7854
7095 7854
7095 7855
7096 7855
7096 7856
7097 7856
7097 7857
7098 7857
7098 7858
7099 7858
7099 7859
7100 7859
7100 7860
7101 7862
7101 7872
7101 7873
7101 12525
7101 12526
7102 7862
7102 7863
7103 7863
7103 7864
7104 7864
7104 7865
7105 7865
7105 7866
7106 7866
7106 7867
7107 7867
7107 7868
7108 7868
7108 7869
7109 7869
7109 7870
7110 7870
7110 7871
7111 7871
7111 7872
7112 7874
7112 7878
7112 7885
7113 7874
7113 7875
7114 7875
7114 7876
7115 7876
7115 7877
7116 7877
7116 7878
7117 7879
7117 7884
7117 7885
7117 7893
7118 7879
7118 7880
7119 7880
7119 7881
7120 7881
7120 7882
7121 7882
7121 7883
7122 7883
7122 7884
7123 7886
7123 7892
7123 7893
7123 7902
7124 7886
7124 7887
7125 7887
7125 7888
7126 7888
7126 7889
7127 7889
7127 7890
7128 7890
7128 7891
7129 7891
7129 7892
7130 7894
7130 7901
7130 7902
7130 7912
7131 7894
7131 7895
7132 7895
7132 7896
7133 7896
7133 7897
7134 7897
7134 7898
7135 7898
7135 7899
7136 7899
7136 7900
7137 7900
7137 7901
7138 7903
7138 7911
7138 7912
7138 7923
7139 7903
7139 7904
7140 7904
7140 7905
7141 7905
7141 7906
7142 7906
7142 7907
7143 7907
7143 7908
7144 7908
7144 7909
7145 7909
7145 7910
7146 7910
7146 7911
7147 7913
7147 7922
7147 7923
7147 7935
7148 7913
7148 7914
7149 7914
7149 7915
7150 7915
7150 7916
7151 7916
7151 7917
7152 7917
7152 7918
7153 7918
7153 7919
7154 7919
7154 7920
7155 7920
7155 7921
7156 7921
7156 7922
7157 7924
7157 7934
7157 7935
7157 12526
7157 12527
7158 7924
7158 7925
7159 7925
7159 7926
7160 7926
7160 7927
7161 7927
7161 7928
7162 7928
7162 7929
7163 7929
7163 7930
7164 7930
7164 7931
7165 7931
7165 7932
7166 7932
7166 7933
7167 7933
7167 7934
7168 7936
7168 7940
7168 7947
7169 7936
7169 7937
7170 7937
7170 7938
7171 7938
7171 7939
7172 7939
7172 7940
7173 7941
7173 7946
7173 7947
7173 7955
7174 7941
7174 7942
7175 7942
7175 7943
7176 7943
7176 7944
7177 7944
7177 7945
7178 7945
7178 7946
7179 7948
7179 7954
7179 7955
7179 7964
7180 7948
7180 7949
7181 7949
7181 7950
7182 7950
7182 7951
7183 7951
7183 7952
7184 7952
7184 7953
7185 7953
7185 7954
7186 7956
7186 7963
7186 7964
7186 7974
7187 7956
7187 7957
7188 7957
7188 7958
7189 7958
7189 7959
7190 7959
7190 7960
7191 7960
7191 7961
7192 7961
7192 7962
7193 7962
7193 7963
7194 7965
7194 7973
7194 7974
7194 7985
7195 7965
7195 7966
7196 7966
7196 7967
7197 7967
7197 7968
7198 7968
7198 7969
7199 7969
7199 7970
7200 7970
7200 7971
7201 7971
7201 7972
7202 7972
7202 7973
7203 7975
7203 7984
7203 7985
7203 7997
7204 7975
7204 7976
7205 7976
7205 7977
7206 7977
7206 7978
7207 7978
7207 7979
7208 7979
7208 7980
7209 7980
7209 7981
7210 7981
7210 7982
7211 7982
7211 7983
7212 7983
7212 7984
7213 7986
7213 7996
7213 7997
7213 12527
7213 12528
7214 7986
7214 7987
7215 7987
7215 7988
7216 7988
7216 7989
7217 7989
7217 7990
7218 7990
7218 7991
7219 7991
7219 7992
7220 7992
7220 7993
7221 7993
7221 7994
7222 7994
7222 7995
7223 7995
7223 7996
7224 7998
7224 8002
7224 8009
7225 7998
7225 7999
7226 7999
7226 8000
7227 8000
7227 8001
7228 8001
7228 8002
7229 8003
7229 8008
7229 8009
7229 8017
7230 8003
7230 8004
7231 8004
7231 8005
7232 8005
7232 8006
7233 8006
7233 8007
7234 8007
7234 8008
7235 8010
7235 8016
7235 8017
7235 8026
7236 8010
7236 8011
7237 8011
7237 8012
7238 8012
7238 8013
7239 8013
7239 8014
7240 8014
7240 8015
7241 8015
7241 8016
7242 8018
7242 8025
7242 8026
7242 8036
7243 8018
7243 8019
7244 8019
7244 8020
7245 8020
7245 8021
7246 8021
7246 8022
7247 8022
7247 8023
7248 8023
7248 8024
7249 8024
7249 8025
7250 8027
7250 8035
7250 8036
7250 8047
7251 8027
7251 8028
7252 8028
7252 8029
7253 8029
7253 8030
7254 8030
7254 8031
7255 8031
7255 8032
7256 8032
7256 8033
7257 8033
7257 8034
7258 8034
7258 8035
7259 8037
7259 8046
7259 8047
7259 8059
7260 8037
7260 8038
7261 8038
7261 8039
7262 8039
7262 8040
7263 8040
7263 8041
7264 8041
7264 8042
7265 8042
7265 8043
7266 8043
7266 8044
7267 8044
7267 8045
7268 8045
7268 8046
7269 8048
7269 8058
7269 8059
7269 12528
7269 12529
7270 8048
7270 8049
7271 8049
7271 8050
7272 8050
7272 8051
7273 8051
7273 8052
7274 8052
7274 8053
7275 8053
7275 8054
7276 8054
7276 8055
7277 8055
7277 8056
7278 8056
7278 8057
7279 8057
7279 8058
7280 8060
7280 8064
7280 8071
7281 8060
7281 8061
7282 8061
7282 8062
7283 8062
7283 8063
7284 8063
7284 8064
7285 8065
7285 8070
7285 8071
7285 8079
7286 8065
7286 8066
7287 8066
7287 8067
7288 8067
7288 8068
7289 8068
7289 8069
7290 8069
7290 8070
7291 8072
7291 8078
7291 8079
7291 8088
7292 8072
7292 8073
7293 8073
7293 8074
7294 8074
7294 8075
7295 8075
7295 8076
7296 8076
7296 8077
7297 8077
7297 8078
7298 8080
7298 8087
7298 8088
7298 8098
7299 8080
7299 8081
7300 8081
7300 8082
7301 8082
7301 8083
7302 8083
7302 8084
7303 8084
7303 8085
7304 8085
7304 8086
7305 8086
7305 8087
7306 8089
7306 8097
7306 8098
7306 8109
7307 8089
7307 8090
7308 8090
7308 8091
7309 8091
7309 8092
7310 8092
7310 8093
7311 8093
7311 8094
7312 8094
7312 8095
7313 8095
7313 8096
7314 8096
7314 8097
7315 8099
7315 8108
7315 8109
7315 8121
7316 8099
7316 8100
7317 8100
7317 8101
7318 8101
7318 8102
7319 8102
7319 8103
7320 8103
7320 8104
7321 8104
7321 8105
7322 8105
7322 8106
7323 8106
7323 8107
7324 8107
7324 8108
7325 8110
7325 8120
7325 8121
7325 12529
7325 12530
7326 8110
7326 8111
7327 8111
7327 8112
7328 8112
7328 8113
7329 8113
7329 8114
7330 8114
7330 8115
7331 8115
7331 8116
7332 8116
7332 8117
7333 8117
7333 8118
7334 8118
7334 8119
7335 8119
7335 8120
7336 8122
7336 8126
7336 8133
7337 8122
7337 8123
7338 8123
7338 8124
7339 8124
7339 8125
7340 8125
7340 8126
7341 8127
7341 8132
7341 8133
7341 8141
7342 8127
7342 8128
7343 8128
7343 8129
7344 8129
7344 8130
7345 8130
7345 8131
7346 8131
7346 8132
7347 8134
7347 8140
7347 8141
7347 8150
7348 8134
7348 8135
7349 8135
7349 8136
7350 8136
7350 8137
7351 8137
7351 8138
7352 8138
7352 8139
7353 8139
7353 8140
7354 8142
7354 8149
7354 8150
7354 8160
7355 8142
7355 8143
7356 8143
7356 8144
7357 8144
7357 8145
7358 8145
7358 8146
7359 8146
7359 8147
7360 8147
7360 8148
7361 8148
7361 8149
7362 8151
7362 8159
7362 8160
7362 8171
7363 8151
7363 8152
7364 8152
7364 8153
7365 8153
7365 8154
7366 8154
7366 8155
7367 8155
7367 8156
7368 8156
7368 8157
7369 8157
7369 8158
7370 8158
7370 8159
7371 8161
7371 8170
7371 8171
7371 8183
7372 8161
7372 8162
7373 8162
7373 8163
7374 8163
7374 8164
7375 8164
7375 8165
7376 8165
7376 8166
7377 8166
7377 8167
7378 8167
7378 8168
7379 8168
7379 8169
7380 8169
7380 8170
7381 8172
7381 8182
7381 8183
7381 12530
7381 12531
7382 8172
7382 8173
7383 8173
7383 8174
7384 8174
7384 8175
7385 8175
7385 8176
7386 8176
7386 8177
7387 8177
7387 8178
7388 8178
7388 8179
7389 8179
7389 8180
7390 8180
7390 8181
7391 8181
7391 8182
7392 8184
7392 8188
7392 8195
7393 8184
7393 8185
7394 8185
7394 8186
7395 8186
7395 8187
7396 8187
7396 8188
7397 8189
7397 8194
7397 8195
7397 8203
7398 8189
7398 8190
7399 8190
7399 8191
7400 8191
7400 8192
7401 8192
7401 8193
7402 8193
7402 8194
7403 8196
7403 8202
7403 8203
7403 8212
7404 8196
7404 8197
7405 8197
7405 8198
7406 8198
7406 8199
7407 8199
7407 8200
7408 8200
7408 8201
7409 8201
7409 8202
7410 8204
7410 8211
7410 8212
7410 8222
7411 8204
7411 8205
7412 8205
7412 8206
7413 8206
7413 8207
7414 8207
7414 8208
7415 8208
7415 8209
7416 8209
7416 8210
7417 8210
7417 8211
7418 8213
7418 8221
7418 8222
7418 8233
7419 8213
7419 8214
7420 8214
7420 8215
7421 8215
7421 8216
7422 8216
7422 8217
7423 8217
7423 8218
7424 8218
7424 8219
7425 8219
7425 8220
7426 8220
7426 8221
7427 8223
7427 8232
7427 8233
7427 8245
7428 8223
7428 8224
7429 8224
7429 8225
7430 8225
7430 8226
7431 8226
7431 8227
7432 8227
7432 8228
7433 8228
7433 8229
7434 8229
7434 8230
7435 8230
7435 8231
7436 8231
7436 8232
7437 8234
7437 8244
7437 8245
7437 12531
7437 12532
7438 8234
7438 8235
7439 8235
7439 8236
7440 8236
7440 8237
7441 8237
7441 8238
7442 8238
7442 8239
7443 8239
7443 8240
7444 8240
7444 8241
7445 8241
7445 8242
7446 8242
7446 8243
7447 8243
7447 8244
7448 8246
7448 8250
7448 8257
7449 8246
7449 8247
7450 8247
7450 8248
7451 8248
7451 8249
7452 8249
7452 8250
7453 8251
7453 8256
7453 8257
7453 8265
7454 8251
7454 8252
7455 8252
7455 8253
7456 8253
7456 8254
7457 8254
7457 8255
7458 8255
7458 8256
7459 8258
7459 8264
7459 8265
7459 8274
7460 8258
7460 8259
7461 8259
7461 8260
7462 8260
7462 8261
7463 8261
7463 8262
7464 8262
7464 8263
7465 8263
7465 8264
7466 8266
7466 8273
7466 8274
7466 8284
7467 8266
7467 8267
7468 8267
7468 8268
7469 8268
7469 8269
7470 8269
7470 8270
7471 8270
7471 8271
7472 8271
7472 8272
7473 8272
7473 8273
7474 8275
7474 8283
7474 8284
7474 8295
7475 8275
7475 8276
7476 8276
7476 8277
7477 8277
7477 8278
7478 8278
7478 8279
7479 8279
7479 8280
7480 8280
7480 8281
7481 8281
7481 8282
7482 8282
7482 8283
7483 8285
7483 8294
7483 8295
7483 8307
7484 8285
7484 8286
7485 8286
7485 8287
7486 8287
7486 8288
7487 8288
7487 8289
7488 8289
7488 8290
7489 8290
7489 8291
7490 8291
7490 8292
7491 8292
7491 8293
7492 8293
7492 8294
7493 8296
7493 8306
7493 8307
7493 12532
7493 12533
7494 8296
7494 8297
7495 8297
7495 8298
7496 8298
7496 8299
7497 8299
7497 8300
7498 8300
7498 8301
7499 8301
7499 8302
7500 8302
7500 8303
7501 8303
7501 8304
7502 8304
7502 8305
7503 8305
7503 8306
7504 8308
7504 8312
7504 8319
7505 8308
7505 8309
7506 8309
7506 8310
7507 8310
7507 8311
7508 8311
7508 8312
7509 8313
7509 8318
7509 8319
7509 8327
7510 8313
7510 8314
7511 8314
7511 8315
7512 8315
7512 8316
7513 8316
7513 8317
7514 8317
7514 8318
7515 8320
7515 8326
7515 8327
7515 8336
7516 8320
7516 8321
7517 8321
7517 8322
7518 8322
7518 8323
7519 8323
7519 8324
7520 8324
7520 8325
7521 8325
7521 8326
7522 8328
7522 8335
7522 8336
7522 8346
7523 8328
7523 8329
7524 8329
7524 8330
7525 8330
7525 8331
7526 8331
7526 8332
7527 8332
7527 8333
7528 8333
7528 8334
7529 8334
7529 8335
7530 8337
7530 8345
7530 8346
7530 8357
7531 8337
7531 8338
7532 8338
7532 8339
7533 8339
7533 8340
7534 8340
7534 8341
7535 8341
7535 8342
7536 8342
7536 8343
7537 8343
7537 8344
7538 8344
7538 8345
7539 8347
7539 8356
7539 8357
7539 8369
7540 8347
7540 8348
7541 8348
7541 8349
7542 8349
7542 8350
7543 8350
7543 8351
7544 8351
7544 8352
7545 8352
7545 8353
7546 8353
7546 8354
7547 8354
7547 8355
7548 8355
7548 8356
7549 8358
7549 8368
7549 8369
7549 12533
7549 12534
7550 8358
7550 8359
7551 8359
7551 8360
7552 8360
7552 8361
7553 8361
7553 8362
7554 8362
7554 8363
7555 8363
7555 8364
7556 8364
7556 8365
7557 8365
7557 8366
7558 8366
7558 8367
7559 8367
7559 8368
7560 8370
7560 8374
7560 8381
7561 8370
7561 8371
7562 8371
7562 8372
7563 8372
7563 8373
7564 8373
7564 8374
7565 8375
7565 8380
7565 8381
7565 8389
7566 8375
7566 8376
7567 8376
7567 8377
7568 8377
7568 8378
7569 8378
7569 8379
7570 8379
7570 8380
7571 8382
7571 8388
7571 8389
7571 8398
7572 8382
7572 8383
7573 8383
7573 8384
7574 8384
7574 8385
7575 8385
7575 8386
7576 8386
7576 8387
7577 8387
7577 8388
7578 8390
7578 8397
7578 8398
7578 8408
7579 8390
7579 8391
7580 8391
7580 8392
7581 8392
7581 8393
7582 8393
7582 8394
7583 8394
7583 8395
7584 8395
7584 8396
7585 8396
7585 8397
7586 8399
7586 8407
7586 8408
7586 8419
7587 8399
7587 8400
7588 8400
7588 8401
7589 8401
7589 8402
7590 8402
7590 8403
7591 8403
7591 8404
7592 8404
7592 8405
7593 8405
7593 8406
7594 8406
7594 8407
7595 8409
7595 8418
7595 8419
7595 8431
7596 8409
7596 8410
7597 8410
7597 8411
7598 8411
7598 8412
7599 8412
7599 8413
7600 8413
7600 8414
7601 8414
7601 8415
7602 8415
7602 8416
7603 8416
7603 8417
7604 8417
7604 8418
7605 8420
7605 8430
7605 8431
7605 12534
7605 12535
7606 8420
7606 8421
7607 8421
7607 8422
7608 8422
7608 8423
7609 8423
7609 8424
7610 8424
7610 8425
7611 8425
7611 8426
7612 8426
7612 8427
7613 8427
7613 8428
7614 8428
7614 8429
7615 8429
7615 8430
7616 8432
7616 8436
7616 8443
7617 8432
7617 8433
7618 8433
7618 8434
7619 8434
7619 8435
7620 8435
7620 8436
7621 8437
7621 8442
7621 8443
7621 8451
7622 8437
7622 8438
7623 8438
7623 8439
7624 8439
7624 8440
7625 8440
7625 8441
7626 8441
7626 8442
7627 8444
7627 8450
7627 8451
7627 8460
7628 8444
7628 8445
7629 8445
7629 8446
7630 8446
7630 8447
7631 8447
7631 8448
7632 8448
7632 8449
7633 8449
7633 8450
7634 8452
7634 8459
7634 8460
7634 8470
7635 8452
7635 8453
7636 8453
7636 8454
7637 8454
7637 8455
7638 8455
7638 8456
7639 8456
7639 8457
7640 8457
7640 8458
7641 8458
7641 8459
7642 8461
7642 8469
7642 8470
7642 8481
7643 8461
7643 8462
7644 8462
7644 8463
7645 8463
7645 8464
7646 8464
7646 8465
7647 8465
7647 8466
7648 8466
7648 8467
7649 8467
7649 8468
7650 8468
7650 8469
7651 8471
7651 8480
7651 8481
7651 8493
7652 8471
7652 8472
7653 8472
7653 8473
7654 8473
7654 8474
7655 8474
7655 8475
7656 8475
7656 8476
7657 8476
7657 8477
7658 8477
7658 8478
7659 8478
7659 8479
7660 8479
7660 8480
7661 8482
7661 8492
7661 8493
7661 12535
7661 12536
7662 8482
7662 8483
7663 8483
7663 8484
7664 8484
7664 8485
7665 8485
7665 8486
7666 8486
7666 8487
7667 8487
7667 8488
7668 8488
7668 8489
7669 8489
7669 8490
7670 8490
7670 8491
7671 8491
7671 8492
7672 8494
7672 8498
7672 8505
7673 8494
7673 8495
7674 8495
7674 8496
7675 8496
7675 8497
7676 8497
7676 8498
7677 8499
7677 8504
7677 8505
7677 8513
7678 8499
7678 8500
7679 8500
7679 8501
7680 8501
7680 8502
7681 8502
7681 8503
7682 8503
7682 8504
7683 8506
7683 8512
7683 8513
7683 8522
7684 8506
7684 8507
7685 8507
7685 8508
7686 8508
7686 8509
7687 8509
7687 8510
7688 8510
7688 8511
7689 8511
7689 8512
7690 8514
7690 8521
7690 8522
7690 8532
7691 8514
7691 8515
7692 8515
7692 8516
7693 8516
7693 8517
7694 8517
7694 8518
7695 8518
7695 8519
7696 8519
7696 8520
7697 8520
7697 8521
7698 8523
7698 8531
7698 8532
7698 8543
7699 8523
7699 8524
7700 8524
7700 8525
7701 8525
7701 8526
7702 8526
7702 8527
7703 8527
7703 8528
7704 8528
7704 8529
7705 8529
7705 8530
7706 8530
7706 8531
7707 8533
7707 8542
7707 8543
7707 8555
7708 8533
7708 8534
7709 8534
7709 8535
7710 8535
7710 8536
7711 8536
7711 8537
7712 8537
7712 8538
7713 8538
7713 8539
7714 8539
7714 8540
7715 8540
7715 8541
7716 8541
7716 8542
7717 8544
7717 8554
7717 8555
7717 12536
7717 12537
7718 8544
7718 8545
7719 8545
7719 8546
7720 8546
7720 8547
7721 8547
7721 8548
7722 8548
7722 8549
7723 8549
7723 8550
7724 8550
7724 8551
7725 8551
7725 8552
7726 8552
7726 8553
7727 8553
7727 8554
7728 8556
7728 8560
7728 8567
7729 8556
7729 8557
7730 8557
7730 8558
7731 8558
7731 8559
7732 8559
7732 8560
7733 8561
7733 8566
7733 8567
7733 8575
7734 8561
7734 8562
7735 8562
7735 8563
7736 8563
7736 8564
7737 8564
7737 8565
7738 8565
7738 8566
7739 8568
7739 8574
7739 8575
7739 8584
7740 8568
7740 8569
7741 8569
7741 8570
7742 8570
7742 8571
7743 8571
7743 8572
7744 8572
7744 8573
7745 8573
7745 8574
7746 8576
7746 8583
7746 8584
7746 8594
7747 8576
7747 8577
7748 8577
7748 8578
7749 8578
7749 8579
7750 8579
7750 8580
7751 8580
7751 8581
7752 8581
7752 8582
7753 8582
7753 8583
7754 8585
7754 8593
7754 8594
7754 8605
7755 8585
7755 8586
7756 8586
7756 8587
7757 8587
7757 8588
7758 8588
7758 8589
7759 8589
7759 8590
7760 8590
7760 8591
7761 8591
7761 8592
7762 8592
7762 8593
7763 8595
7763 8604
7763 8605
7763 8617
7764 8595
7764 8596
7765 8596
7765 8597
7766 8597
7766 8598
7767 8598
7767 8599
7768 8599
7768 8600
7769 8600
7769 8601
7770 8601
7770 8602
7771 8602
7771 8603
7772 8603
7772 8604
7773 8606
7773 8616
7773 8617
7773 12537
7773 12538
7774 8606
7774 8607
7775 8607
7775 8608
7776 8608
7776 8609
7777 8609
7777 8610
7778 8610
7778 8611
7779 8611
7779 8612
7780 8612
7780 8613
7781 8613
7781 8614
7782 8614
7782 8615
7783 8615
7783 8616
7784 8618
7784 8622
7784 8629
7785 8618
7785 8619
7786 8619
7786 8620
7787 8620
7787 8621
7788 8621
7788 8622
7789 8623
7789 8628
7789 8629
7789 8637
7790 8623
7790 8624
7791 8624
7791 8625
7792 8625
7792 8626
7793 8626
7793 8627
7794 8627
7794 8628
7795 8630
7795 8636
7795 8637
7795 8646
7796 8630
7796 8631
7797 8631
7797 8632
7798 8632
7798 8633
7799 8633
7799 8634
7800 8634
7800 8635
7801 8635
7801 8636
7802 8638
7802 8645
7802 8646
7802 8656
7803 8638
7803 8639
7804 8639
7804 8640
7805 8640
7805 8641
7806 8641
7806 8642
7807 8642
7807 8643
7808 8643
7808 8644
7809 8644
7809 8645
7810 8647
7810 8655
7810 8656
7810 8667
7811 8647
7811 8648
7812 8648
7812 8649
7813 8649
7813 8650
7814 8650
7814 8651
7815 8651
7815 8652
7816 8652
7816 8653
7817 8653
7817 8654
7818 8654
7818 8655
7819 8657
7819 8666
7819 8667
7819 8679
7820 8657
7820 8658
7821 8658
7821 8659
7822 8659
7822 8660
7823 8660
7823 8661
7824 8661
7824 8662
7825 8662
7825 8663
7826 8663
7826 8664
7827 8664
7827 8665
7828 8665
7828 8666
7829 8668
7829 8678
7829 8679
7829 12538
7829 12539
7830 8668
7830 8669
7831 8669
7831 8670
7832 8670
7832 8671
7833 8671
7833 8672
7834 8672
7834 8673
7835 8673
7835 8674
7836 8674
7836 8675
7837 8675
7837 8676
7838 8676
7838 8677
7839 8677
7839 8678
7840 8680
7840 8684
7840 8691
7841 8680
7841 8681
7842 8681
7842 8682
7843 8682
7843 8683
7844 8683
7844 8684
7845 8685
7845 8690
7845 8691
7845 8699
7846 8685
7846 8686
7847 8686
7847 8687
7848 8687
7848 8688
7849 8688
7849 8689
7850 8689
7850 8690
7851 8692
7851 8698
7851 8699
7851 8708
7852 8692
7852 8693
7853 8693
7853 8694
7854 8694
7854 8695
7855 8695
7855 8696
7856 8696
7856 8697
7857 8697
7857 8698
7858 8700
7858 8707
7858 8708
7858 8718
7859 8700
7859 8701
7860 8701
7860 8702
7861 8702
7861 8703
7862 8703
7862 8704
7863 8704
7863 8705
7864 8705
7864 8706
7865 8706
7865 8707
7866 8709
7866 8717
7866 8718
7866 8729
7867 8709
7867 8710
7868 8710
7868 8711
7869 8711
7869 8712
7870 8712
7870 8713
7871 8713
7871 8714
7872 8714
7872 8715
7873 8715
7873 8716
7874 8716
7874 8717
7875 8719
7875 8728
7875 8729
7875 8741
7876 8719
7876 8720
7877 8720
7877 8721
7878 8721
7878 8722
7879 8722
7879 8723
7880 8723
7880 8724
7881 8724
7881 8725
7882 8725
7882 8726
7883 8726
7883 8727
7884 8727
7884 8728
7885 8730
7885 8740
7885 8741
7885 12539
7885 12540
7886 8730
7886 8731
7887 8731
7887 8732
7888 8732
7888 8733
7889 8733
7889 8734
7890 8734
7890 8735
7891 8735
7891 8736
7892 8736
7892 8737
7893 8737
7893 8738
7894 8738
7894 8739
7895 8739
7895 8740
7896 8742
7896 8746
7896 8753
7897 8742
7897 8743
7898 8743
7898 8744
7899 8744
7899 8745
7900 8745
7900 8746
7901 8747
7901 8752
7901 8753
7901 8761
7902 8747
7902 8748
7903 8748
7903 8749
7904 8749
7904 8750
7905 8750
7905 8751
7906 8751
7906 8752
7907 8754
7907 8760
7907 8761
7907 8770
7908 8754
7908 8755
7909 8755
7909 8756
7910 8756
7910 8757
7911 8757
7911 8758
7912 8758
7912 8759
7913 8759
7913 8760
7914 8762
7914 8769
7914 8770
7914 8780
7915 8762
7915 8763
7916 8763
7916 8764
7917 8764
7917 8765
7918 8765
7918 8766
7919 8766
7919 8767
7920 8767
7920 8768
7921 8768
7921 8769
7922 8771
7922 8779
7922 8780
7922 8791
7923 8771
7923 8772
7924 8772
7924 8773
7925 8773
7925 8774
7926 8774
7926 8775
7927 8775
7927 8776
7928 8776
7928 8777
7929 8777
7929 8778
7930 8778
7930 8779
7931 8781
7931 8790
7931 8791
7931 8803
7932 8781
7932 8782
7933 8782
7933 8783
7934 8783
7934 8784
7935 8784
7935 8785
7936 8785
7936 8786
7937 8786
7937 8787
7938 8787
7938 8788
7939 8788
7939 8789
7940 8789
7940 8790
7941 8792
7941 8802
7941 8803
7941 12540
7941 12541
7942 8792
7942 8793
7943 8793
7943 8794
7944 8794
7944 8795
7945 8795
7945 8796
7946 8796
7946 8797
7947 8797
7947 8798
7948 8798
7948 8799
7949 8799
7949 8800
7950 8800
7950 8801
7951 8801
7951 8802
7952 8804
7952 8808
7952 8815
7953 8804
7953 8805
7954 8805
7954 8806
7955 8806
7955 8807
7956 8807
7956 8808
7957 8809
7957 8814
7957 8815
7957 8823
7958 8809
7958 8810
7959 8810
7959 8811
7960 8811
7960 8812
7961 8812
7961 8813
7962 8813
7962 8814
7963 8816
7963 8822
7963 8823
7963 8832
7964 8816
7964 8817
7965 8817
7965 8818
7966 8818
7966 8819
7967 8819
7967 8820
7968 8820
7968 8821
7969 8821
7969 8822
7970 8824
7970 8831
7970 8832
7970 8842
7971 8824
7971 8825
7972 8825
7972 8826
7973 8826
7973 8827
7974 8827
7974 8828
7975 8828
7975 8829
7976 8829
7976 8830
7977 8830
7977 8831
7978 8833
7978 8841
7978 8842
7978 8853
7979 8833
7979 8834
7980 8834
7980 8835
7981 8835
7981 8836
7982 8836
7982 8837
7983 8837
7983 8838
7984 8838
7984 8839
7985 8839
7985 8840
7986 8840
7986 8841
7987 8843
7987 8852
7987 8853
7987 8865
7988 8843
7988 8844
7989 8844
7989 8845
7990 8845
7990 8846
7991 8846
7991 8847
7992 8847
7992 8848
7993 8848
7993 8849
7994 8849
7994 8850
7995 8850
7995 8851
7996 8851
7996 8852
7997 8854
7997 8864
7997 8865
7997 12541
7997 12542
7998 8854
7998 8855
7999 8855
7999 8856
8000 8856
8000 8857
8001 8857
8001 8858
8002 8858
8002 8859
8003 8859
8003 8860
8004 8860
8004 8861
8005 8861
8005 8862
8006 8862
8006 8863
8007 8863
8007 8864
8008 8866
8008 8870
8008 8877
8009 8866
8009 8867
8010 8867
8010 8868
8011 8868
8011 8869
8012 8869
8012 8870
8013 8871
8013 8876
8013 8877
8013 8885
8014 8871
8014 8872
8015 8872
8015 8873
8016 8873
8016 8874
8017 8874
8017 8875
8018 8875
8018 8876
8019 8878
8019 8884
8019 8885
8019 8894
8020 8878
8020 8879
8021 8879
8021 8880
8022 8880
8022 8881
8023 8881
8023 8882
8024 8882
8024 8883
8025 8883
8025 8884
8026 8886
8026 8893
8026 8894
8026 8904
8027 8886
8027 8887
8028 8887
8028 8888
8029 8888
8029 8889
8030 8889
8030 8890
8031 8890
8031 8891
8032 8891
8032 8892
8033 8892
8033 8893
8034 8895
8034 8903
8034 8904
8034 8915
8035 8895
8035 8896
8036 8896
8036 8897
8037 8897
8037 8898
8038 8898
8038 8899
8039 8899
8039 8900
8040 8900
8040 8901
8041 8901
8041 8902
8042 8902
8042 8903
8043 8905
8043 8914
8043 8915
8043 8927
8044 8905
8044 8906
8045 8906
8045 8907
8046 8907
8046 8908
8047 8908
8047 8909
8048 8909
8048 8910
8049 8910
8049 8911
8050 8911
8050 8912
8051 8912
8051 8913
8052 8913
8052 8914
8053 8916
8053 8926
8053 8927
8053 12542
8053 12543
8054 8916
8054 8917
8055 8917
8055 8918
8056 8918
8056 8919
8057 8919
8057 8920
8058 8920
8058 8921
8059 8921
8059 8922
8060 8922
8060 8923
8061 8923
8061 8924
8062 8924
8062 8925
8063 8925
8063 8926
8064 8928
8064 8932
8064 8939
8065 8928
8065 8929
8066 8929
8066 8930
8067 8930
8067 8931
8068 8931
8068 8932
8069 8933
8069 8938
8069 8939
8069 8947
8070 8933
8070 8934
8071 8934
8071 8935
8072 8935
8072 8936
8073 8936
8073 8937
8074 8937
8074 8938
8075 8940
8075 8946
8075 8947
8075 8956
8076 8940
8076 8941
8077 8941
8077 8942
8078 8942
8078 8943
8079 8943
8079 8944
8080 8944
8080 8945
8081 8945
8081 8946
8082 8948
8082 8955
8082 8956
8082 8966
8083 8948
8083 8949
8084 8949
8084 8950
8085 8950
8085 8951
8086 8951
8086 8952
8087 8952
8087 8953
8088 8953
8088 8954
8089 8954
8089 8955
8090 8957
8090 8965
8090 8966
8090 8977
8091 8957
8091 8958
8092 8958
8092 8959
8093 8959
8093 8960
8094 8960
8094 8961
8095 8961
8095 8962
8096 8962
8096 8963
8097 8963
8097 8964
8098 8964
8098 8965
8099 8967
8099 8976
8099 8977
8099 8989
8100 8967
8100 8968
8101 8968
8101 8969
8102 8969
8102 8970
8103 8970
8103 8971
8104 8971
8104 8972
8105 8972
8105 8973
8106 8973
8106 8974
8107 8974
8107 8975
8108 8975
8108 8976
8109 8978
8109 8988
8109 8989
8109 12543
8109 12544
8110 8978
8110 8979
8111 8979
8111 8980
8112 8980
8112 8981
8113 8981
8113 8982
8114 8982
8114 8983
8115 8983
8115 8984
8116 8984
8116 8985
8117 8985
8117 8986
8118 8986
8118 8987
8119 8987
8119 8988
8120 8990
8120 8994
8120 9001
8121 8990
8121 8991
8122 8991
8122 8992
8123 8992
8123 8993
8124 8993
8124 8994
8125 8995
8125 9000
8125 9001
8125 9009
8126 8995
8126 8996
8127 8996
8127 8997
8128 8997
8128 8998
8129 8998
8129 8999
8130 8999
8130 9000
8131 9002
8131 9008
8131 9009
8131 9018
8132 9002
8132 9003
8133 9003
8133 9004
8134 9004
8134 9005
8135 9005
8135 9006
8136 9006
8136 9007
8137 9007
8137 9008
8138 9010
8138 9017
8138 9018
8138 9028
8139 9010
8139 9011
8140 9011
8140 9012
8141 9012
8141 9013
8142 9013
8142 9014
8143 9014
8143 9015
8144 9015
8144 9016
8145 9016
8145 9017
8146 9019
8146 9027
8146 9028
8146 9039
8147 9019
8147 9020
8148 9020
8148 9021
8149 9021
8149 9022
8150 9022
8150 9023
8151 9023
8151 9024
8152 9024
8152 9025
8153 9025
8153 9026
8154 9026
8154 9027
8155 9029
8155 9038
8155 9039
8155 9051
8156 9029
8156 9030
8157 9030
8157 9031
8158 9031
8158 9032
8159 9032
8159 9033
8160 9033
8160 9034
8161 9034
8161 9035
8162 9035
8162 9036
8163 9036
8163 9037
8164 9037
8164 9038
8165 9040
8165 9050
8165 9051
8165 12544
8165 12545
8166 9040
8166 9041
8167 9041
8167 9042
8168 9042
8168 9043
8169 9043
8169 9044
8170 9044
8170 9045
8171 9045
8171 9046
8172 9046
8172 9047
8173 9047
8173 9048
8174 9048
8174 9049
8175 9049
8175 9050
8176 9052
8176 9056
8176 9063
8177 9052
8177 9053
8178 9053
8178 9054
8179 9054
8179 9055
8180 9055
8180 9056
8181 9057
8181 9062
8181 9063
8181 9071
8182 9057
8182 9058
8183 9058
8183 9059
8184 9059
8184 9060
8185 9060
8185 9061
8186 9061
8186 9062
8187 9064
8187 9070
8187 9071
8187 9080
8188 9064
8188 9065
8189 9065
8189 9066
8190 9066
8190 9067
8191 9067
8191 9068
8192 9068
8192 9069
8193 9069
8193 9070
8194 9072
8194 9079
8194 9080
8194 9090
8195 9072
8195 9073
8196 9073
8196 9074
8197 9074
8197 9075
8198 9075
8198 9076
8199 9076
8199 9077
8200 9077
8200 9078
8201 9078
8201 9079
8202 9081
8202 9089
8202 9090
8202 9101
8203 9081
8203 9082
8204 9082
8204 9083
8205 9083
8205 9084
8206 9084
8206 9085
8207 9085
8207 9086
8208 9086
8208 9087
8209 9087
8209 9088
8210 9088
8210 9089
8211 9091
8211 9100
8211 9101
8211 9113
8212 9091
8212 9092
8213 9092
8213 9093
8214 9093
8214 9094
8215 9094
8215 9095
8216 9095
8216 9096
8217 9096
8217 9097
8218 9097
8218 9098
8219 9098
8219 9099
8220 9099
8220 9100
8221 9102
8221 9112
8221 9113
8221 12545
8221 12546
8222 9102
8222 9103
8223 9103
8223 9104
8224 9104
8224 9105
8225 9105
8225 9106
8226 9106
8226 9107
8227 9107
8227 9108
8228 9108
8228 9109
8229 9109
8229 9110
8230 9110
8230 9111
8231 9111
8231 9112
8232 9114
8232 9118
8232 9125
8233 9114
8233 9115
8234 9115
8234 9116
8235 9116
8235 9117
8236 9117
8236 9118
8237 9119
8237 9124
8237 9125
8237 9133
8238 9119
8238 9120
8239 9120
8239 9121
8240 9121
8240 9122
8241 9122
8241 9123
8242 9123
8242 9124
8243 9126
8243 9132
8243 9133
8243 9142
8244 9126
8244 9127
8245 9127
8245 9128
8246 9128
8246 9129
8247 9129
8247 9130
8248 9130
8248 9131
8249 9131
8249 9132
8250 9134
8250 9141
8250 9142
8250 9152
8251 9134
8251 9135
8252 9135
8252 9136
8253 9136
8253 9137
8254 9137
8254 9138
8255 9138
8255 9139
8256 9139
8256 9140
8257 9140
8257 9141
8258 9143
8258 9151
8258 9152
8258 9163
8259 9143
8259 9144
8260 9144
8260 9145
8261 9145
8261 9146
8262 9146
8262 9147
8263 9147
8263 9148
8264 9148
8264 9149
8265 9149
8265 9150
8266 9150
8266 9151
8267 9153
8267 9162
8267 9163
8267 9175
8268 9153
8268 9154
8269 9154
8269 9155
8270 9155
8270 9156
8271 9156
8271 9157
8272 9157
8272 9158
8273 9158
8273 9159
8274 9159
8274 9160
8275 9160
8275 9161
8276 9161
8276 9162
8277 9164
8277 9174
8277 9175
8277 12546
8277 12547
8278 9164
8278 9165
8279 9165
8279 9166
8280 9166
8280 9167
8281 9167
8281 9168
8282 9168
8282 9169
8283 9169
8283 9170
8284 9170
8284 9171
8285 9171
8285 9172
8286 9172
8286 9173
8287 9173
8287 9174
8288 9176
8288 9180
8288 9187
8289 9176
8289 9177
8290 9177
8290 9178
8291 9178
8291 9179
8292 9179
8292 9180
8293 9181
8293 9186
8293 9187
8293 9195
8294 9181
8294 9182
8295 9182
8295 9183
8296 9183
8296 9184
8297 9184
8297 9185
8298 9185
8298 9186
8299 9188
8299 9194
8299 9195
8299 9204
8300 9188
8300 9189
8301 9189
8301 9190
8302 9190
8302 9191
8303 9191
8303 9192
8304 9192
8304 9193
8305 9193
8305 9194
8306 9196
8306 9203
8306 9204
8306 9214
8307 9196
8307 9197
8308 9197
8308 9198
8309 9198
8309 9199
8310 9199
8310 9200
8311 9200
8311 9201
8312 9201
8312 9202
8313 9202
8313 9203
8314 9205
8314 9213
8314 9214
8314 9225
8315 9205
8315 9206
8316 9206
8316 9207
8317 9207
8317 9208
8318 9208
8318 9209
8319 9209
8319 9210
8320 9210
8320 9211
8321 9211
8321 9212
8322 9212
8322 9213
8323 9215
8323 9224
8323 9225
8323 9237
8324 9215
8324 9216
8325 9216
8325 9217
8326 9217
8326 9218
8327 9218
8327 9219
8328 9219
8328 9220
8329 9220
8329 9221
8330 9221
8330 9222
8331 9222
8331 9223
8332 9223
8332 9224
8333 9226
8333 9236
8333 9237
8333 12547
8333 12548
8334 9226
8334 9227
8335 9227
8335 9228
8336 9228
8336 9229
8337 9229
8337 9230
8338 9230
8338 9231
8339 9231
8339 9232
8340 9232
8340 9233
8341 9233
8341 9234
8342 9234
8342 9235
8343 9235
8343 9236
8344 9238
8344 9242
8344 9249
8345 9238
8345 9239
8346 9239
8346 9240
8347 9240
8347 9241
8348 9241
8348 9242
8349 9243
8349 9248
8349 9249
8349 9257
8350 9243
8350 9244
8351 9244
8351 9245
8352 9245
8352 9246
8353 9246
8353 9247
8354 9247
8354 9248
8355 9250
8355 9256
8355 9257
8355 9266
8356 9250
8356 9251
8357 9251
8357 9252
8358 9252
8358 9253
8359 9253
8359 9254
8360 9254
8360 9255
8361 9255
8361 9256
8362 9258
8362 9265
8362 9266
8362 9276
8363 9258
8363 9259
8364 9259
8364 9260
8365 9260
8365 9261
8366 9261
8366 9262
8367 9262
8367 9263
8368 9263
8368 9264
8369 9264
8369 9265
8370 9267
8370 9275
8370 9276
8370 9287
8371 9267
8371 9268
8372 9268
8372 9269
8373 9269
8373 9270
8374 9270
8374 9271
8375 9271
8375 9272
8376 9272
8376 9273
8377 9273
8377 9274
8378 9274
8378 9275
8379 9277
8379 9286
8379 9287
8379 9299
8380 9277
8380 9278
8381 9278
8381 9279
8382 9279
8382 9280
8383 9280
8383 9281
8384 9281
8384 9282
8385 9282
8385 9283
8386 9283
8386 9284
8387 9284
8387 9285
8388 9285
8388 9286
8389 9288
8389 9298
8389 9299
8389 12548
8389 12549
8390 9288
8390 9289
8391 9289
8391 9290
8392 9290
8392 9291
8393 9291
8393 9292
8394 9292
8394 9293
8395 9293
8395 9294
8396 9294
8396 9295
8397 9295
8397 9296
8398 9296
8398 9297
8399 9297
8399 9298
8400 9300
8400 9304
8400 9311
8401 9300
8401 9301
8402 9301
8402 9302
8403 9302
8403 9303
8404 9303
8404 9304
8405 9305
8405 9310
8405 9311
8405 9319
8406 9305
8406 9306
8407 9306
8407 9307
8408 9307
8408 9308
8409 9308
8409 9309
8410 9309
8410 9310
8411 9312
8411 9318
8411 9319
8411 9328
8412 9312
8412 9313
8413 9313
8413 9314
8414 9314
8414 9315
8415 9315
8415 9316
8416 9316
8416 9317
8417 9317
8417 9318
8418 9320
8418 9327
8418 9328
8418 9338
8419 9320
8419 9321
8420 9321
8420 9322
8421 9322
8421 9323
8422 9323
8422 9324
8423 9324
8423 9325
8424 9325
8424 9326
8425 9326
8425 9327
8426 9329
8426 9337
8426 9338
8426 9349
8427 9329
8427 9330
8428 9330
8428 9331
8429 9331
8429 9332
8430 9332
8430 9333
8431 9333
8431 9334
8432 9334
8432 9335
8433 9335
8433 9336
8434 9336
8434 9337
8435 9339
8435 9348
8435 9349
8435 9361
8436 9339
8436 9340
8437 9340
8437 9341
8438 9341
8438 9342
8439 9342
8439 9343
8440 9343
8440 9344
8441 9344
8441 9345
8442 9345
8442 9346
8443 9346
8443 9347
8444 9347
8444 9348
8445 9350
8445 9360
8445 9361
8445 12549
8445 12550
8446 9350
8446 9351
8447 9351
8447 9352
8448 9352
8448 9353
8449 9353
8449 9354
8450 9354
8450 9355
8451 9355
8451 9356
8452 9356
8452 9357
8453 9357
8453 9358
8454 9358
8454 9359
8455 9359
8455 9360
8456 9362
8456 9366
8456 9373
8457 9362
8457 9363
8458 9363
8458 9364
8459 9364
8459 9365
8460 9365
8460 9366
8461 9367
8461 9372
8461 9373
8461 9381
8462 9367
8462 9368
8463 9368
8463 9369
8464 9369
8464 9370
8465 9370
8465 9371
8466 9371
8466 9372
8467 9374
8467 9380
8467 9381
8467 9390
8468 9374
8468 9375
8469 9375
8469 9376
8470 9376
8470 9377
8471 9377
8471 9378
8472 9378
8472 9379
8473 9379
8473 9380
8474 9382
8474 9389
8474 9390
8474 9400
8475 9382
8475 9383
8476 9383
8476 9384
8477 9384
8477 9385
8478 9385
8478 9386
8479 9386
8479 9387
8480 9387
8480 9388
8481 9388
8481 9389
8482 9391
8482 9399
8482 9400
8482 9411
8483 9391
8483 9392
8484 9392
8484 9393
8485 9393
8485 9394
8486 9394
8486 9395
8487 9395
8487 9396
8488 9396
8488 9397
8489 9397
8489 9398
8490 9398
8490 9399
8491 9401
8491 9410
8491 9411
8491 9423
8492 9401
8492 9402
8493 9402
8493 9403
8494 9403
8494 9404
8495 9404
8495 9405
8496 9405
8496 9406
8497 9406
8497 9407
8498 9407
8498 9408
8499 9408
8499 9409
8500 9409
8500 9410
8501 9412
8501 9422
8501 9423
8501 12550
8501 12551
8502 9412
8502 9413
8503 9413
8503 9414
8504 9414
8504 9415
8505 9415
8505 9416
8506 9416
8506 9417
8507 9417
8507 9418
8508 9418
8508 9419
8509 9419
8509 9420
8510 9420
8510 9421
8511 9421
8511 9422
8512 9424
8512 9428
8512 9435
8513 9424
8513 9425
8514 9425
8514 9426
8515 9426
8515 9427
8516 9427
8516 9428
8517 9429
8517 9434
8517 9435
8517 9443
8518 9429
8518 9430
8519 9430
8519 9431
8520 9431
8520 9432
8521 9432
8521 9433
8522 9433
8522 9434
8523 9436
8523 9442
8523 9443
8523 9452
8524 9436
8524 9437
8525 9437
8525 9438
8526 9438
8526 9439
8527 9439
8527 9440
8528 9440
8528 9441
8529 9441
8529 9442
8530 9444
8530 9451
8530 9452
8530 9462
8531 9444
8531 9445
8532 9445
8532 9446
8533 9446
8533 9447
8534 9447
8534 9448
8535 9448
8535 9449
8536 9449
8536 9450
8537 9450
8537 9451
8538 9453
8538 9461
8538 9462
8538 9473
8539 9453
8539 9454
8540 9454
8540 9455
8541 9455
8541 9456
8542 9456
8542 9457
8543 9457
8543 9458
8544 9458
8544 9459
8545 9459
8545 9460
8546 9460
8546 9461
8547 9463
8547 9472
8547 9473
8547 9485
8548 9463
8548 9464
8549 9464
8549 9465
8550 9465
8550 9466
8551 9466
8551 9467
8552 9467
8552 9468
8553 9468
8553 9469
8554 9469
8554 9470
8555 9470
8555 9471
8556 9471
8556 9472
8557 9474
8557 9484
8557 9485
8557 12551
8557 12552
8558 9474
8558 9475
8559 9475
8559 9476
8560 9476
8560 9477
8561 9477
8561 9478
8562 9478
8562 9479
8563 9479
8563 9480
8564 9480
8564 9481
8565 9481
8565 9482
8566 9482
8566 9483
8567 9483
8567 9484
8568 9486
8568 9490
8568 9497
8569 9486
8569 9487
8570 9487
8570 9488
8571 9488
8571 9489
8572 9489
8572 9490
8573 9491
8573 9496
8573 9497
8573 9505
8574 9491
8574 9492
8575 9492
8575 9493
8576 9493
8576 9494
8577 9494
8577 9495
8578 9495
8578 9496
8579 9498
8579 9504
8579 9505
8579 9514
8580 9498
8580 9499
8581 9499
8581 9500
8582 9500
8582 9501
8583 9501
8583 9502
8584 9502
8584 9503
8585 9503
8585 9504
8586 9506
8586 9513
8586 9514
8586 9524
8587 9506
8587 9507
8588 9507
8588 9508
8589 9508
8589 9509
8590 9509
8590 9510
8591 9510
8591 9511
8592 9511
8592 9512
8593 9512
8593 9513
8594 9515
8594 9523
8594 9524
8594 9535
8595 9515
8595 9516
8596 9516
8596 9517
8597 9517
8597 9518
8598 9518
8598 9519
8599 9519
8599 9520
8600 9520
8600 9521
8601 9521
8601 9522
8602 9522
8602 9523
8603 9525
8603 9534
8603 9535
8603 9547
8604 9525
8604 9526
8605 9526
8605 9527
8606 9527
8606 9528
8607 9528
8607 9529
8608 9529
8608 9530
8609 9530
8609 9531
8610 9531
8610 9532
8611 9532
8611 9533
8612 9533
8612 9534
8613 9536
8613 9546
8613 9547
8613 12552
8613 12553
8614 9536
8614 9537
8615 9537
8615 9538
8616 9538
8616 9539
8617 9539
8617 9540
8618 9540
8618 9541
8619 9541
8619 9542
8620 9542
8620 9543
8621 9543
8621 9544
8622 9544
8622 9545
8623 9545
8623 9546
8624 9548
8624 9552
8624 9559
8625 9548
8625 9549
8626 9549
8626 9550
8627 9550
8627 9551
8628 9551
8628 9552
8629 9553
8629 9558
8629 9559
8629 9567
8630 9553
8630 9554
8631 9554
8631 9555
8632 9555
8632 9556
8633 9556
8633 9557
8634 9557
8634 9558
8635 9560
8635 9566
8635 9567
8635 9576
8636 9560
8636 9561
8637 9561
8637 9562
8638 9562
8638 9563
8639 9563
8639 9564
8640 9564
8640 9565
8641 9565
8641 9566
8642 9568
8642 9575
8642 9576
8642 9586
8643 9568
8643 9569
8644 9569
8644 9570
8645 9570
8645 9571
8646 9571
8646 9572
8647 9572
8647 9573
8648 9573
8648 9574
8649 9574
8649 9575
8650 9577
8650 9585
8650 9586
8650 9597
8651 9577
8651 9578
8652 9578
8652 9579
8653 9579
8653 9580
8654 9580
8654 9581
8655 9581
8655 9582
8656 9582
8656 9583
8657 9583
8657 9584
8658 9584
8658 9585
8659 9587
8659 9596
8659 9597
8659 9609
8660 9587
8660 9588
8661 9588
8661 9589
8662 9589
8662 9590
8663 9590
8663 9591
8664 9591
8664 9592
8665 9592
8665 9593
8666 9593
8666 9594
8667 9594
8667 9595
8668 9595
8668 9596
8669 9598
8669 9608
8669 9609
8669 12553
8669 12554
8670 9598
8670 9599
8671 9599
8671 9600
8672 9600
8672 9601
8673 9601
8673 9602
8674 9602
8674 9603
8675 9603
8675 9604
8676 9604
8676 9605
8677 9605
8677 9606
8678 9606
8678 9607
8679 9607
8679 9608
8680 9610
8680 9614
8680 9621
8681 9610
8681 9611
8682 9611
8682 9612
8683 9612
8683 9613
8684 9613
8684 9614
8685 9615
8685 9620
8685 9621
8685 9629
8686 9615
8686 9616
8687 9616
8687 9617
8688 9617
8688 9618
8689 9618
8689 9619
8690 9619
8690 9620
8691 9622
8691 9628
8691 9629
8691 9638
8692 9622
8692 9623
8693 9623
8693 9624
8694 9624
8694 9625
8695 9625
8695 9626
8696 9626
8696 9627
8697 9627
8697 9628
8698 9630
8698 9637
8698 9638
8698 9648
8699 9630
8699 9631
8700 9631
8700 9632
8701 9632
8701 9633
8702 9633
8702 9634
8703 9634
8703 9635
8704 9635
8704 9636
8705 9636
8705 9637
8706 9639
8706 9647
8706 9648
8706 9659
8707 9639
8707 9640
8708 9640
8708 9641
8709 9641
8709 9642
8710 9642
8710 9643
8711 9643
8711 9644
8712 9644
8712 9645
8713 9645
8713 9646
8714 9646
8714 9647
8715 9649
8715 9658
8715 9659
8715 9671
8716 9649
8716 9650
8717 9650
8717 9651
8718 9651
8718 9652
8719 9652
8719 9653
8720 9653
8720 9654
8721 9654
8721 9655
8722 9655
8722 9656
8723 9656
8723 9657
8724 9657
8724 9658
8725 9660
8725 9670
8725 9671
8725 12554
8725 12555
8726 9660
8726 9661
8727 9661
8727 9662
8728 9662
8728 9663
8729 9663
8729 9664
8730 9664
8730 9665
8731 9665
8731 9666
8732 9666
8732 9667
8733 9667
8733 9668
8734 9668
8734 9669
8735 9669
8735 9670
8736 9672
8736 9676
8736 9683
8737 9672
8737 9673
8738 9673
8738 9674
8739 9674
8739 9675
8740 9675
8740 9676
8741 9677
8741 9682
8741 9683
8741 9691
8742 9677
8742 9678
8743 9678
8743 9679
8744 9679
8744 9680
8745 9680
8745 9681
8746 9681
8746 9682
8747 9684
8747 9690
8747 9691
8747 9700
8748 9684
8748 9685
8749 9685
8749 9686
8750 9686
8750 9687
8751 9687
8751 9688
8752 9688
8752 9689
8753 9689
8753 9690
8754 9692
8754 9699
8754 9700
8754 9710
8755 9692
8755 9693
8756 9693
8756 9694
8757 9694
8757 9695
8758 9695
8758 9696
8759 9696
8759 9697
8760 9697
8760 9698
8761 9698
8761 9699
8762 9701
8762 9709
8762 9710
8762 9721
8763 9701
8763 9702
8764 9702
8764 9703
8765 9703
8765 9704
8766 9704
8766 9705
8767 9705
8767 9706
8768 9706
8768 9707
8769 9707
8769 9708
8770 9708
8770 9709
8771 9711
8771 9720
8771 9721
8771 9733
8772 9711
8772 9712
8773 9712
8773 9713
8774 9713
8774 9714
8775 9714
8775 9715
8776 9715
8776 9716
8777 9716
8777 9717
8778 9717
8778 9718
8779 9718
8779 9719
8780 9719
8780 9720
8781 9722
8781 9732
8781 9733
8781 12555
8781 12556
8782 9722
8782 9723
8783 9723
8783 9724
8784 9724
8784 9725
8785 9725
8785 9726
8786 9726
8786 9727
8787 9727
8787 9728
8788 9728
8788 9729
8789 9729
8789 9730
8790 9730
8790 9731
8791 9731
8791 9732
8792 9734
8792 9738
8792 9745
8793 9734
8793 9735
8794 9735
8794 9736
8795 9736
8795 9737
8796 9737
8796 9738
8797 9739
8797 9744
8797 9745
8797 9753
8798 9739
8798 9740
8799 9740
8799 9741
8800 9741
8800 9742
8801 9742
8801 9743
8802 9743
8802 9744
8803 9746
8803 9752
8803 9753
8803 9762
8804 9746
8804 9747
8805 9747
8805 9748
8806 9748
8806 9749
8807 9749
8807 9750
8808 9750
8808 9751
8809 9751
8809 9752
8810 9754
8810 9761
8810 9762
8810 9772
8811 9754
8811 9755
8812 9755
8812 9756
8813 9756
8813 9757
8814 9757
8814 9758
8815 9758
8815 9759
8816 9759
8816 9760
8817 9760
8817 9761
8818 9763
8818 9771
8818 9772
8818 9783
8819 9763
8819 9764
8820 9764
8820 9765
8821 9765
8821 9766
8822 9766
8822 9767
8823 9767
8823 9768
8824 9768
8824 9769
8825 9769
8825 9770
8826 9770
8826 9771
8827 9773
8827 9782
8827 9783
8827 9795
8828 9773
8828 9774
8829 9774
8829 9775
8830 9775
8830 9776
8831 9776
8831 9777
8832 9777
8832 9778
8833 9778
8833 9779
8834 9779
8834 9780
8835 9780
8835 9781
8836 9781
8836 9782
8837 9784
8837 9794
8837 9795
8837 12556
8837 12557
8838 9784
8838 9785
8839 9785
8839 9786
8840 9786
8840 9787
8841 9787
8841 9788
8842 9788
8842 9789
8843 9789
8843 9790
8844 9790
8844 9791
8845 9791
8845 9792
8846 9792
8846 9793
8847 9793
8847 9794
8848 9796
8848 9800
8848 9807
8849 9796
8849 9797
8850 9797
8850 9798
8851 9798
8851 9799
8852 9799
8852 9800
8853 9801
8853 9806
8853 9807
8853 9815
8854 9801
8854 9802
8855 9802
8855 9803
8856 9803
8856 9804
8857 9804
8857 9805
8858 9805
8858 9806
8859 9808
8859 9814
8859 9815
8859 9824
8860 9808
8860 9809
8861 9809
8861 9810
8862 9810
8862 9811
8863 9811
8863 9812
8864 9812
8864 9813
8865 9813
8865 9814
8866 9816
8866 9823
8866 9824
8866 9834
8867 9816
8867 9817
8868 9817
8868 9818
8869 9818
8869 9819
8870 9819
8870 9820
8871 9820
8871 9821
8872 9821
8872 9822
8873 9822
8873 9823
8874 9825
8874 9833
8874 9834
8874 9845
8875 9825
8875 9826
8876 9826
8876 9827
8877 9827
8877 9828
8878 9828
8878 9829
8879 9829
8879 9830
8880 9830
8880 9831
8881 9831
8881 9832
8882 9832
8882 9833
8883 9835
8883 9844
8883 9845
8883 9857
8884 9835
8884 9836
8885 9836
8885 9837
8886 9837
8886 9838
8887 9838
8887 9839
8888 9839
8888 9840
8889 9840
8889 9841
8890 9841
8890 9842
8891 9842
8891 9843
8892 9843
8892 9844
8893 9846
8893 9856
8893 9857
8893 12557
8893 12558
8894 9846
8894 9847
8895 9847
8895 9848
8896 9848
8896 9849
8897 9849
8897 9850
8898 9850
8898 9851
8899 9851
8899 9852
8900 9852
8900 9853
8901 9853
8901 9854
8902 9854
8902 9855
8903 9855
8903 9856
8904 9858
8904 9862
8904 9869
8905 9858
8905 9859
8906 9859
8906 9860
8907 9860
8907 9861
8908 9861
8908 9862
8909 9863
8909 9868
8909 9869
8909 9877
8910 9863
8910 9864
8911 9864
8911 9865
8912 9865
8912 9866
8913 9866
8913 9867
8914 9867
8914 9868
8915 9870
8915 9876
8915 9877
8915 9886
8916 9870
8916 9871
8917 9871
8917 9872
8918 9872
8918 9873
8919 9873
8919 9874
8920 9874
8920 9875
8921 9875
8921 9876
8922 9878
8922 9885
8922 9886
8922 9896
8923 9878
8923 9879
8924 9879
8924 9880
8925 9880
8925 9881
8926 9881
8926 9882
8927 9882
8927 9883
8928 9883
8928 9884
8929 9884
8929 9885
8930 9887
8930 9895
8930 9896
8930 9907
8931 9887
8931 9888
8932 9888
8932 9889
8933 9889
8933 9890
8934 9890
8934 9891
8935 9891
8935 9892
8936 9892
8936 9893
8937 9893
8937 9894
8938 9894
8938 9895
8939 9897
8939 9906
8939 9907
8939 9919
8940 9897
8940 9898
8941 9898
8941 9899
8942 9899
8942 9900
8943 9900
8943 9901
8944 9901
8944 9902
8945 9902
8945 9903
8946 9903
8946 9904
8947 9904
8947 9905
8948 9905
8948 9906
8949 9908
8949 9918
8949 9919
8949 12558
8949 12559
8950 9908
8950 9909
8951 9909
8951 9910
8952 9910
8952 9911
8953 9911
8953 9912
8954 9912
8954 9913
8955 9913
8955 9914
8956 9914
8956 9915
8957 9915
8957 9916
8958 9916
8958 9917
8959 9917
8959 9918
8960 9920
8960 9924
8960 9931
8961 9920
8961 9921
8962 9921
8962 9922
8963 9922
8963 9923
8964 9923
8964 9924
8965 9925
8965 9930
8965 9931
8965 9939
8966 9925
8966 9926
8967 9926
8967 9927
8968 9927
8968 9928
8969 9928
8969 9929
8970 9929
8970 9930
8971 9932
8971 9938
8971 9939
8971 9948
8972 9932
8972 9933
8973 9933
8973 9934
8974 9934
8974 9935
8975 9935
8975 9936
8976 9936
8976 9937
8977 9937
8977 9938
8978 9940
8978 9947
8978 9948
8978 9958
8979 9940
8979 9941
8980 9941
8980 9942
8981 9942
8981 9943
8982 9943
8982 9944
8983 9944
8983 9945
8984 9945
8984 9946
8985 9946
8985 9947
8986 9949
8986 9957
8986 9958
8986 9969
8987 9949
8987 9950
8988 9950
8988 9951
8989 9951
8989 9952
8990 9952
8990 9953
8991 9953
8991 9954
8992 9954
8992 9955
8993 9955
8993 9956
8994 9956
8994 9957
8995 9959
8995 9968
8995 9969
8995 9981
8996 9959
8996 9960
8997 9960
8997 9961
8998 9961
8998 9962
8999 9962
8999 9963
9000 9963
9000 9964
9001 9964
9001 9965
9002 9965
9002 9966
9003 9966
9003 9967
9004 9967
9004 9968
9005 9970
9005 9980
9005 9981
9005 12559
9005 12560
9006 9970
9006 9971
9007 9971
9007 9972
9008 9972
9008 9973
9009 9973
9009 9974
9010 9974
9010 9975
9011 9975
9011 9976
9012 9976
9012 9977
9013 9977
9013 9978
9014 9978
9014 9979
9015 9979
9015 9980
9016 9982
9016 9986
9016 9993
9017 9982
9017 9983
9018 9983
9018 9984
9019 9984
9019 9985
9020 9985
9020 9986
9021 9987
9021 9992
9021 9993
9021 10001
9022 9987
9022 9988
9023 9988
9023 9989
9024 9989
9024 9990
9025 9990
9025 9991
9026 9991
9026 9992
9027 9994
9027 10000
9027 10001
9027 10010
9028 9994
9028 9995
9029 9995
9029 9996
9030 9996
9030 9997
9031 9997
9031 9998
9032 9998
9032 9999
9033 9999
9033 10000
9034 10002
9034 10009
9034 10010
9034 10020
9035 10002
9035 10003
9036 10003
9036 10004
9037 10004
9037 10005
9038 10005
9038 10006
9039 10006
9039 10007
9040 10007
9040 10008
9041 10008
9041 10009
9042 10011
9042 10019
9042 10020
9042 10031
9043 10011
9043 10012
9044 10012
9044 10013
9045 10013
9045 10014
9046 10014
9046 10015
9047 10015
9047 10016
9048 10016
9048 10017
9049 10017
9049 10018
9050 10018
9050 10019
9051 10021
9051 10030
9051 10031
9051 10043
9052 10021
9052 10022
9053 10022
9053 10023
9054 10023
9054 10024
9055 10024
9055 10025
9056 10025
9056 10026
9057 10026
9057 10027
9058 10027
9058 10028
9059 10028
9059 10029
9060 10029
9060 10030
9061 10032
9061 10042
9061 10043
9061 12560
9061 12561
9062 10032
9062 10033
9063 10033
9063 10034
9064 10034
9064 10035
9065 10035
9065 10036
9066 10036
9066 10037
9067 10037
9067 10038
9068 10038
9068 10039
9069 10039
9069 10040
9070 10040
9070 10041
9071 10041
9071 10042
9072 10044
9072 10048
9072 10055
9073 10044
9073 10045
9074 10045
9074 10046
9075 10046
9075 10047
9076 10047
9076 10048
9077 10049
9077 10054
9077 10055
9077 10063
9078 10049
9078 10050
9079 10050
9079 10051
9080 10051
9080 10052
9081 10052
9081 10053
9082 10053
9082 10054
9083 10056
9083 10062
9083 10063
9083 10072
9084 10056
9084 10057
9085 10057
9085 10058
9086 10058
9086 10059
9087 10059
9087 10060
9088 10060
9088 10061
9089 10061
9089 10062
9090 10064
9090 10071
9090 10072
9090 10082
9091 10064
9091 10065
9092 10065
9092 10066
9093 10066
9093 10067
9094 10067
9094 10068
9095 10068
9095 10069
9096 10069
9096 10070
9097 10070
9097 10071
9098 10073
9098 10081
9098 10082
9098 10093
9099 10073
9099 10074
9100 10074
9100 10075
9101 10075
9101 10076
9102 10076
9102 10077
9103 10077
9103 10078
9104 10078
9104 10079
9105 10079
9105 10080
9106 10080
9106 10081
9107 10083
9107 10092
9107 10093
9107 10105
9108 10083
9108 10084
9109 10084
9109 10085
9110 10085
9110 10086
9111 10086
9111 10087
9112 10087
9112 10088
9113 10088
9113 10089
9114 10089
9114 10090
9115 10090
9115 10091
9116 10091
9116 10092
9117 10094
9117 10104
9117 10105
9117 12561
9117 12562
9118 10094
9118 10095
9119 10095
9119 10096
9120 10096
9120 10097
9121 10097
9121 10098
9122 10098
9122 10099
9123 10099
9123 10100
9124 10100
9124 10101
9125 10101
9125 10102
9126 10102
9126 10103
9127 10103
9127 10104
9128 10106
9128 10110
9128 10117
9129 10106
9129 10107
9130 10107
9130 10108
9131 10108
9131 10109
9132 10109
9132 10110
9133 10111
9133 10116
9133 10117
9133 10125
9134 10111
9134 10112
9135 10112
9135 10113
9136 10113
9136 10114
9137 10114
9137 10115
9138 10115
9138 10116
9139 10118
9139 10124
9139 10125
9139 10134
9140 10118
9140 10119
9141 10119
9141 10120
9142 10120
9142 10121
9143 10121
9143 10122
9144 10122
9144 10123
9145 10123
9145 10124
9146 10126
9146 10133
9146 10134
9146 10144
9147 10126
9147 10127
9148 10127
9148 10128
9149 10128
9149 10129
9150 10129
9150 10130
9151 10130
9151 10131
9152 10131
9152 10132
9153 10132
9153 10133
9154 10135
9154 10143
9154 10144
9154 10155
9155 10135
9155 10136
9156 10136
9156 10137
9157 10137
9157 10138
9158 10138
9158 10139
9159 10139
9159 10140
9160 10140
9160 10141
9161 10141
9161 10142
9162 10142
9162 10143
9163 10145
9163 10154
9163 10155
9163 10167
9164 10145
9164 10146
9165 10146
9165 10147
9166 10147
9166 10148
9167 10148
9167 10149
9168 10149
9168 10150
9169 10150
9169 10151
9170 10151
9170 10152
9171 10152
9171 10153
9172 10153
9172 10154
9173 10156
9173 10166
9173 10167
9173 12562
9173 12563
9174 10156
9174 10157
9175 10157
9175 10158
9176 10158
9176 10159
9177 10159
9177 10160
9178 10160
9178 10161
9179 10161
9179 10162
9180 10162
9180 10163
9181 10163
9181 10164
9182 10164
9182 10165
9183 10165
9183 10166
9184 10168
9184 10172
9184 10179
9185 10168
9185 10169
9186 10169
9186 10170
9187 10170
9187 10171
9188 10171
9188 10172
9189 10173
9189 10178
9189 10179
9189 10187
9190 10173
9190 10174
9191 10174
9191 10175
9192 10175
9192 10176
9193 10176
9193 10177
9194 10177
9194 10178
9195 10180
9195 10186
9195 10187
9195 10196
9196 10180
9196 10181
9197 10181
9197 10182
9198 10182
9198 10183
9199 10183
9199 10184
9200 10184
9200 10185
9201 10185
9201 10186
9202 10188
9202 10195
9202 10196
9202 10206
9203 10188
9203 10189
9204 10189
9204 10190
9205 10190
9205 10191
9206 10191
9206 10192
9207 10192
9207 10193
9208 10193
9208 10194
9209 10194
9209 10195
9210 10197
9210 10205
9210 10206
9210 10217
9211 10197
9211 10198
9212 10198
9212 10199
9213 10199
9213 10200
9214 10200
9214 10201
9215 10201
9215 10202
9216 10202
9216 10203
9217 10203
9217 10204
9218 10204
9218 10205
9219 10207
9219 10216
9219 10217
9219 10229
9220 10207
9220 10208
9221 10208
9221 10209
9222 10209
9222 10210
9223 10210
9223 10211
9224 10211
9224 10212
9225 10212
9225 10213
9226 10213
9226 10214
9227 10214
9227 10215
9228 10215
9228 10216
9229 10218
9229 10228
9229 10229
9229 12563
9229 12564
9230 10218
9230 10219
9231 10219
9231 10220
9232 10220
9232 10221
9233 10221
9233 10222
9234 10222
9234 10223
9235 10223
9235 10224
9236 10224
9236 10225
9237 10225
9237 10226
9238 10226
9238 10227
9239 10227
9239 10228
9240 10230
9240 10234
9240 10241
9241 10230
9241 10231
9242 10231
9242 10232
9243 10232
9243 10233
9244 10233
9244 10234
9245 10235
9245 10240
9245 10241
9245 10249
9246 10235
9246 10236
9247 10236
9247 10237
9248 10237
9248 10238
9249 10238
9249 10239
9250 10239
9250 10240
9251 10242
9251 10248
9251 10249
9251 10258
9252 10242
9252 10243
9253 10243
9253 10244
9254 10244
9254 10245
9255 10245
9255 10246
9256 10246
9256 10247
9257 10247
9257 10248
9258 10250
9258 10257
9258 10258
9258 10268
9259 10250
9259 10251
9260 10251
9260 10252
9261 10252
9261 10253
9262 10253
9262 10254
9263 10254
9263 10255
9264 10255
9264 10256
9265 10256
9265 10257
9266 10259
9266 10267
9266 10268
9266 10279
9267 10259
9267 10260
9268 10260
9268 10261
9269 10261
9269 10262
9270 10262
9270 10263
9271 10263
9271 10264
9272 10264
9272 10265
9273 10265
9273 10266
9274 10266
9274 10267
9275 10269
9275 10278
9275 10279
9275 10291
9276 10269
9276 10270
9277 10270
9277 10271
9278 10271
9278 10272
9279 10272
9279 10273
9280 10273
9280 10274
9281 10274
9281 10275
9282 10275
9282 10276
9283 10276
9283 10277
9284 10277
9284 10278
9285 10280
9285 10290
9285 10291
9285 12564
9285 12565
9286 10280
9286 10281
9287 10281
9287 10282
9288 10282
9288 10283
9289 10283
9289 10284
9290 10284
9290 10285
9291 10285
9291 10286
9292 10286
9292 10287
9293 10287
9293 10288
9294 10288
9294 10289
9295 10289
9295 10290
9296 10292
9296 10296
9296 10303
9297 10292
9297 10293
9298 10293
9298 10294
9299 10294
9299 10295
9300 10295
9300 10296
9301 10297
9301 10302
9301 10303
9301 10311
9302 10297
9302 10298
9303 10298
9303 10299
9304 10299
9304 10300
9305 10300
9305 10301
9306 10301
9306 10302
9307 10304
9307 10310
9307 10311
9307 10320
9308 10304
9308 10305
9309 10305
9309 10306
9310 10306
9310 10307
9311 10307
9311 10308
9312 10308
9312 10309
9313 10309
9313 10310
9314 10312
9314 10319
9314 10320
9314 10330
9315 10312
9315 10313
9316 10313
9316 10314
9317 10314
9317 10315
9318 10315
9318 10316
9319 10316
9319 10317
9320 10317
9320 10318
9321 10318
9321 10319
9322 10321
9322 10329
9322 10330
9322 10341
9323 10321
9323 10322
9324 10322
9324 10323
9325 10323
9325 10324
9326 10324
9326 10325
9327 10325
9327 10326
9328 10326
9328 10327
9329 10327
9329 10328
9330 10328
9330 10329
9331 10331
9331 10340
9331 10341
9331 10353
9332 10331
9332 10332
9333 10332
9333 10333
9334 10333
9334 10334
9335 10334
9335 10335
9336 10335
9336 10336
9337 10336
9337 10337
9338 10337
9338 10338
9339 10338
9339 10339
9340 10339
9340 10340
9341 10342
9341 10352
9341 10353
9341 12565
9341 12566
9342 10342
9342 10343
9343 10343
9343 10344
9344 10344
9344 10345
9345 10345
9345 10346
9346 10346
9346 10347
9347 10347
9347 10348
9348 10348
9348 10349
9349 10349
9349 10350
9350 10350
9350 10351
9351 10351
9351 10352
9352 10354
9352 10358
9352 10365
9353 10354
9353 10355
9354 10355
9354 10356
9355 10356
9355 10357
9356 10357
9356 10358
9357 10359
9357 10364
9357 10365
9357 10373
9358 10359
9358 10360
9359 10360
9359 10361
9360 10361
9360 10362
9361 10362
9361 10363
9362 10363
9362 10364
9363 10366
9363 10372
9363 10373
9363 10382
9364 10366
9364 10367
9365 10367
9365 10368
9366 10368
9366 10369
9367 10369
9367 10370
9368 10370
9368 10371
9369 10371
9369 10372
9370 10374
9370 10381
9370 10382
9370 10392
9371 10374
9371 10375
9372 10375
9372 10376
9373 10376
9373 10377
9374 10377
9374 10378
9375 10378
9375 10379
9376 10379
9376 10380
9377 10380
9377 10381
9378 10383
9378 10391
9378 10392
9378 10403
9379 10383
9379 10384
9380 10384
9380 10385
9381 10385
9381 10386
9382 10386
9382 10387
9383 10387
9383 10388
9384 10388
9384 10389
9385 10389
9385 10390
9386 10390
9386 10391
9387 10393
9387 10402
9387 10403
9387 10415
9388 10393
9388 10394
9389 10394
9389 10395
9390 10395
9390 10396
9391 10396
9391 10397
9392 10397
9392 10398
9393 10398
9393 10399
9394 10399
9394 10400
9395 10400
9395 10401
9396 10401
9396 10402
9397 10404
9397 10414
9397 10415
9397 12566
9397 12567
9398 10404
9398 10405
9399 10405
9399 10406
9400 10406
9400 10407
9401 10407
9401 10408
9402 10408
9402 10409
9403 10409
9403 10410
9404 10410
9404 10411
9405 10411
9405 10412
9406 10412
9406 10413
9407 10413
9407 10414
9408 10416
9408 10420
9408 10427
9409 10416
9409 10417
9410 10417
9410 10418
9411 10418
9411 10419
9412 10419
9412 10420
9413 10421
9413 10426
9413 10427
9413 10435
9414 10421
9414 10422
9415 10422
9415 10423
9416 10423
9416 10424
9417 10424
9417 10425
9418 10425
9418 10426
9419 10428
9419 10434
9419 10435
9419 10444
9420 10428
9420 10429
9421 10429
9421 10430
9422 10430
9422 10431
9423 10431
9423 10432
9424 10432
9424 10433
9425 10433
9425 10434
9426 10436
9426 10443
9426 10444
9426 10454
9427 10436
9427 10437
9428 10437
9428 10438
9429 10438
9429 10439
9430 10439
9430 10440
9431 10440
9431 10441
9432 10441
9432 10442
9433 10442
9433 10443
9434 10445
9434 10453
9434 10454
9434 10465
9435 10445
9435 10446
9436 10446
9436 10447
9437 10447
9437 10448
9438 10448
9438 10449
9439 10449
9439 10450
9440 10450
9440 10451
9441 10451
9441 10452
9442 10452
9442 10453
9443 10455
9443 10464
9443 10465
9443 10477
9444 10455
9444 10456
9445 10456
9445 10457
9446 10457
9446 10458
9447 10458
9447 10459
9448 10459
9448 10460
9449 10460
9449 10461
9450 10461
9450 10462
9451 10462
9451 10463
9452 10463
9452 10464
9453 10466
9453 10476
9453 10477
9453 12567
9453 12568
9454 10466
9454 10467
9455 10467
9455 10468
9456 10468
9456 10469
9457 10469
9457 10470
9458 10470
9458 10471
9459 10471
9459 10472
9460 10472
9460 10473
9461 10473
9461 10474
9462 10474
9462 10475
9463 10475
9463 10476
9464 10478
9464 10482
9464 10489
9465 10478
9465 10479
9466 10479
9466 10480
9467 10480
9467 10481
9468 10481
9468 10482
9469 10483
9469 10488
9469 10489
9469 10497
9470 10483
9470 10484
9471 10484
9471 10485
9472 10485
9472 10486
9473 10486
9473 10487
9474 10487
9474 10488
9475 10490
9475 10496
9475 10497
9475 10506
9476 10490
9476 10491
9477 10491
9477 10492
9478 10492
9478 10493
9479 10493
9479 10494
9480 10494
9480 10495
9481 10495
9481 10496
9482 10498
9482 10505
9482 10506
9482 10516
9483 10498
9483 10499
9484 10499
9484 10500
9485 10500
9485 10501
9486 10501
9486 10502
9487 10502
9487 10503
9488 10503
9488 10504
9489 10504
9489 10505
9490 10507
9490 10515
9490 10516
9490 10527
9491 10507
9491 10508
9492 10508
9492 10509
9493 10509
9493 10510
9494 10510
9494 10511
9495 10511
9495 10512
9496 10512
9496 10513
9497 10513
9497 10514
9498 10514
9498 10515
9499 10517
9499 10526
9499 10527
9499 10539
9500 10517
9500 10518
9501 10518
9501 10519
9502 10519
9502 10520
9503 10520
9503 10521
9504 10521
9504 10522
9505 10522
9505 10523
9506 10523
9506 10524
9507 10524
9507 10525
9508 10525
9508 10526
9509 10528
9509 10538
9509 10539
9509 12568
9509 12569
9510 10528
9510 10529
9511 10529
9511 10530
9512 10530
9512 10531
9513 10531
9513 10532
9514 10532
9514 10533
9515 10533
9515 10534
9516 10534
9516 10535
9517 10535
9517 10536
9518 10536
9518 10537
9519 10537
9519 10538
9520 10540
9520 10544
9520 10551
9521 10540
9521 10541
9522 10541
9522 10542
9523 10542
9523 10543
9524 10543
9524 10544
9525 10545
9525 10550
9525 10551
9525 10559
9526 10545
9526 10546
9527 10546
9527 10547
9528 10547
9528 10548
9529 10548
9529 10549
9530 10549
9530 10550
9531 10552
9531 10558
9531 10559
9531 10568
9532 10552
9532 10553
9533 10553
9533 10554
9534 10554
9534 10555
9535 10555
9535 10556
9536 10556
9536 10557
9537 10557
9537 10558
9538 10560
9538 10567
9538 10568
9538 10578
9539 10560
9539 10561
9540 10561
9540 10562
9541 10562
9541 10563
9542 10563
9542 10564
9543 10564
9543 10565
9544 10565
9544 10566
9545 10566
9545 10567
9546 10569
9546 10577
9546 10578
9546 10589
9547 10569
9547 10570
9548 10570
9548 10571
9549 10571
9549 10572
9550 10572
9550 10573
9551 10573
9551 10574
9552 10574
9552 10575
9553 10575
9553 10576
9554 10576
9554 10577
9555 10579
9555 10588
9555 10589
9555 10601
9556 10579
9556 10580
9557 10580
9557 10581
9558 10581
9558 10582
9559 10582
9559 10583
9560 10583
9560 10584
9561 10584
9561 10585
9562 10585
9562 10586
9563 10586
9563 10587
9564 10587
9564 10588
9565 10590
9565 10600
9565 10601
9565 12569
9565 12570
9566 10590
9566 10591
9567 10591
9567 10592
9568 10592
9568 10593
9569 10593
9569 10594
9570 10594
9570 10595
9571 10595
9571 10596
9572 10596
9572 10597
9573 10597
9573 10598
9574 10598
9574 10599
9575 10599
9575 10600
9576 10602
9576 10606
9576 10613
9577 10602
9577 10603
9578 10603
9578 10604
9579 10604
9579 10605
9580 10605
9580 10606
9581 10607
9581 10612
9581 10613
9581 10621
9582 10607
9582 10608
9583 10608
9583 10609
9584 10609
9584 10610
9585 10610
9585 10611
9586 10611
9586 10612
9587 10614
9587 10620
9587 10621
9587 10630
9588 10614
9588 10615
9589 10615
9589 10616
9590 10616
9590 10617
9591 10617
9591 10618
9592 10618
9592 10619
9593 10619
9593 10620
9594 10622
9594 10629
9594 10630
9594 10640
9595 10622
9595 10623
9596 10623
9596 10624
9597 10624
9597 10625
9598 10625
9598 10626
9599 10626
9599 10627
9600 10627
9600 10628
9601 10628
9601 10629
9602 10631
9602 10639
9602 10640
9602 10651
9603 10631
9603 10632
9604 10632
9604 10633
9605 10633
9605 10634
9606 10634
9606 10635
9607 10635
9607 10636
9608 10636
9608 10637
9609 10637
9609 10638
9610 10638
9610 10639
9611 10641
9611 10650
9611 10651
9611 10663
9612 10641
9612 10642
9613 10642
9613 10643
9614 10643
9614 10644
9615 10644
9615 10645
9616 10645
9616 10646
9617 10646
9617 10647
9618 10647
9618 10648
9619 10648
9619 10649
9620 10649
9620 10650
9621 10652
9621 10662
9621 10663
9621 12570
9621 12571
9622 10652
9622 10653
9623 10653
9623 10654
9624 10654
9624 10655
9625 10655
9625 10656
9626 10656
9626 10657
9627 10657
9627 10658
9628 10658
9628 10659
9629 10659
9629 10660
9630 10660
9630 10661
9631 10661
9631 10662
9632 10664
9632 10668
9632 10675
9633 10664
9633 10665
9634 10665
9634 10666
9635 10666
9635 10667
9636 10667
9636 10668
9637 10669
9637 10674
9637 10675
9637 10683
9638 10669
9638 10670
9639 10670
9639 10671
9640 10671
9640 10672
9641 10672
9641 10673
9642 10673
9642 10674
9643 10676
9643 10682
9643 10683
9643 10692
9644 10676
9644 10677
9645 10677
9645 10678
9646 10678
9646 10679
9647 10679
9647 10680
9648 10680
9648 10681
9649 10681
9649 10682
9650 10684
9650 10691
9650 10692
9650 10702
9651 10684
9651 10685
9652 10685
9652 10686
9653 10686
9653 10687
9654 10687
9654 10688
9655 10688
9655 10689
9656 10689
9656 10690
9657 10690
9657 10691
9658 10693
9658 10701
9658 10702
9658 10713
9659 10693
9659 10694
9660 10694
9660 10695
9661 10695
9661 10696
9662 10696
9662 10697
9663 10697
9663 10698
9664 10698
9664 10699
9665 10699
9665 10700
9666 10700
9666 10701
9667 10703
9667 10712
9667 10713
9667 10725
9668 10703
9668 10704
9669 10704
9669 10705
9670 10705
9670 10706
9671 10706
9671 10707
9672 10707
9672 10708
9673 10708
9673 10709
9674 10709
9674 10710
9675 10710
9675 10711
9676 10711
9676 10712
9677 10714
9677 10724
9677 10725
9677 12571
9677 12572
9678 10714
9678 10715
9679 10715
9679 10716
9680 10716
9680 10717
9681 10717
9681 10718
9682 10718
9682 10719
9683 10719
9683 10720
9684 10720
9684 10721
9685 10721
9685 10722
9686 10722
9686 10723
9687 10723
9687 10724
9688 10726
9688 10730
9688 10737
9689 10726
9689 10727
9690 10727
9690 10728
9691 10728
9691 10729
9692 10729
9692 10730
9693 10731
9693 10736
9693 10737
9693 10745
9694 10731
9694 10732
9695 10732
9695 10733
9696 10733
9696 10734
9697 10734
9697 10735
9698 10735
9698 10736
9699 10738
9699 10744
9699 10745
9699 10754
9700 10738
9700 10739
9701 10739
9701 10740
9702 10740
9702 10741
9703 10741
9703 10742
9704 10742
9704 10743
9705 10743
9705 10744
9706 10746
9706 10753
9706 10754
9706 10764
9707 10746
9707 10747
9708 10747
9708 10748
9709 10748
9709 10749
9710 10749
9710 10750
9711 10750
9711 10751
9712 10751
9712 10752
9713 10752
9713 10753
9714 10755
9714 10763
9714 10764
9714 10775
9715 10755
9715 10756
9716 10756
9716 10757
9717 10757
9717 10758
9718 10758
9718 10759
9719 10759
9719 10760
9720 10760
9720 10761
9721 10761
9721 10762
9722 10762
9722 10763
9723 10765
9723 10774
9723 10775
9723 10787
9724 10765
9724 10766
9725 10766
9725 10767
9726 10767
9726 10768
9727 10768
9727 10769
9728 10769
9728 10770
9729 10770
9729 10771
9730 10771
9730 10772
9731 10772
9731 10773
9732 10773
9732 10774
9733 10776
9733 10786
9733 10787
9733 12572
9733 12573
9734 10776
9734 10777
9735 10777
9735 10778
9736 10778
9736 10779
9737 10779
9737 10780
9738 10780
9738 10781
9739 10781
9739 10782
9740 10782
9740 10783
9741 10783
9741 10784
9742 10784
9742 10785
9743 10785
9743 10786
9744 10788
9744 10792
9744 10799
9745 10788
9745 10789
9746 10789
9746 10790
9747 10790
9747 10791
9748 10791
9748 10792
9749 10793
9749 10798
9749 10799
9749 10807
9750 10793
9750 10794
9751 10794
9751 10795
9752 10795
9752 10796
9753 10796
9753 10797
9754 10797
9754 10798
9755 10800
9755 10806
9755 10807
9755 10816
9756 10800
9756 10801
9757 10801
9757 10802
9758 10802
9758 10803
9759 10803
9759 10804
9760 10804
9760 10805
9761 10805
9761 10806
9762 10808
9762 10815
9762 10816
9762 10826
9763 10808
9763 10809
9764 10809
9764 10810
9765 10810
9765 10811
9766 10811
9766 10812
9767 10812
9767 10813
9768 10813
9768 10814
9769 10814
9769 10815
9770 10817
9770 10825
9770 10826
9770 10837
9771 10817
9771 10818
9772 10818
9772 10819
9773 10819
9773 10820
9774 10820
9774 10821
9775 10821
9775 10822
9776 10822
9776 10823
9777 10823
9777 10824
9778 10824
9778 10825
9779 10827
9779 10836
9779 10837
9779 10849
9780 10827
9780 10828
9781 10828
9781 10829
9782 10829
9782 10830
9783 10830
9783 10831
9784 10831
9784 10832
9785 10832
9785 10833
9786 10833
9786 10834
9787 10834
9787 10835
9788 10835
9788 10836
9789 10838
9789 10848
9789 10849
9789 12573
9789 12574
9790 10838
9790 10839
9791 10839
9791 10840
9792 10840
9792 10841
9793 10841
9793 10842
9794 10842
9794 10843
9795 10843
9795 10844
9796 10844
9796 10845
9797 10845
9797 10846
9798 10846
9798 10847
9799 10847
9799 10848
9800 10850
9800 10854
9800 10861
9801 10850
9801 10851
9802 10851
9802 10852
9803 10852
9803 10853
9804 10853
9804 10854
9805 10855
9805 10860
9805 10861
9805 10869
9806 10855
9806 10856
9807 10856
9807 10857
9808 10857
9808 10858
9809 10858
9809 10859
9810 10859
9810 10860
9811 10862
9811 10868
9811 10869
9811 10878
9812 10862
9812 10863
9813 10863
9813 10864
9814 10864
9814 10865
9815 10865
9815 10866
9816 10866
9816 10867
9817 10867
9817 10868
9818 10870
9818 10877
9818 10878
9818 10888
9819 10870
9819 10871
9820 10871
9820 10872
9821 10872
9821 10873
9822 10873
9822 10874
9823 10874
9823 10875
9824 10875
9824 10876
9825 10876
9825 10877
9826 10879
9826 10887
9826 10888
9826 10899
9827 10879
9827 10880
9828 10880
9828 10881
9829 10881
9829 10882
9830 10882
9830 10883
9831 10883
9831 10884
9832 10884
9832 10885
9833 10885
9833 10886
9834 10886
9834 10887
9835 10889
9835 10898
9835 10899
9835 10911
9836 10889
9836 10890
9837 10890
9837 10891
9838 10891
9838 10892
9839 10892
9839 10893
9840 10893
9840 10894
9841 10894
9841 10895
9842 10895
9842 10896
9843 10896
9843 10897
9844 10897
9844 10898
9845 10900
9845 10910
9845 10911
9845 12574
9845 12575
9846 10900
9846 10901
9847 10901
9847 10902
9848 10902
9848 10903
9849 10903
9849 10904
9850 10904
9850 10905
9851 10905
9851 10906
9852 10906
9852 10907
9853 10907
9853 10908
9854 10908
9854 10909
9855 10909
9855 10910
9856 10912
9856 10916
9856 10923
9857 10912
9857 10913
9858 10913
9858 10914
9859 10914
9859 10915
9860 10915
9860 10916
9861 10917
9861 10922
9861 10923
9861 10931
9862 10917
9862 10918
9863 10918
9863 10919
9864 10919
9864 10920
9865 10920
9865 10921
9866 10921
9866 10922
9867 10924
9867 10930
9867 10931
9867 10940
9868 10924
9868 10925
9869 10925
9869 10926
9870 10926
9870 10927
9871 10927
9871 10928
9872 10928
9872 10929
9873 10929
9873 10930
9874 10932
9874 10939
9874 10940
9874 10950
9875 10932
9875 10933
9876 10933
9876 10934
9877 10934
9877 10935
9878 10935
9878 10936
9879 10936
9879 10937
9880 10937
9880 10938
9881 10938
9881 10939
9882 10941
9882 10949
9882 10950
9882 10961
9883 10941
9883 10942
9884 10942
9884 10943
9885 10943
9885 10944
9886 10944
9886 10945
9887 10945
9887 10946
9888 10946
9888 10947
9889 10947
9889 10948
9890 10948
9890 10949
9891 10951
9891 10960
9891 10961
9891 10973
9892 10951
9892 10952
9893 10952
9893 10953
9894 10953
9894 10954
9895 10954
9895 10955
9896 10955
9896 10956
9897 10956
9897 10957
9898 10957
9898 10958
9899 10958
9899 10959
9900 10959
9900 10960
9901 10962
9901 10972
9901 10973
9901 12575
9901 12576
9902 10962
9902 10963
9903 10963
9903 10964
9904 10964
9904 10965
9905 10965
9905 10966
9906 10966
9906 10967
9907 10967
9907 10968
9908 10968
9908 10969
9909 10969
9909 10970
9910 10970
9910 10971
9911 10971
9911 10972
9912 10974
9912 10978
9912 10985
9913 10974
9913 10975
9914 10975
9914 10976
9915 10976
9915 10977
9916 10977
9916 10978
9917 10979
9917 10984
9917 10985
9917 10993
9918 10979
9918 10980
9919 10980
9919 10981
9920 10981
9920 10982
9921 10982
9921 10983
9922 10983
9922 10984
9923 10986
9923 10992
9923 10993
9923 11002
9924 10986
9924 10987
9925 10987
9925 10988
9926 10988
9926 10989
9927 10989
9927 10990
9928 10990
9928 10991
9929 10991
9929 10992
9930 10994
9930 11001
9930 11002
9930 11012
9931 10994
9931 10995
9932 10995
9932 10996
9933 10996
9933 10997
9934 10997
9934 10998
9935 10998
9935 10999
9936 10999
9936 11000
9937 11000
9937 11001
9938 11003
9938 11011
9938 11012
9938 11023
9939 11003
9939 11004
9940 11004
9940 11005
9941 11005
9941 11006
9942 11006
9942 11007
9943 11007
9943 11008
9944 11008
9944 11009
9945 11009
9945 11010
9946 11010
9946 11011
9947 11013
9947 11022
9947 11023
9947 11035
9948 11013
9948 11014
9949 11014
9949 11015
9950 11015
9950 11016
9951 11016
9951 11017
9952 11017
9952 11018
9953 11018
9953 11019
9954 11019
9954 11020
9955 11020
9955 11021
9956 11021
9956 11022
9957 11024
9957 11034
9957 11035
9957 12576
9957 12577
9958 11024
9958 11025
9959 11025
9959 11026
9960 11026
9960 11027
9961 11027
9961 11028
9962 11028
9962 11029
9963 11029
9963 11030
9964 11030
9964 11031
9965 11031
9965 11032
9966 11032
9966 11033
9967 11033
9967 11034
9968 11036
9968 11040
9968 11047
9969 11036
9969 11037
9970 11037
9970 11038
9971 11038
9971 11039
9972 11039
9972 11040
9973 11041
9973 11046
9973 11047
9973 11055
9974 11041
9974 11042
9975 11042
9975 11043
9976 11043
9976 11044
9977 11044
9977 11045
9978 11045
9978 11046
9979 11048
9979 11054
9979 11055
9979 11064
9980 11048
9980 11049
9981 11049
9981 11050
9982 11050
9982 11051
9983 11051
9983 11052
9984 11052
9984 11053
9985 11053
9985 11054
9986 11056
9986 11063
9986 11064
9986 11074
9987 11056
9987 11057
9988 11057
9988 11058
9989 11058
9989 11059
9990 11059
9990 11060
9991 11060
9991 11061
9992 11061
9992 11062
9993 11062
9993 11063
9994 11065
9994 11073
9994 11074
9994 11085
9995 11065
9995 11066
9996 11066
9996 11067
9997 11067
9997 11068
9998 11068
9998 11069
9999 11069
9999 11070
10000 11070
10000 11071
10001 11071
10001 11072
10002 11072
10002 11073
10003 11075
10003 11084
10003 11085
10003 11097
10004 11075
10004 11076
10005 11076
10005 11077
10006 11077
10006 11078
10007 11078
10007 11079
10008 11079
10008 11080
10009 11080
10009 11081
10010 11081
10010 11082
10011 11082
10011 11083
10012 11083
10012 11084
10013 11086
10013 11096
10013 11097
10013 12577
10013 12578
10014 11086
10014 11087
10015 11087
10015 11088
10016 11088
10016 11089
10017 11089
10017 11090
10018 11090
10018 11091
10019 11091
10019 11092
10020 11092
10020 11093
10021 11093
10021 11094
10022 11094
10022 11095
10023 11095
10023 11096
10024 11098
10024 11102
10024 11109
10025 11098
10025 11099
10026 11099
10026 11100
10027 11100
10027 11101
10028 11101
10028 11102
10029 11103
10029 11108
10029 11109
10029 11117
10030 11103
10030 11104
10031 11104
10031 11105
10032 11105
10032 11106
10033 11106
10033 11107
10034 11107
10034 11108
10035 11110
10035 11116
10035 11117
10035 11126
10036 11110
10036 11111
10037 11111
10037 11112
10038 11112
10038 11113
10039 11113
10039 11114
10040 11114
10040 11115
10041 11115
10041 11116
10042 11118
10042 11125
10042 11126
10042 11136
10043 11118
10043 11119
10044 11119
10044 11120
10045 11120
10045 11121
10046 11121
10046 11122
10047 11122
10047 11123
10048 11123
10048 11124
10049 11124
10049 11125
10050 11127
10050 11135
10050 11136
10050 11147
10051 11127
10051 11128
10052 11128
10052 11129
10053 11129
10053 11130
10054 11130
10054 11131
10055 11131
10055 11132
10056 11132
10056 11133
10057 11133
10057 11134
10058 11134
10058 11135
10059 11137
10059 11146
10059 11147
10059 11159
10060 11137
10060 11138
10061 11138
10061 11139
10062 11139
10062 11140
10063 11140
10063 11141
10064 11141
10064 11142
10065 11142
10065 11143
10066 11143
10066 11144
10067 11144
10067 11145
10068 11145
10068 11146
10069 11148
10069 11158
10069 11159
10069 12578
10069 12579
10070 11148
10070 11149
10071 11149
10071 11150
10072 11150
10072 11151
10073 11151
10073 11152
10074 11152
10074 11153
10075 11153
10075 11154
10076 11154
10076 11155
10077 11155
10077 11156
10078 11156
10078 11157
10079 11157
10079 11158
10080 11160
10080 11164
10080 11171
10081 11160
10081 11161
10082 11161
10082 11162
10083 11162
10083 11163
10084 11163
10084 11164
10085 11165
10085 11170
10085 11171
10085 11179
10086 11165
10086 11166
10087 11166
10087 11167
10088 11167
10088 11168
10089 11168
10089 11169
10090 11169
10090 11170
10091 11172
10091 11178
10091 11179
10091 11188
10092 11172
10092 11173
10093 11173
10093 11174
10094 11174
10094 11175
10095 11175
10095 11176
10096 11176
10096 11177
10097 11177
10097 11178
10098 11180
10098 11187
10098 11188
10098 11198
10099 11180
10099 11181
10100 11181
10100 11182
10101 11182
10101 11183
10102 11183
10102 11184
10103 11184
10103 11185
10104 11185
10104 11186
10105 11186
10105 11187
10106 11189
10106 11197
10106 11198
10106 11209
10107 11189
10107 11190
10108 11190
10108 11191
10109 11191
10109 11192
10110 11192
10110 11193
10111 11193
10111 11194
10112 11194
10112 11195
10113 11195
10113 11196
10114 11196
10114 11197
10115 11199
10115 11208
10115 11209
10115 11221
10116 11199
10116 11200
10117 11200
10117 11201
10118 11201
10118 11202
10119 11202
10119 11203
10120 11203
10120 11204
10121 11204
10121 11205
10122 11205
10122 11206
10123 11206
10123 11207
10124 11207
10124 11208
10125 11210
10125 11220
10125 11221
10125 12579
10125 12580
10126 11210
10126 11211
10127 11211
10127 11212
10128 11212
10128 11213
10129 11213
10129 11214
10130 11214
10130 11215
10131 11215
10131 11216
10132 11216
10132 11217
10133 11217
10133 11218
10134 11218
10134 11219
10135 11219
10135 11220
10136 11222
10136 11226
10136 11233
10137 11222
10137 11223
10138 11223
10138 11224
10139 11224
10139 11225
10140 11225
10140 11226
10141 11227
10141 11232
10141 11233
10141 11241
10142 11227
10142 11228
10143 11228
10143 11229
10144 11229
10144 11230
10145 11230
10145 11231
10146 11231
10146 11232
10147 11234
10147 11240
10147 11241
10147 11250
10148 11234
10148 11235
10149 11235
10149 11236
10150 11236
10150 11237
10151 11237
10151 11238
10152 11238
10152 11239
10153 11239
10153 11240
10154 11242
10154 11249
10154 11250
10154 11260
10155 11242
10155 11243
10156 11243
10156 11244
10157 11244
10157 11245
10158 11245
10158 11246
10159 11246
10159 11247
10160 11247
10160 11248
10161 11248
10161 11249
10162 11251
10162 11259
10162 11260
10162 11271
10163 11251
10163 11252
10164 11252
10164 11253
10165 11253
10165 11254
10166 11254
10166 11255
10167 11255
10167 11256
10168 11256
10168 11257
10169 11257
10169 11258
10170 11258
10170 11259
10171 11261
10171 11270
10171 11271
10171 11283
10172 11261
10172 11262
10173 11262
10173 11263
10174 11263
10174 11264
10175 11264
10175 11265
10176 11265
10176 11266
10177 11266
10177 11267
10178 11267
10178 11268
10179 11268
10179 11269
10180 11269
10180 11270
10181 11272
10181 11282
10181 11283
10181 12580
10181 12581
10182 11272
10182 11273
10183 11273
10183 11274
10184 11274
10184 11275
10185 11275
10185 11276
10186 11276
10186 11277
10187 11277
10187 11278
10188 11278
10188 11279
10189 11279
10189 11280
10190 11280
10190 11281
10191 11281
10191 11282
10192 11284
10192 11288
10192 11295
10193 11284
10193 11285
10194 11285
10194 11286
10195 11286
10195 11287
10196 11287
10196 11288
10197 11289
10197 11294
10197 11295
10197 11303
10198 11289
10198 11290
10199 11290
10199 11291
10200 11291
10200 11292
10201 11292
10201 11293
10202 11293
10202 11294
10203 11296
10203 11302
10203 11303
10203 11312
10204 11296
10204 11297
10205 11297
10205 11298
10206 11298
10206 11299
10207 11299
10207 11300
10208 11300
10208 11301
10209 11301
10209 11302
10210 11304
10210 11311
10210 11312
10210 11322
10211 11304
10211 11305
10212 11305
10212 11306
10213 11306
10213 11307
10214 11307
10214 11308
10215 11308
10215 11309
10216 11309
10216 11310
10217 11310
10217 11311
10218 11313
10218 11321
10218 11322
10218 11333
10219 11313
10219 11314
10220 11314
10220 11315
10221 11315
10221 11316
10222 11316
10222 11317
10223 11317
10223 11318
10224 11318
10224 11319
10225 11319
10225 11320
10226 11320
10226 11321
10227 11323
10227 11332
10227 11333
10227 11345
10228 11323
10228 11324
10229 11324
10229 11325
10230 11325
10230 11326
10231 11326
10231 11327
10232 11327
10232 11328
10233 11328
10233 11329
10234 11329
10234 11330
10235 11330
10235 11331
10236 11331
10236 11332
10237 11334
10237 11344
10237 11345
10237 12581
10237 12582
10238 11334
10238 11335
10239 11335
10239 11336
10240 11336
10240 11337
10241 11337
10241 11338
10242 11338
10242 11339
10243 11339
10243 11340
10244 11340
10244 11341
10245 11341
10245 11342
10246 11342
10246 11343
10247 11343
10247 11344
10248 11346
10248 11350
10248 11357
10249 11346
10249 11347
10250 11347
10250 11348
10251 11348
10251 11349
10252 11349
10252 11350
10253 11351
10253 11356
10253 11357
10253 11365
10254 11351
10254 11352
10255 11352
10255 11353
10256 11353
10256 11354
10257 11354
10257 11355
10258 11355
10258 11356
10259 11358
10259 11364
10259 11365
10259 11374
10260 11358
10260 11359
10261 11359
10261 11360
10262 11360
10262 11361
10263 11361
10263 11362
10264 11362
10264 11363
10265 11363
10265 11364
10266 11366
10266 11373
10266 11374
10266 11384
10267 11366
10267 11367
10268 11367
10268 11368
10269 11368
10269 11369
10270 11369
10270 11370
10271 11370
10271 11371
10272 11371
10272 11372
10273 11372
10273 11373
10274 11375
10274 11383
10274 11384
10274 11395
10275 11375
10275 11376
10276 11376
10276 11377
10277 11377
10277 11378
10278 11378
10278 11379
10279 11379
10279 11380
10280 11380
10280 11381
10281 11381
10281 11382
10282 11382
10282 11383
10283 11385
10283 11394
10283 11395
10283 11407
10284 11385
10284 11386
10285 11386
10285 11387
10286 11387
10286 11388
10287 11388
10287 11389
10288 11389
10288 11390
10289 11390
10289 11391
10290 11391
10290 11392
10291 11392
10291 11393
10292 11393
10292 11394
10293 11396
10293 11406
10293 11407
10293 12582
10293 12583
10294 11396
10294 11397
10295 11397
10295 11398
10296 11398
10296 11399
10297 11399
10297 11400
10298 11400
10298 11401
10299 11401
10299 11402
10300 11402
10300 11403
10301 11403
10301 11404
10302 11404
10302 11405
10303 11405
10303 11406
10304 11408
10304 11412
10304 11419
10305 11408
10305 11409
10306 11409
10306 11410
10307 11410
10307 11411
10308 11411
10308 11412
10309 11413
10309 11418
10309 11419
10309 11427
10310 11413
10310 11414
10311 11414
10311 11415
10312 11415
10312 11416
10313 11416
10313 11417
10314 11417
10314 11418
10315 11420
10315 11426
10315 11427
10315 11436
10316 11420
10316 11421
10317 11421
10317 11422
10318 11422
10318 11423
10319 11423
10319 11424
10320 11424
10320 11425
10321 11425
10321 11426
10322 11428
10322 11435
10322 11436
10322 11446
10323 11428
10323 11429
10324 11429
10324 11430
10325 11430
10325 11431
10326 11431
10326 11432
10327 11432
10327 11433
10328 11433
10328 11434
10329 11434
10329 11435
10330 11437
10330 11445
10330 11446
10330 11457
10331 11437
10331 11438
10332 11438
10332 11439
10333 11439
10333 11440
10334 11440
10334 11441
10335 11441
10335 11442
10336 11442
10336 11443
10337 11443
10337 11444
10338 11444
10338 11445
10339 11447
10339 11456
10339 11457
10339 11469
10340 11447
10340 11448
10341 11448
10341 11449
10342 11449
10342 11450
10343 11450
10343 11451
10344 11451
10344 11452
10345 11452
10345 11453
10346 11453
10346 11454
10347 11454
10347 11455
10348 11455
10348 11456
10349 11458
10349 11468
10349 11469
10349 12583
10349 12584
10350 11458
10350 11459
10351 11459
10351 11460
10352 11460
10352 11461
10353 11461
10353 11462
10354 11462
10354 11463
10355 11463
10355 11464
10356 11464
10356 11465
10357 11465
10357 11466
10358 11466
10358 11467
10359 11467
10359 11468
10360 11470
10360 11474
10360 11481
10361 11470
10361 11471
10362 11471
10362 11472
10363 11472
10363 11473
10364 11473
10364 11474
10365 11475
10365 11480
10365 11481
10365 11489
10366 11475
10366 11476
10367 11476
10367 11477
10368 11477
10368 11478
10369 11478
10369 11479
10370 11479
10370 11480
10371 11482
10371 11488
10371 11489
10371 11498
10372 11482
10372 11483
10373 11483
10373 11484
10374 11484
10374 11485
10375 11485
10375 11486
10376 11486
10376 11487
10377 11487
10377 11488
10378 11490
10378 11497
10378 11498
10378 11508
10379 11490
10379 11491
10380 11491
10380 11492
10381 11492
10381 11493
10382 11493
10382 11494
10383 11494
10383 11495
10384 11495
10384 11496
10385 11496
10385 11497
10386 11499
10386 11507
10386 11508
10386 11519
10387 11499
10387 11500
10388 11500
10388 11501
10389 11501
10389 11502
10390 11502
10390 11503
10391 11503
10391 11504
10392 11504
10392 11505
10393 11505
10393 11506
10394 11506
10394 11507
10395 11509
10395 11518
10395 11519
10395 11531
10396 11509
10396 11510
10397 11510
10397 11511
10398 11511
10398 11512
10399 11512
10399 11513
10400 11513
10400 11514
10401 11514
10401 11515
10402 11515
10402 11516
10403 11516
10403 11517
10404 11517
10404 11518
10405 11520
10405 11530
10405 11531
10405 12584
10405 12585
10406 11520
10406 11521
10407 11521
10407 11522
10408 11522
10408 11523
10409 11523
10409 11524
10410 11524
10410 11525
10411 11525
10411 11526
10412 11526
10412 11527
10413 11527
10413 11528
10414 11528
10414 11529
10415 11529
10415 11530
10416 11532
10416 11536
10416 11543
10417 11532
10417 11533
10418 11533
10418 11534
10419 11534
10419 11535
10420 11535
10420 11536
10421 11537
10421 11542
10421 11543
10421 11551
10422 11537
10422 11538
10423 11538
10423 11539
10424 11539
10424 11540
10425 11540
10425 11541
10426 11541
10426 11542
10427 11544
10427 11550
10427 11551
10427 11560
10428 11544
10428 11545
10429 11545
10429 11546
10430 11546
10430 11547
10431 11547
10431 11548
10432 11548
10432 11549
10433 11549
10433 11550
10434 11552
10434 11559
10434 11560
10434 11570
10435 11552
10435 11553
10436 11553
10436 11554
10437 11554
10437 11555
10438 11555
10438 11556
10439 11556
10439 11557
10440 11557
10440 11558
10441 11558
10441 11559
10442 11561
10442 11569
10442 11570
10442 11581
10443 11561
10443 11562
10444 11562
10444 11563
10445 11563
10445 11564
10446 11564
10446 11565
10447 11565
10447 11566
10448 11566
10448 11567
10449 11567
10449 11568
10450 11568
10450 11569
10451 11571
10451 11580
10451 11581
10451 11593
10452 11571
10452 11572
10453 11572
10453 11573
10454 11573
10454 11574
10455 11574
10455 11575
10456 11575
10456 11576
10457 11576
10457 11577
10458 11577
10458 11578
10459 11578
10459 11579
10460 11579
10460 11580
10461 11582
10461 11592
10461 11593
10461 12585
10461 12586
10462 11582
10462 11583
10463 11583
10463 11584
10464 11584
10464 11585
10465 11585
10465 11586
10466 11586
10466 11587
10467 11587
10467 11588
10468 11588
10468 11589
10469 11589
10469 11590
10470 11590
10470 11591
10471 11591
10471 11592
10472 11594
10472 11598
10472 11605
10473 11594
10473 11595
10474 11595
10474 11596
10475 11596
10475 11597
10476 11597
10476 11598
10477 11599
10477 11604
10477 11605
10477 11613
10478 11599
10478 11600
10479 11600
10479 11601
10480 11601
10480 11602
10481 11602
10481 11603
10482 11603
10482 11604
10483 11606
10483 11612
10483 11613
10483 11622
10484 11606
10484 11607
10485 11607
10485 11608
10486 11608
10486 11609
10487 11609
10487 11610
10488 11610
10488 11611
10489 11611
10489 11612
10490 11614
10490 11621
10490 11622
10490 11632
10491 11614
10491 11615
10492 11615
10492 11616
10493 11616
10493 11617
10494 11617
10494 11618
10495 11618
10495 11619
10496 11619
10496 11620
10497 11620
10497 11621
10498 11623
10498 11631
10498 11632
10498 11643
10499 11623
10499 11624
10500 11624
10500 11625
10501 11625
10501 11626
10502 11626
10502 11627
10503 11627
10503 11628
10504 11628
10504 11629
10505 11629
10505 11630
10506 11630
10506 11631
10507 11633
10507 11642
10507 11643
10507 11655
10508 11633
10508 11634
10509 11634
10509 11635
10510 11635
10510 11636
10511 11636
10511 11637
10512 11637
10512 11638
10513 11638
10513 11639
10514 11639
10514 11640
10515 11640
10515 11641
10516 11641
10516 11642
10517 11644
10517 11654
10517 11655
10517 12586
10517 12587
10518 11644
10518 11645
10519 11645
10519 11646
10520 11646
10520 11647
10521 11647
10521 11648
10522 11648
10522 11649
10523 11649
10523 11650
10524 11650
10524 11651
10525 11651
10525 11652
10526 11652
10526 11653
10527 11653
10527 11654
10528 11656
10528 11660
10528 11667
10529 11656
10529 11657
10530 11657
10530 11658
10531 11658
10531 11659
10532 11659
10532 11660
10533 11661
10533 11666
10533 11667
10533 11675
10534 11661
10534 11662
10535 11662
10535 11663
10536 11663
10536 11664
10537 11664
10537 11665
10538 11665
10538 11666
10539 11668
10539 11674
10539 11675
10539 11684
10540 11668
10540 11669
10541 11669
10541 11670
10542 11670
10542 11671
10543 11671
10543 11672
10544 11672
10544 11673
10545 11673
10545 11674
10546 11676
10546 11683
10546 11684
10546 11694
10547 11676
10547 11677
10548 11677
10548 11678
10549 11678
10549 11679
10550 11679
10550 11680
10551 11680
10551 11681
10552 11681
10552 11682
10553 11682
10553 11683
10554 11685
10554 11693
10554 11694
10554 11705
10555 11685
10555 11686
10556 11686
10556 11687
10557 11687
10557 11688
10558 11688
10558 11689
10559 11689
10559 11690
10560 11690
10560 11691
10561 11691
10561 11692
10562 11692
10562 11693
10563 11695
10563 11704
10563 11705
10563 11717
10564 11695
10564 11696
10565 11696
10565 11697
10566 11697
10566 11698
10567 11698
10567 11699
10568 11699
10568 11700
10569 11700
10569 11701
10570 11701
10570 11702
10571 11702
10571 11703
10572 11703
10572 11704
10573 11706
10573 11716
10573 11717
10573 12587
10573 12588
10574 11706
10574 11707
10575 11707
10575 11708
10576 11708
10576 11709
10577 11709
10577 11710
10578 11710
10578 11711
10579 11711
10579 11712
10580 11712
10580 11713
10581 11713
10581 11714
10582 11714
10582 11715
10583 11715
10583 11716
10584 11718
10584 11722
10584 11729
10585 11718
10585 11719
10586 11719
10586 11720
10587 11720
10587 11721
10588 11721
10588 11722
10589 11723
10589 11728
10589 11729
10589 11737
10590 11723
10590 11724
10591 11724
10591 11725
10592 11725
10592 11726
10593 11726
10593 11727
10594 11727
10594 11728
10595 11730
10595 11736
10595 11737
10595 11746
10596 11730
10596 11731
10597 11731
10597 11732
10598 11732
10598 11733
10599 11733
10599 11734
10600 11734
10600 11735
10601 11735
10601 11736
10602 11738
10602 11745
10602 11746
10602 11756
10603 11738
10603 11739
10604 11739
10604 11740
10605 11740
10605 11741
10606 11741
10606 11742
10607 11742
10607 11743
10608 11743
10608 11744
10609 11744
10609 11745
10610 11747
10610 11755
10610 11756
10610 11767
10611 11747
10611 11748
10612 11748
10612 11749
10613 11749
10613 11750
10614 11750
10614 11751
10615 11751
10615 11752
10616 11752
10616 11753
10617 11753
10617 11754
10618 11754
10618 11755
10619 11757
10619 11766
10619 11767
10619 11779
10620 11757
10620 11758
10621 11758
10621 11759
10622 11759
10622 11760
10623 11760
10623 11761
10624 11761
10624 11762
10625 11762
10625 11763
10626 11763
10626 11764
10627 11764
10627 11765
10628 11765
10628 11766
10629 11768
10629 11778
10629 11779
10629 12588
10629 12589
10630 11768
10630 11769
10631 11769
10631 11770
10632 11770
10632 11771
10633 11771
10633 11772
10634 11772
10634 11773
10635 11773
10635 11774
10636 11774
10636 11775
10637 11775
10637 11776
10638 11776
10638 11777
10639 11777
10639 11778
10640 11780
10640 11784
10640 11791
10641 11780
10641 11781
10642 11781
10642 11782
10643 11782
10643 11783
10644 11783
10644 11784
10645 11785
10645 11790
10645 11791
10645 11799
10646 11785
10646 11786
10647 11786
10647 11787
10648 11787
10648 11788
10649 11788
10649 11789
10650 11789
10650 11790
10651 11792
10651 11798
10651 11799
10651 11808
10652 11792
10652 11793
10653 11793
10653 11794
10654 11794
10654 11795
10655 11795
10655 11796
10656 11796
10656 11797
10657 11797
10657 11798
10658 11800
10658 11807
10658 11808
10658 11818
10659 11800
10659 11801
10660 11801
10660 11802
10661 11802
10661 11803
10662 11803
10662 11804
10663 11804
10663 11805
10664 11805
10664 11806
10665 11806
10665 11807
10666 11809
10666 11817
10666 11818
10666 11829
10667 11809
10667 11810
10668 11810
10668 11811
10669 11811
10669 11812
10670 11812
10670 11813
10671 11813
10671 11814
10672 11814
10672 11815
10673 11815
10673 11816
10674 11816
10674 11817
10675 11819
10675 11828
10675 11829
10675 11841
10676 11819
10676 11820
10677 11820
10677 11821
10678 11821
10678 11822
10679 11822
10679 11823
10680 11823
10680 11824
10681 11824
10681 11825
10682 11825
10682 11826
10683 11826
10683 11827
10684 11827
10684 11828
10685 11830
10685 11840
10685 11841
10685 12589
10685 12590
10686 11830
10686 11831
10687 11831
10687 11832
10688 11832
10688 11833
10689 11833
10689 11834
10690 11834
10690 11835
10691 11835
10691 11836
10692 11836
10692 11837
10693 11837
10693 11838
10694 11838
10694 11839
10695 11839
10695 11840
10696 11842
10696 11846
10696 11853
10697 11842
10697 11843
10698 11843
10698 11844
10699 11844
10699 11845
10700 11845
10700 11846
10701 11847
10701 11852
10701 11853
10701 11861
10702 11847
10702 11848
10703 11848
10703 11849
10704 11849
10704 11850
10705 11850
10705 11851
10706 11851
10706 11852
10707 11854
10707 11860
10707 11861
10707 11870
10708 11854
10708 11855
10709 11855
10709 11856
10710 11856
10710 11857
10711 11857
10711 11858
10712 11858
10712 11859
10713 11859
10713 11860
10714 11862
10714 11869
10714 11870
10714 11880
10715 11862
10715 11863
10716 11863
10716 11864
10717 11864
10717 11865
10718 11865
10718 11866
10719 11866
10719 11867
10720 11867
10720 11868
10721 11868
10721 11869
10722 11871
10722 11879
10722 11880
10722 11891
10723 11871
10723 11872
10724 11872
10724 11873
10725 11873
10725 11874
10726 11874
10726 11875
10727 11875
10727 11876
10728 11876
10728 11877
10729 11877
10729 11878
10730 11878
10730 11879
10731 11881
10731 11890
10731 11891
10731 11903
10732 11881
10732 11882
10733 11882
10733 11883
10734 11883
10734 11884
10735 11884
10735 11885
10736 11885
10736 11886
10737 11886
10737 11887
10738 11887
10738 11888
10739 11888
10739 11889
10740 11889
10740 11890
10741 11892
10741 11902
10741 11903
10741 12590
10741 12591
10742 11892
10742 11893
10743 11893
10743 11894
10744 11894
10744 11895
10745 11895
10745 11896
10746 11896
10746 11897
10747 11897
10747 11898
10748 11898
10748 11899
10749 11899
10749 11900
10750 11900
10750 11901
10751 11901
10751 11902
10752 11904
10752 11908
10752 11915
10753 11904
10753 11905
10754 11905
10754 11906
10755 11906
10755 11907
10756 11907
10756 11908
10757 11909
10757 11914
10757 11915
10757 11923
10758 11909
10758 11910
10759 11910
10759 11911
10760 11911
10760 11912
10761 11912
10761 11913
10762 11913
10762 11914
10763 11916
10763 11922
10763 11923
10763 11932
10764 11916
10764 11917
10765 11917
10765 11918
10766 11918
10766 11919
10767 11919
10767 11920
10768 11920
10768 11921
10769 11921
10769 11922
10770 11924
10770 11931
10770 11932
10770 11942
10771 11924
10771 11925
10772 11925
10772 11926
10773 11926
10773 11927
10774 11927
10774 11928
10775 11928
10775 11929
10776 11929
10776 11930
10777 11930
10777 11931
10778 11933
10778 11941
10778 11942
10778 11953
10779 11933
10779 11934
10780 11934
10780 11935
10781 11935
10781 11936
10782 11936
10782 11937
10783 11937
10783 11938
10784 11938
10784 11939
10785 11939
10785 11940
10786 11940
10786 11941
10787 11943
10787 11952
10787 11953
10787 11965
10788 11943
10788 11944
10789 11944
10789 11945
10790 11945
10790 11946
10791 11946
10791 11947
10792 11947
10792 11948
10793 11948
10793 11949
10794 11949
10794 11950
10795 11950
10795 11951
10796 11951
10796 11952
10797 11954
10797 11964
10797 11965
10797 12591
10797 12592
10798 11954
10798 11955
10799 11955
10799 11956
10800 11956
10800 11957
10801 11957
10801 11958
10802 11958
10802 11959
10803 11959
10803 11960
10804 11960
10804 11961
10805 11961
10805 11962
10806 11962
10806 11963
10807 11963
10807 11964
10808 11966
10808 11970
10808 11977
10809 11966
10809 11967
10810 11967
10810 11968
10811 11968
10811 11969
10812 11969
10812 11970
10813 11971
10813 11976
10813 11977
10813 11985
10814 11971
10814 11972
10815 11972
10815 11973
10816 11973
10816 11974
10817 11974
10817 11975
10818 11975
10818 11976
10819 11978
10819 11984
10819 11985
10819 11994
10820 11978
10820 11979
10821 11979
10821 11980
10822 11980
10822 11981
10823 11981
10823 11982
10824 11982
10824 11983
10825 11983
10825 11984
10826 11986
10826 11993
10826 11994
10826 12004
10827 11986
10827 11987
10828 11987
10828 11988
10829 11988
10829 11989
10830 11989
10830 11990
10831 11990
10831 11991
10832 11991
10832 11992
10833 11992
10833 11993
10834 11995
10834 12003
10834 12004
10834 12015
10835 11995
10835 11996
10836 11996
10836 11997
10837 11997
10837 11998
10838 11998
10838 11999
10839 11999
10839 12000
10840 12000
10840 12001
10841 12001
10841 12002
10842 12002
10842 12003
10843 12005
10843 12014
10843 12015
10843 12027
10844 12005
10844 12006
10845 12006
10845 12007
10846 12007
10846 12008
10847 12008
10847 12009
10848 12009
10848 12010
10849 12010
10849 12011
10850 12011
10850 12012
10851 12012
10851 12013
10852 12013
10852 12014
10853 12016
10853 12026
10853 12027
10853 12592
10853 12593
10854 12016
10854 12017
10855 12017
10855 12018
10856 12018
10856 12019
10857 12019
10857 12020
10858 12020
10858 12021
10859 12021
10859 12022
10860 12022
10860 12023
10861 12023
10861 12024
10862 12024
10862 12025
10863 12025
10863 12026
10864 12028
10864 12032
10864 12039
10865 12028
10865 12029
10866 12029
10866 12030
10867 12030
10867 12031
10868 12031
10868 12032
10869 12033
10869 12038
10869 12039
10869 12047
10870 12033
10870 12034
10871 12034
10871 12035
10872 12035
10872 12036
10873 12036
10873 12037
10874 12037
10874 12038
10875 12040
10875 12046
10875 12047
10875 12056
10876 12040
10876 12041
10877 12041
10877 12042
10878 12042
10878 12043
10879 12043
10879 12044
10880 12044
10880 12045
10881 12045
10881 12046
10882 12048
10882 12055
10882 12056
10882 12066
10883 12048
10883 12049
10884 12049
10884 12050
10885 12050
10885 12051
10886 12051
10886 12052
10887 12052
10887 12053
10888 12053
10888 12054
10889 12054
10889 12055
10890 12057
10890 12065
10890 12066
10890 12077
10891 12057
10891 12058
10892 12058
10892 12059
10893 12059
10893 12060
10894 12060
10894 12061
10895 12061
10895 12062
10896 12062
10896 12063
10897 12063
10897 12064
10898 12064
10898 12065
10899 12067
10899 12076
10899 12077
10899 12089
10900 12067
10900 12068
10901 12068
10901 12069
10902 12069
10902 12070
10903 12070
10903 12071
10904 12071
10904 12072
10905 12072
10905 12073
10906 12073
10906 12074
10907 12074
10907 12075
10908 12075
10908 12076
10909 12078
10909 12088
10909 12089
10909 12593
10909 12594
10910 12078
10910 12079
10911 12079
10911 12080
10912 12080
10912 12081
10913 12081
10913 12082
10914 12082
10914 12083
10915 12083
10915 12084
10916 12084
10916 12085
10917 12085
10917 12086
10918 12086
10918 12087
10919 12087
10919 12088
10920 12090
10920 12094
10920 12101
10921 12090
10921 12091
10922 12091
10922 12092
10923 12092
10923 12093
10924 12093
10924 12094
10925 12095
10925 12100
10925 12101
10925 12109
10926 12095
10926 12096
10927 12096
10927 12097
10928 12097
10928 12098
10929 12098
10929 12099
10930 12099
10930 12100
10931 12102
10931 12108
10931 12109
10931 12118
10932 12102
10932 12103
10933 12103
10933 12104
10934 12104
10934 12105
10935 12105
10935 12106
10936 12106
10936 12107
10937 12107
10937 12108
10938 12110
10938 12117
10938 12118
10938 12128
10939 12110
10939 12111
10940 12111
10940 12112
10941 12112
10941 12113
10942 12113
10942 12114
10943 12114
10943 12115
10944 12115
10944 12116
10945 12116
10945 12117
10946 12119
10946 12127
10946 12128
10946 12139
10947 12119
10947 12120
10948 12120
10948 12121
10949 12121
10949 12122
10950 12122
10950 12123
10951 12123
10951 12124
10952 12124
10952 12125
10953 12125
10953 12126
10954 12126
10954 12127
10955 12129
10955 12138
10955 12139
10955 12151
10956 12129
10956 12130
10957 12130
10957 12131
10958 12131
10958 12132
10959 12132
10959 12133
10960 12133
10960 12134
10961 12134
10961 12135
10962 12135
10962 12136
10963 12136
10963 12137
10964 12137
10964 12138
10965 12140
10965 12150
10965 12151
10965 12594
10965 12595
10966 12140
10966 12141
10967 12141
10967 12142
10968 12142
10968 12143
10969 12143
10969 12144
10970 12144
10970 12145
10971 12145
10971 12146
10972 12146
10972 12147
10973 12147
10973 12148
10974 12148
10974 12149
10975 12149
10975 12150
10976 12152
10976 12156
10976 12163
10977 12152
10977 12153
10978 12153
10978 12154
10979 12154
10979 12155
10980 12155
10980 12156
10981 12157
10981 12162
10981 12163
10981 12171
10982 12157
10982 12158
10983 12158
10983 12159
10984 12159
10984 12160
10985 12160
10985 12161
10986 12161
10986 12162
10987 12164
10987 12170
10987 12171
10987 12180
10988 12164
10988 12165
10989 12165
10989 12166
10990 12166
10990 12167
10991 12167
10991 12168
10992 12168
10992 12169
10993 12169
10993 12170
10994 12172
10994 12179
10994 12180
10994 12190
10995 12172
10995 12173
10996 12173
10996 12174
10997 12174
10997 12175
10998 12175
10998 12176
10999 12176
10999 12177
11000 12177
11000 12178
11001 12178
11001 12179
11002 12181
11002 12189
11002 12190
11002 12201
11003 12181
11003 12182
11004 12182
11004 12183
11005 12183
11005 12184
11006 12184
11006 12185
11007 12185
11007 12186
11008 12186
11008 12187
11009 12187
11009 12188
11010 12188
11010 12189
11011 12191
11011 12200
11011 12201
11011 12213
11012 12191
11012 12192
11013 12192
11013 12193
11014 12193
11014 12194
11015 12194
11015 12195
11016 12195
11016 12196
11017 12196
11017 12197
11018 12197
11018 12198
11019 12198
11019 12199
11020 12199
11020 12200
11021 12202
11021 12212
11021 12213
11021 12595
11021 12596
11022 12202
11022 12203
11023 12203
11023 12204
11024 12204
11024 12205
11025 12205
11025 12206
11026 12206
11026 12207
11027 12207
11027 12208
11028 12208
11028 12209
11029 12209
11029 12210
11030 12210
11030 12211
11031 12211
11031 12212
11032 12214
11032 12218
11032 12225
11033 12214
11033 12215
11034 12215
11034 12216
11035 12216
11035 12217
11036 12217
11036 12218
11037 12219
11037 12224
11037 12225
11037 12233
11038 12219
11038 12220
11039 12220
11039 12221
11040 12221
11040 12222
11041 12222
11041 12223
11042 12223
11042 12224
11043 12226
11043 12232
11043 12233
11043 12242
11044 12226
11044 12227
11045 12227
11045 12228
11046 12228
11046 12229
11047 12229
11047 12230
11048 12230
11048 12231
11049 12231
11049 12232
11050 12234
11050 12241
11050 12242
11050 12252
11051 12234
11051 12235
11052 12235
11052 12236
11053 12236
11053 12237
11054 12237
11054 12238
11055 12238
11055 12239
11056 12239
11056 12240
11057 12240
11057 12241
11058 12243
11058 12251
11058 12252
11058 12263
11059 12243
11059 12244
11060 12244
11060 12245
11061 12245
11061 12246
11062 12246
11062 12247
11063 12247
11063 12248
11064 12248
11064 12249
11065 12249
11065 12250
11066 12250
11066 12251
11067 12253
11067 12262
11067 12263
11067 12275
11068 12253
11068 12254
11069 12254
11069 12255
11070 12255
11070 12256
11071 12256
11071 12257
11072 12257
11072 12258
11073 12258
11073 12259
11074 12259
11074 12260
11075 12260
11075 12261
11076 12261
11076 12262
11077 12264
11077 12274
11077 12275
11077 12596
11077 12597
11078 12264
11078 12265
11079 12265
11079 12266
11080 12266
11080 12267
11081 12267
11081 12268
11082 12268
11082 12269
11083 12269
11083 12270
11084 12270
11084 12271
11085 12271
11085 12272
11086 12272
11086 12273
11087 12273
11087 12274
11088 12276
11088 12280
11088 12287
11089 12276
11089 12277
11090 12277
11090 12278
11091 12278
11091 12279
11092 12279
11092 12280
11093 12281
11093 12286
11093 12287
11093 12295
11094 12281
11094 12282
11095 12282
11095 12283
11096 12283
11096 12284
11097 12284
11097 12285
11098 12285
11098 12286
11099 12288
11099 12294
11099 12295
11099 12304
11100 12288
11100 12289
11101 12289
11101 12290
11102 12290
11102 12291
11103 12291
11103 12292
11104 12292
11104 12293
11105 12293
11105 12294
11106 12296
11106 12303
11106 12304
11106 12314
11107 12296
11107 12297
11108 12297
11108 12298
11109 12298
11109 12299
11110 12299
11110 12300
11111 12300
11111 12301
11112 12301
11112 12302
11113 12302
11113 12303
11114 12305
11114 12313
11114 12314
11114 12325
11115 12305
11115 12306
11116 12306
11116 12307
11117 12307
11117 12308
11118 12308
11118 12309
11119 12309
11119 12310
11120 12310
11120 12311
11121 12311
11121 12312
11122 12312
11122 12313
11123 12315
11123 12324
11123 12325
11123 12337
11124 12315
11124 12316
11125 12316
11125 12317
11126 12317
11126 12318
11127 12318
11127 12319
11128 12319
11128 12320
11129 12320
11129 12321
11130 12321
11130 12322
11131 12322
11131 12323
11132 12323
11132 12324
11133 12326
11133 12336
11133 12337
11133 12597
11133 12598
11134 12326
11134 12327
11135 12327
11135 12328
11136 12328
11136 12329
11137 12329
11137 12330
11138 12330
11138 12331
11139 12331
11139 12332
11140 12332
11140 12333
11141 12333
11141 12334
11142 12334
11142 12335
11143 12335
11143 12336
11144 12338
11144 12342
11144 12349
11145 12338
11145 12339
11146 12339
11146 12340
11147 12340
11147 12341
11148 12341
11148 12342
11149 12343
11149 12348
11149 12349
11149 12357
11150 12343
11150 12344
11151 12344
11151 12345
11152 12345
11152 12346
11153 12346
11153 12347
11154 12347
11154 12348
11155 12350
11155 12356
11155 12357
11155 12366
11156 12350
11156 12351
11157 12351
11157 12352
11158 12352
11158 12353
11159 12353
11159 12354
11160 12354
11160 12355
11161 12355
11161 12356
11162 12358
11162 12365
11162 12366
11162 12376
11163 12358
11163 12359
11164 12359
11164 12360
11165 12360
11165 12361
11166 12361
11166 12362
11167 12362
11167 12363
11168 12363
11168 12364
11169 12364
11169 12365
11170 12367
11170 12375
11170 12376
11170 12387
11171 12367
11171 12368
11172 12368
11172 12369
11173 12369
11173 12370
11174 12370
11174 12371
11175 12371
11175 12372
11176 12372
11176 12373
11177 12373
11177 12374
11178 12374
11178 12375
11179 12377
11179 12386
11179 12387
11179 12399
11180 12377
11180 12378
11181 12378
11181 12379
11182 12379
11182 12380
11183 12380
11183 12381
11184 12381
11184 12382
11185 12382
11185 12383
11186 12383
11186 12384
11187 12384
11187 12385
11188 12385
11188 12386
11189 12388
11189 12398
11189 12399
11189 12598
11190 12388
11190 12389
11191 12389
11191 12390
11192 12390
11192 12391
11193 12391
11193 12392
11194 12392
11194 12393
11195 12393
11195 12394
11196 12394
11196 12395
11197 12395
11197 12396
11198 12396
11198 12397
11199 12397
11199 12398
