15200 16799 33598
0 0
0 5
0 13
1 0
1 1
2 1
2 2
3 2
3 3
4 3
4 4
5 4
5 5
6 6
6 12
6 13
6 22
7 6
7 7
8 7
8 8
9 8
9 9
10 9
10 10
11 10
11 11
12 11
12 12
13 14
13 21
13 22
13 32
14 14
14 15
15 15
15 16
16 16
16 17
17 17
17 18
18 18
18 19
19 19
19 20
20 20
20 21
21 23
21 31
21 32
21 43
22 23
22 24
23 24
23 25
24 25
24 26
25 26
25 27
26 27
26 28
27 28
27 29
28 29
28 30
29 30
29 31
30 33
30 42
30 43
30 55
31 33
31 34
32 34
32 35
33 35
33 36
34 36
34 37
35 37
35 38
36 38
36 39
37 39
37 40
38 40
38 41
39 41
39 42
40 44
40 54
40 55
40 68
41 44
41 45
42 45
42 46
43 46
43 47
44 47
44 48
45 48
45 49
46 49
46 50
47 50
47 51
48 51
48 52
49 52
49 53
50 53
50 54
51 56
51 67
51 68
51 82
52 56
52 57
53 57
53 58
54 58
54 59
55 59
55 60
56 60
56 61
57 61
57 62
58 62
58 63
59 63
59 64
60 64
60 65
61 65
61 66
62 66
62 67
63 69
63 81
63 82
63 16600
64 69
64 70
65 70
65 71
66 71
66 72
67 72
67 73
68 73
68 74
69 74
69 75
70 75
70 76
71 76
71 77
72 77
72 78
73 78
73 79
74 79
74 80
75 80
75 81
76 83
76 88
76 96
77 83
77 84
78 84
78 85
79 85
79 86
80 86
80 87
81 87
81 88
82 89
82 95
82 96
82 105
83 89
83 90
84 90
84 91
85 91
85 92
86 92
86 93
87 93
87 94
88 94
88 95
89 97
89 104
89 105
89 115
90 97
90 98
91 98
91 99
92 99
92 100
93 100
93 101
94 101
94 102
95 102
95 103
96 103
96 104
97 106
97 114
97 115
97 126
98 106
98 107
99 107
99 108
100 108
100 109
101 109
101 110
102 110
102 111
103 111
103 112
104 112
104 113
105 113
105 114
106 116
106 125
106 126
106 138
107 116
107 117
108 117
108 118
109 118
109 119
110 119
110 120
111 120
111 121
112 121
112 122
113 122
113 123
114 123
114 124
115 124
115 125
116 127
116 137
116 138
116 151
117 127
117 128
118 128
118 129
119 129
119 130
120 130
120 131
121 131
121 132
122 132
122 133
123 133
123 134
124 134
124 135
125 135
125 136
126 136
126 137
127 139
127 150
127 151
127 165
128 139
128 140
129 140
129 141
130 141
130 142
131 142
131 143
132 143
132 144
133 144
133 145
134 145
134 146
135 146
135 147
136 147
136 148
137 148
137 149
138 149
138 150
139 152
139 164
139 165
139 16600
139 16601
140 152
140 153
141 153
141 154
142 154
142 155
143 155
143 156
144 156
144 157
145 157
145 158
146 158
146 159
147 159
147 160
148 160
148 161
149 161
149 162
150 162
150 163
151 163
151 164
152 166
152 171
152 179
153 166
153 167
154 167
154 168
155 168
155 169
156 169
156 170
157 170
157 171
158 172
158 178
158 179
158 188
159 172
159 173
160 173
160 174
161 174
161 175
162 175
162 176
163 176
163 177
164 177
164 178
165 180
165 187
165 188
165 198
166 180
166 181
167 181
167 182
168 182
168 183
169 183
169 184
170 184
170 185
171 185
171 186
172 186
172 187
173 189
173 197
173 198
173 209
174 189
174 190
175 190
175 191
176 191
176 192
177 192
177 193
178 193
178 194
179 194
179 195
180 195
180 196
181 196
181 197
182 199
182 208
182 209
182 221
183 199
183 200
184 200
184 201
185 201
185 202
186 202
186 203
187 203
187 204
188 204
188 205
189 205
189 206
190 206
190 207
191 207
191 208
192 210
192 220
192 221
192 234
193 210
193 211
194 211
194 212
195 212
195 213
196 213
196 214
197 214
197 215
198 215
198 216
199 216
199 217
200 217
200 218
201 218
201 219
202 219
202 220
203 222
203 233
203 234
203 248
204 222
204 223
205 223
205 224
206 224
206 225
207 225
207 226
208 226
208 227
209 227
209 228
210 228
210 229
211 229
211 230
212 230
212 231
213 231
213 232
214 232
214 233
215 235
215 247
215 248
215 16601
215 16602
216 235
216 236
217 236
217 237
218 237
218 238
219 238
219 239
220 239
220 240
221 240
221 241
222 241
222 242
223 242
223 243
224 243
224 244
225 244
225 245
226 245
226 246
227 246
227 247
228 249
228 254
228 262
229 249
229 250
230 250
230 251
231 251
231 252
232 252
232 253
233 253
233 254
234 255
234 261
234 262
234 271
235 255
235 256
236 256
236 257
237 257
237 258
238 258
238 259
239 259
239 260
240 260
240 261
241 263
241 270
241 271
241 281
242 263
242 264
243 264
243 265
244 265
244 266
245 266
245 267
246 267
246 268
247 268
247 269
248 269
248 270
249 272
249 280
249 281
249 292
250 272
250 273
251 273
251 274
252 274
252 275
253 275
253 276
254 276
254 277
255 277
255 278
256 278
256 279
257 279
257 280
258 282
258 291
258 292
258 304
259 282
259 283
260 283
260 284
261 284
261 285
262 285
262 286
263 286
263 287
264 287
264 288
265 288
265 289
266 289
266 290
267 290
267 291
268 293
268 303
268 304
268 317
269 293
269 294
270 294
270 295
271 295
271 296
272 296
272 297
273 297
273 298
274 298
274 299
275 299
275 300
276 300
276 301
277 301
277 302
278 302
278 303
279 305
279 316
279 317
279 331
280 305
280 306
281 306
281 307
282 307
282 308
283 308
283 309
284 309
284 310
285 310
285 311
286 311
286 312
287 312
287 313
288 313
288 314
289 314
289 315
290 315
290 316
291 318
291 330
291 331
291 16602
291 16603
292 318
292 319
293 319
293 320
294 320
294 321
295 321
295 322
296 322
296 323
297 323
297 324
298 324
298 325
299 325
299 326
300 326
300 327
301 327
301 328
302 328
302 329
303 329
303 330
304 332
304 337
304 345
305 332
305 333
306 333
306 334
307 334
307 335
308 335
308 336
309 336
309 337
310 338
310 344
310 345
310 354
311 338
311 339
312 339
312 340
313 340
313 341
314 341
314 342
315 342
315 343
316 343
316 344
317 346
317 353
317 354
317 364
318 346
318 347
319 347
319 348
320 348
320 349
321 349
321 350
322 350
322 351
323 351
323 352
324 352
324 353
325 355
325 363
325 364
325 375
326 355
326 356
327 356
327 357
328 357
328 358
329 358
329 359
330 359
330 360
331 360
331 361
332 361
332 362
333 362
333 363
334 365
334 374
334 375
334 387
335 365
335 366
336 366
336 367
337 367
337 368
338 368
338 369
339 369
339 370
340 370
340 371
341 371
341 372
342 372
342 373
343 373
343 374
344 376
344 386
344 387
344 400
345 376
345 377
346 377
346 378
347 378
347 379
348 379
348 380
349 380
349 381
350 381
350 382
351 382
351 383
352 383
352 384
353 384
353 385
354 385
354 386
355 388
355 399
355 400
355 414
356 388
356 389
357 389
357 390
358 390
358 391
359 391
359 392
360 392
360 393
361 393
361 394
362 394
362 395
363 395
363 396
364 396
364 397
365 397
365 398
366 398
366 399
367 401
367 413
367 414
367 16603
367 16604
368 401
368 402
369 402
369 403
370 403
370 404
371 404
371 405
372 405
372 406
373 406
373 407
374 407
374 408
375 408
375 409
376 409
376 410
377 410
377 411
378 411
378 412
379 412
379 413
380 415
380 420
380 428
381 415
381 416
382 416
382 417
383 417
383 418
384 418
384 419
385 419
385 420
386 421
386 427
386 428
386 437
387 421
387 422
388 422
388 423
389 423
389 424
390 424
390 425
391 425
391 426
392 426
392 427
393 429
393 436
393 437
393 447
394 429
394 430
395 430
395 431
396 431
396 432
397 432
397 433
398 433
398 434
399 434
399 435
400 435
400 436
401 438
401 446
401 447
401 458
402 438
402 439
403 439
403 440
404 440
404 441
405 441
405 442
406 442
406 443
407 443
407 444
408 444
408 445
409 445
409 446
410 448
410 457
410 458
410 470
411 448
411 449
412 449
412 450
413 450
413 451
414 451
414 452
415 452
415 453
416 453
416 454
417 454
417 455
418 455
418 456
419 456
419 457
420 459
420 469
420 470
420 483
421 459
421 460
422 460
422 461
423 461
423 462
424 462
424 463
425 463
425 464
426 464
426 465
427 465
427 466
428 466
428 467
429 467
429 468
430 468
430 469
431 471
431 482
431 483
431 497
432 471
432 472
433 472
433 473
434 473
434 474
435 474
435 475
436 475
436 476
437 476
437 477
438 477
438 478
439 478
439 479
440 479
440 480
441 480
441 481
442 481
442 482
443 484
443 496
443 497
443 16604
443 16605
444 484
444 485
445 485
445 486
446 486
446 487
447 487
447 488
448 488
448 489
449 489
449 490
450 490
450 491
451 491
451 492
452 492
452 493
453 493
453 494
454 494
454 495
455 495
455 496
456 498
456 503
456 511
457 498
457 499
458 499
458 500
459 500
459 501
460 501
460 502
461 502
461 503
462 504
462 510
462 511
462 520
463 504
463 505
464 505
464 506
465 506
465 507
466 507
466 508
467 508
467 509
468 509
468 510
469 512
469 519
469 520
469 530
470 512
470 513
471 513
471 514
472 514
472 515
473 515
473 516
474 516
474 517
475 517
475 518
476 518
476 519
477 521
477 529
477 530
477 541
478 521
478 522
479 522
479 523
480 523
480 524
481 524
481 525
482 525
482 526
483 526
483 527
484 527
484 528
485 528
485 529
486 531
486 540
486 541
486 553
487 531
487 532
488 532
488 533
489 533
489 534
490 534
490 535
491 535
491 536
492 536
492 537
493 537
493 538
494 538
494 539
495 539
495 540
496 542
496 552
496 553
496 566
497 542
497 543
498 543
498 544
499 544
499 545
500 545
500 546
501 546
501 547
502 547
502 548
503 548
503 549
504 549
504 550
505 550
505 551
506 551
506 552
507 554
507 565
507 566
507 580
508 554
508 555
509 555
509 556
510 556
510 557
511 557
511 558
512 558
512 559
513 559
513 560
514 560
514 561
515 561
515 562
516 562
516 563
517 563
517 564
518 564
518 565
519 567
519 579
519 580
519 16605
519 16606
520 567
520 568
521 568
521 569
522 569
522 570
523 570
523 571
524 571
524 572
525 572
525 573
526 573
526 574
527 574
527 575
528 575
528 576
529 576
529 577
530 577
530 578
531 578
531 579
532 581
532 586
532 594
533 581
533 582
534 582
534 583
535 583
535 584
536 584
536 585
537 585
537 586
538 587
538 593
538 594
538 603
539 587
539 588
540 588
540 589
541 589
541 590
542 590
542 591
543 591
543 592
544 592
544 593
545 595
545 602
545 603
545 613
546 595
546 596
547 596
547 597
548 597
548 598
549 598
549 599
550 599
550 600
551 600
551 601
552 601
552 602
553 604
553 612
553 613
553 624
554 604
554 605
555 605
555 606
556 606
556 607
557 607
557 608
558 608
558 609
559 609
559 610
560 610
560 611
561 611
561 612
562 614
562 623
562 624
562 636
563 614
563 615
564 615
564 616
565 616
565 617
566 617
566 618
567 618
567 619
568 619
568 620
569 620
569 621
570 621
570 622
571 622
571 623
572 625
572 635
572 636
572 649
573 625
573 626
574 626
574 627
575 627
575 628
576 628
576 629
577 629
577 630
578 630
578 631
579 631
579 632
580 632
580 633
581 633
581 634
582 634
582 635
583 637
583 648
583 649
583 663
584 637
584 638
585 638
585 639
586 639
586 640
587 640
587 641
588 641
588 642
589 642
589 643
590 643
590 644
591 644
591 645
592 645
592 646
593 646
593 647
594 647
594 648
595 650
595 662
595 663
595 16606
595 16607
596 650
596 651
597 651
597 652
598 652
598 653
599 653
599 654
600 654
600 655
601 655
601 656
602 656
602 657
603 657
603 658
604 658
604 659
605 659
605 660
606 660
606 661
607 661
607 662
608 664
608 669
608 677
609 664
609 665
610 665
610 666
611 666
611 667
612 667
612 668
613 668
613 669
614 670
614 676
614 677
614 686
615 670
615 671
616 671
616 672
617 672
617 673
618 673
618 674
619 674
619 675
620 675
620 676
621 678
621 685
621 686
621 696
622 678
622 679
623 679
623 680
624 680
624 681
625 681
625 682
626 682
626 683
627 683
627 684
628 684
628 685
629 687
629 695
629 696
629 707
630 687
630 688
631 688
631 689
632 689
632 690
633 690
633 691
634 691
634 692
635 692
635 693
636 693
636 694
637 694
637 695
638 697
638 706
638 707
638 719
639 697
639 698
640 698
640 699
641 699
641 700
642 700
642 701
643 701
643 702
644 702
644 703
645 703
645 704
646 704
646 705
647 705
647 706
648 708
648 718
648 719
648 732
649 708
649 709
650 709
650 710
651 710
651 711
652 711
652 712
653 712
653 713
654 713
654 714
655 714
655 715
656 715
656 716
657 716
657 717
658 717
658 718
659 720
659 731
659 732
659 746
660 720
660 721
661 721
661 722
662 722
662 723
663 723
663 724
664 724
664 725
665 725
665 726
666 726
666 727
667 727
667 728
668 728
668 729
669 729
669 730
670 730
670 731
671 733
671 745
671 746
671 16607
671 16608
672 733
672 734
673 734
673 735
674 735
674 736
675 736
675 737
676 737
676 738
677 738
677 739
678 739
678 740
679 740
679 741
680 741
680 742
681 742
681 743
682 743
682 744
683 744
683 745
684 747
684 752
684 760
685 747
685 748
686 748
686 749
687 749
687 750
688 750
688 751
689 751
689 752
690 753
690 759
690 760
690 769
691 753
691 754
692 754
692 755
693 755
693 756
694 756
694 757
695 757
695 758
696 758
696 759
697 761
697 768
697 769
697 779
698 761
698 762
699 762
699 763
700 763
700 764
701 764
701 765
702 765
702 766
703 766
703 767
704 767
704 768
705 770
705 778
705 779
705 790
706 770
706 771
707 771
707 772
708 772
708 773
709 773
709 774
710 774
710 775
711 775
711 776
712 776
712 777
713 777
713 778
714 780
714 789
714 790
714 802
715 780
715 781
716 781
716 782
717 782
717 783
718 783
718 784
719 784
719 785
720 785
720 786
721 786
721 787
722 787
722 788
723 788
723 789
724 791
724 801
724 802
724 815
725 791
725 792
726 792
726 793
727 793
727 794
728 794
728 795
729 795
729 796
730 796
730 797
731 797
731 798
732 798
732 799
733 799
733 800
734 800
734 801
735 803
735 814
735 815
735 829
736 803
736 804
737 804
737 805
738 805
738 806
739 806
739 807
740 807
740 808
741 808
741 809
742 809
742 810
743 810
743 811
744 811
744 812
745 812
745 813
746 813
746 814
747 816
747 828
747 829
747 16608
747 16609
748 816
748 817
749 817
749 818
750 818
750 819
751 819
751 820
752 820
752 821
753 821
753 822
754 822
754 823
755 823
755 824
756 824
756 825
757 825
757 826
758 826
758 827
759 827
759 828
760 830
760 835
760 843
761 830
761 831
762 831
762 832
763 832
763 833
764 833
764 834
765 834
765 835
766 836
766 842
766 843
766 852
767 836
767 837
768 837
768 838
769 838
769 839
770 839
770 840
771 840
771 841
772 841
772 842
773 844
773 851
773 852
773 862
774 844
774 845
775 845
775 846
776 846
776 847
777 847
777 848
778 848
778 849
779 849
779 850
780 850
780 851
781 853
781 861
781 862
781 873
782 853
782 854
783 854
783 855
784 855
784 856
785 856
785 857
786 857
786 858
787 858
787 859
788 859
788 860
789 860
789 861
790 863
790 872
790 873
790 885
791 863
791 864
792 864
792 865
793 865
793 866
794 866
794 867
795 867
795 868
796 868
796 869
797 869
797 870
798 870
798 871
799 871
799 872
800 874
800 884
800 885
800 898
801 874
801 875
802 875
802 876
803 876
803 877
804 877
804 878
805 878
805 879
806 879
806 880
807 880
807 881
808 881
808 882
809 882
809 883
810 883
810 884
811 886
811 897
811 898
811 912
812 886
812 887
813 887
813 888
814 888
814 889
815 889
815 890
816 890
816 891
817 891
817 892
818 892
818 893
819 893
819 894
820 894
820 895
821 895
821 896
822 896
822 897
823 899
823 911
823 912
823 16609
823 16610
824 899
824 900
825 900
825 901
826 901
826 902
827 902
827 903
828 903
828 904
829 904
829 905
830 905
830 906
831 906
831 907
832 907
832 908
833 908
833 909
834 909
834 910
835 910
835 911
836 913
836 918
836 926
837 913
837 914
838 914
838 915
839 915
839 916
840 916
840 917
841 917
841 918
842 919
842 925
842 926
842 935
843 919
843 920
844 920
844 921
845 921
845 922
846 922
846 923
847 923
847 924
848 924
848 925
849 927
849 934
849 935
849 945
850 927
850 928
851 928
851 929
852 929
852 930
853 930
853 931
854 931
854 932
855 932
855 933
856 933
856 934
857 936
857 944
857 945
857 956
858 936
858 937
859 937
859 938
860 938
860 939
861 939
861 940
862 940
862 941
863 941
863 942
864 942
864 943
865 943
865 944
866 946
866 955
866 956
866 968
867 946
867 947
868 947
868 948
869 948
869 949
870 949
870 950
871 950
871 951
872 951
872 952
873 952
873 953
874 953
874 954
875 954
875 955
876 957
876 967
876 968
876 981
877 957
877 958
878 958
878 959
879 959
879 960
880 960
880 961
881 961
881 962
882 962
882 963
883 963
883 964
884 964
884 965
885 965
885 966
886 966
886 967
887 969
887 980
887 981
887 995
888 969
888 970
889 970
889 971
890 971
890 972
891 972
891 973
892 973
892 974
893 974
893 975
894 975
894 976
895 976
895 977
896 977
896 978
897 978
897 979
898 979
898 980
899 982
899 994
899 995
899 16610
899 16611
900 982
900 983
901 983
901 984
902 984
902 985
903 985
903 986
904 986
904 987
905 987
905 988
906 988
906 989
907 989
907 990
908 990
908 991
909 991
909 992
910 992
910 993
911 993
911 994
912 996
912 1001
912 1009
913 996
913 997
914 997
914 998
915 998
915 999
916 999
916 1000
917 1000
917 1001
918 1002
918 1008
918 1009
918 1018
919 1002
919 1003
920 1003
920 1004
921 1004
921 1005
922 1005
922 1006
923 1006
923 1007
924 1007
924 1008
925 1010
925 1017
925 1018
925 1028
926 1010
926 1011
927 1011
927 1012
928 1012
928 1013
929 1013
929 1014
930 1014
930 1015
931 1015
931 1016
932 1016
932 1017
933 1019
933 1027
933 1028
933 1039
934 1019
934 1020
935 1020
935 1021
936 1021
936 1022
937 1022
937 1023
938 1023
938 1024
939 1024
939 1025
940 1025
940 1026
941 1026
941 1027
942 1029
942 1038
942 1039
942 1051
943 1029
943 1030
944 1030
944 1031
945 1031
945 1032
946 1032
946 1033
947 1033
947 1034
948 1034
948 1035
949 1035
949 1036
950 1036
950 1037
951 1037
951 1038
952 1040
952 1050
952 1051
952 1064
953 1040
953 1041
954 1041
954 1042
955 1042
955 1043
956 1043
956 1044
957 1044
957 1045
958 1045
958 1046
959 1046
959 1047
960 1047
960 1048
961 1048
961 1049
962 1049
962 1050
963 1052
963 1063
963 1064
963 1078
964 1052
964 1053
965 1053
965 1054
966 1054
966 1055
967 1055
967 1056
968 1056
968 1057
969 1057
969 1058
970 1058
970 1059
971 1059
971 1060
972 1060
972 1061
973 1061
973 1062
974 1062
974 1063
975 1065
975 1077
975 1078
975 16611
975 16612
976 1065
976 1066
977 1066
977 1067
978 1067
978 1068
979 1068
979 1069
980 1069
980 1070
981 1070
981 1071
982 1071
982 1072
983 1072
983 1073
984 1073
984 1074
985 1074
985 1075
986 1075
986 1076
987 1076
987 1077
988 1079
988 1084
988 1092
989 1079
989 1080
990 1080
990 1081
991 1081
991 1082
992 1082
992 1083
993 1083
993 1084
994 1085
994 1091
994 1092
994 1101
995 1085
995 1086
996 1086
996 1087
997 1087
997 1088
998 1088
998 1089
999 1089
999 1090
1000 1090
1000 1091
1001 1093
1001 1100
1001 1101
1001 1111
1002 1093
1002 1094
1003 1094
1003 1095
1004 1095
1004 1096
1005 1096
1005 1097
1006 1097
1006 1098
1007 1098
1007 1099
1008 1099
1008 1100
1009 1102
1009 1110
1009 1111
1009 1122
1010 1102
1010 1103
1011 1103
1011 1104
1012 1104
1012 1105
1013 1105
1013 1106
1014 1106
1014 1107
1015 1107
1015 1108
1016 1108
1016 1109
1017 1109
1017 1110
1018 1112
1018 1121
1018 1122
1018 1134
1019 1112
1019 1113
1020 1113
1020 1114
1021 1114
1021 1115
1022 1115
1022 1116
1023 1116
1023 1117
1024 1117
1024 1118
1025 1118
1025 1119
1026 1119
1026 1120
1027 1120
1027 1121
1028 1123
1028 1133
1028 1134
1028 1147
1029 1123
1029 1124
1030 1124
1030 1125
1031 1125
1031 1126
1032 1126
1032 1127
1033 1127
1033 1128
1034 1128
1034 1129
1035 1129
1035 1130
1036 1130
1036 1131
1037 1131
1037 1132
1038 1132
1038 1133
1039 1135
1039 1146
1039 1147
1039 1161
1040 1135
1040 1136
1041 1136
1041 1137
1042 1137
1042 1138
1043 1138
1043 1139
1044 1139
1044 1140
1045 1140
1045 1141
1046 1141
1046 1142
1047 1142
1047 1143
1048 1143
1048 1144
1049 1144
1049 1145
1050 1145
1050 1146
1051 1148
1051 1160
1051 1161
1051 16612
1051 16613
1052 1148
1052 1149
1053 1149
1053 1150
1054 1150
1054 1151
1055 1151
1055 1152
1056 1152
1056 1153
1057 1153
1057 1154
1058 1154
1058 1155
1059 1155
1059 1156
1060 1156
1060 1157
1061 1157
1061 1158
1062 1158
1062 1159
1063 1159
1063 1160
1064 1162
1064 1167
1064 1175
1065 1162
1065 1163
1066 1163
1066 1164
1067 1164
1067 1165
1068 1165
1068 1166
1069 1166
1069 1167
1070 1168
1070 1174
1070 1175
1070 1184
1071 1168
1071 1169
1072 1169
1072 1170
1073 1170
1073 1171
1074 1171
1074 1172
1075 1172
1075 1173
1076 1173
1076 1174
1077 1176
1077 1183
1077 1184
1077 1194
1078 1176
1078 1177
1079 1177
1079 1178
1080 1178
1080 1179
1081 1179
1081 1180
1082 1180
1082 1181
1083 1181
1083 1182
1084 1182
1084 1183
1085 1185
1085 1193
1085 1194
1085 1205
1086 1185
1086 1186
1087 1186
1087 1187
1088 1187
1088 1188
1089 1188
1089 1189
1090 1189
1090 1190
1091 1190
1091 1191
1092 1191
1092 1192
1093 1192
1093 1193
1094 1195
1094 1204
1094 1205
1094 1217
1095 1195
1095 1196
1096 1196
1096 1197
1097 1197
1097 1198
1098 1198
1098 1199
1099 1199
1099 1200
1100 1200
1100 1201
1101 1201
1101 1202
1102 1202
1102 1203
1103 1203
1103 1204
1104 1206
1104 1216
1104 1217
1104 1230
1105 1206
1105 1207
1106 1207
1106 1208
1107 1208
1107 1209
1108 1209
1108 1210
1109 1210
1109 1211
1110 1211
1110 1212
1111 1212
1111 1213
1112 1213
1112 1214
1113 1214
1113 1215
1114 1215
1114 1216
1115 1218
1115 1229
1115 1230
1115 1244
1116 1218
1116 1219
1117 1219
1117 1220
1118 1220
1118 1221
1119 1221
1119 1222
1120 1222
1120 1223
1121 1223
1121 1224
1122 1224
1122 1225
1123 1225
1123 1226
1124 1226
1124 1227
1125 1227
1125 1228
1126 1228
1126 1229
1127 1231
1127 1243
1127 1244
1127 16613
1127 16614
1128 1231
1128 1232
1129 1232
1129 1233
1130 1233
1130 1234
1131 1234
1131 1235
1132 1235
1132 1236
1133 1236
1133 1237
1134 1237
1134 1238
1135 1238
1135 1239
1136 1239
1136 1240
1137 1240
1137 1241
1138 1241
1138 1242
1139 1242
1139 1243
1140 1245
1140 1250
1140 1258
1141 1245
1141 1246
1142 1246
1142 1247
1143 1247
1143 1248
1144 1248
1144 1249
1145 1249
1145 1250
1146 1251
1146 1257
1146 1258
1146 1267
1147 1251
1147 1252
1148 1252
1148 1253
1149 1253
1149 1254
1150 1254
1150 1255
1151 1255
1151 1256
1152 1256
1152 1257
1153 1259
1153 1266
1153 1267
1153 1277
1154 1259
1154 1260
1155 1260
1155 1261
1156 1261
1156 1262
1157 1262
1157 1263
1158 1263
1158 1264
1159 1264
1159 1265
1160 1265
1160 1266
1161 1268
1161 1276
1161 1277
1161 1288
1162 1268
1162 1269
1163 1269
1163 1270
1164 1270
1164 1271
1165 1271
1165 1272
1166 1272
1166 1273
1167 1273
1167 1274
1168 1274
1168 1275
1169 1275
1169 1276
1170 1278
1170 1287
1170 1288
1170 1300
1171 1278
1171 1279
1172 1279
1172 1280
1173 1280
1173 1281
1174 1281
1174 1282
1175 1282
1175 1283
1176 1283
1176 1284
1177 1284
1177 1285
1178 1285
1178 1286
1179 1286
1179 1287
1180 1289
1180 1299
1180 1300
1180 1313
1181 1289
1181 1290
1182 1290
1182 1291
1183 1291
1183 1292
1184 1292
1184 1293
1185 1293
1185 1294
1186 1294
1186 1295
1187 1295
1187 1296
1188 1296
1188 1297
1189 1297
1189 1298
1190 1298
1190 1299
1191 1301
1191 1312
1191 1313
1191 1327
1192 1301
1192 1302
1193 1302
1193 1303
1194 1303
1194 1304
1195 1304
1195 1305
1196 1305
1196 1306
1197 1306
1197 1307
1198 1307
1198 1308
1199 1308
1199 1309
1200 1309
1200 1310
1201 1310
1201 1311
1202 1311
1202 1312
1203 1314
1203 1326
1203 1327
1203 16614
1203 16615
1204 1314
1204 1315
1205 1315
1205 1316
1206 1316
1206 1317
1207 1317
1207 1318
1208 1318
1208 1319
1209 1319
1209 1320
1210 1320
1210 1321
1211 1321
1211 1322
1212 1322
1212 1323
1213 1323
1213 1324
1214 1324
1214 1325
1215 1325
1215 1326
1216 1328
1216 1333
1216 1341
1217 1328
1217 1329
1218 1329
1218 1330
1219 1330
1219 1331
1220 1331
1220 1332
1221 1332
1221 1333
1222 1334
1222 1340
1222 1341
1222 1350
1223 1334
1223 1335
1224 1335
1224 1336
1225 1336
1225 1337
1226 1337
1226 1338
1227 1338
1227 1339
1228 1339
1228 1340
1229 1342
1229 1349
1229 1350
1229 1360
1230 1342
1230 1343
1231 1343
1231 1344
1232 1344
1232 1345
1233 1345
1233 1346
1234 1346
1234 1347
1235 1347
1235 1348
1236 1348
1236 1349
1237 1351
1237 1359
1237 1360
1237 1371
1238 1351
1238 1352
1239 1352
1239 1353
1240 1353
1240 1354
1241 1354
1241 1355
1242 1355
1242 1356
1243 1356
1243 1357
1244 1357
1244 1358
1245 1358
1245 1359
1246 1361
1246 1370
1246 1371
1246 1383
1247 1361
1247 1362
1248 1362
1248 1363
1249 1363
1249 1364
1250 1364
1250 1365
1251 1365
1251 1366
1252 1366
1252 1367
1253 1367
1253 1368
1254 1368
1254 1369
1255 1369
1255 1370
1256 1372
1256 1382
1256 1383
1256 1396
1257 1372
1257 1373
1258 1373
1258 1374
1259 1374
1259 1375
1260 1375
1260 1376
1261 1376
1261 1377
1262 1377
1262 1378
1263 1378
1263 1379
1264 1379
1264 1380
1265 1380
1265 1381
1266 1381
1266 1382
1267 1384
1267 1395
1267 1396
1267 1410
1268 1384
1268 1385
1269 1385
1269 1386
1270 1386
1270 1387
1271 1387
1271 1388
1272 1388
1272 1389
1273 1389
1273 1390
1274 1390
1274 1391
1275 1391
1275 1392
1276 1392
1276 1393
1277 1393
1277 1394
1278 1394
1278 1395
1279 1397
1279 1409
1279 1410
1279 16615
1279 16616
1280 1397
1280 1398
1281 1398
1281 1399
1282 1399
1282 1400
1283 1400
1283 1401
1284 1401
1284 1402
1285 1402
1285 1403
1286 1403
1286 1404
1287 1404
1287 1405
1288 1405
1288 1406
1289 1406
1289 1407
1290 1407
1290 1408
1291 1408
1291 1409
1292 1411
1292 1416
1292 1424
1293 1411
1293 1412
1294 1412
1294 1413
1295 1413
1295 1414
1296 1414
1296 1415
1297 1415
1297 1416
1298 1417
1298 1423
1298 1424
1298 1433
1299 1417
1299 1418
1300 1418
1300 1419
1301 1419
1301 1420
1302 1420
1302 1421
1303 1421
1303 1422
1304 1422
1304 1423
1305 1425
1305 1432
1305 1433
1305 1443
1306 1425
1306 1426
1307 1426
1307 1427
1308 1427
1308 1428
1309 1428
1309 1429
1310 1429
1310 1430
1311 1430
1311 1431
1312 1431
1312 1432
1313 1434
1313 1442
1313 1443
1313 1454
1314 1434
1314 1435
1315 1435
1315 1436
1316 1436
1316 1437
1317 1437
1317 1438
1318 1438
1318 1439
1319 1439
1319 1440
1320 1440
1320 1441
1321 1441
1321 1442
1322 1444
1322 1453
1322 1454
1322 1466
1323 1444
1323 1445
1324 1445
1324 1446
1325 1446
1325 1447
1326 1447
1326 1448
1327 1448
1327 1449
1328 1449
1328 1450
1329 1450
1329 1451
1330 1451
1330 1452
1331 1452
1331 1453
1332 1455
1332 1465
1332 1466
1332 1479
1333 1455
1333 1456
1334 1456
1334 1457
1335 1457
1335 1458
1336 1458
1336 1459
1337 1459
1337 1460
1338 1460
1338 1461
1339 1461
1339 1462
1340 1462
1340 1463
1341 1463
1341 1464
1342 1464
1342 1465
1343 1467
1343 1478
1343 1479
1343 1493
1344 1467
1344 1468
1345 1468
1345 1469
1346 1469
1346 1470
1347 1470
1347 1471
1348 1471
1348 1472
1349 1472
1349 1473
1350 1473
1350 1474
1351 1474
1351 1475
1352 1475
1352 1476
1353 1476
1353 1477
1354 1477
1354 1478
1355 1480
1355 1492
1355 1493
1355 16616
1355 16617
1356 1480
1356 1481
1357 1481
1357 1482
1358 1482
1358 1483
1359 1483
1359 1484
1360 1484
1360 1485
1361 1485
1361 1486
1362 1486
1362 1487
1363 1487
1363 1488
1364 1488
1364 1489
1365 1489
1365 1490
1366 1490
1366 1491
1367 1491
1367 1492
1368 1494
1368 1499
1368 1507
1369 1494
1369 1495
1370 1495
1370 1496
1371 1496
1371 1497
1372 1497
1372 1498
1373 1498
1373 1499
1374 1500
1374 1506
1374 1507
1374 1516
1375 1500
1375 1501
1376 1501
1376 1502
1377 1502
1377 1503
1378 1503
1378 1504
1379 1504
1379 1505
1380 1505
1380 1506
1381 1508
1381 1515
1381 1516
1381 1526
1382 1508
1382 1509
1383 1509
1383 1510
1384 1510
1384 1511
1385 1511
1385 1512
1386 1512
1386 1513
1387 1513
1387 1514
1388 1514
1388 1515
1389 1517
1389 1525
1389 1526
1389 1537
1390 1517
1390 1518
1391 1518
1391 1519
1392 1519
1392 1520
1393 1520
1393 1521
1394 1521
1394 1522
1395 1522
1395 1523
1396 1523
1396 1524
1397 1524
1397 1525
1398 1527
1398 1536
1398 1537
1398 1549
1399 1527
1399 1528
1400 1528
1400 1529
1401 1529
1401 1530
1402 1530
1402 1531
1403 1531
1403 1532
1404 1532
1404 1533
1405 1533
1405 1534
1406 1534
1406 1535
1407 1535
1407 1536
1408 1538
1408 1548
1408 1549
1408 1562
1409 1538
1409 1539
1410 1539
1410 1540
1411 1540
1411 1541
1412 1541
1412 1542
1413 1542
1413 1543
1414 1543
1414 1544
1415 1544
1415 1545
1416 1545
1416 1546
1417 1546
1417 1547
1418 1547
1418 1548
1419 1550
1419 1561
1419 1562
1419 1576
1420 1550
1420 1551
1421 1551
1421 1552
1422 1552
1422 1553
1423 1553
1423 1554
1424 1554
1424 1555
1425 1555
1425 1556
1426 1556
1426 1557
1427 1557
1427 1558
1428 1558
1428 1559
1429 1559
1429 1560
1430 1560
1430 1561
1431 1563
1431 1575
1431 1576
1431 16617
1431 16618
1432 1563
1432 1564
1433 1564
1433 1565
1434 1565
1434 1566
1435 1566
1435 1567
1436 1567
1436 1568
1437 1568
1437 1569
1438 1569
1438 1570
1439 1570
1439 1571
1440 1571
1440 1572
1441 1572
1441 1573
1442 1573
1442 1574
1443 1574
1443 1575
1444 1577
1444 1582
1444 1590
1445 1577
1445 1578
1446 1578
1446 1579
1447 1579
1447 1580
1448 1580
1448 1581
1449 1581
1449 1582
1450 1583
1450 1589
1450 1590
1450 1599
1451 1583
1451 1584
1452 1584
1452 1585
1453 1585
1453 1586
1454 1586
1454 1587
1455 1587
1455 1588
1456 1588
1456 1589
1457 1591
1457 1598
1457 1599
1457 1609
1458 1591
1458 1592
1459 1592
1459 1593
1460 1593
1460 1594
1461 1594
1461 1595
1462 1595
1462 1596
1463 1596
1463 1597
1464 1597
1464 1598
1465 1600
1465 1608
1465 1609
1465 1620
1466 1600
1466 1601
1467 1601
1467 1602
1468 1602
1468 1603
1469 1603
1469 1604
1470 1604
1470 1605
1471 1605
1471 1606
1472 1606
1472 1607
1473 1607
1473 1608
1474 1610
1474 1619
1474 1620
1474 1632
1475 1610
1475 1611
1476 1611
1476 1612
1477 1612
1477 1613
1478 1613
1478 1614
1479 1614
1479 1615
1480 1615
1480 1616
1481 1616
1481 1617
1482 1617
1482 1618
1483 1618
1483 1619
1484 1621
1484 1631
1484 1632
1484 1645
1485 1621
1485 1622
1486 1622
1486 1623
1487 1623
1487 1624
1488 1624
1488 1625
1489 1625
1489 1626
1490 1626
1490 1627
1491 1627
1491 1628
1492 1628
1492 1629
1493 1629
1493 1630
1494 1630
1494 1631
1495 1633
1495 1644
1495 1645
1495 1659
1496 1633
1496 1634
1497 1634
1497 1635
1498 1635
1498 1636
1499 1636
1499 1637
1500 1637
1500 1638
1501 1638
1501 1639
1502 1639
1502 1640
1503 1640
1503 1641
1504 1641
1504 1642
1505 1642
1505 1643
1506 1643
1506 1644
1507 1646
1507 1658
1507 1659
1507 16618
1507 16619
1508 1646
1508 1647
1509 1647
1509 1648
1510 1648
1510 1649
1511 1649
1511 1650
1512 1650
1512 1651
1513 1651
1513 1652
1514 1652
1514 1653
1515 1653
1515 1654
1516 1654
1516 1655
1517 1655
1517 1656
1518 1656
1518 1657
1519 1657
1519 1658
1520 1660
1520 1665
1520 1673
1521 1660
1521 1661
1522 1661
1522 1662
1523 1662
1523 1663
1524 1663
1524 1664
1525 1664
1525 1665
1526 1666
1526 1672
1526 1673
1526 1682
1527 1666
1527 1667
1528 1667
1528 1668
1529 1668
1529 1669
1530 1669
1530 1670
1531 1670
1531 1671
1532 1671
1532 1672
1533 1674
1533 1681
1533 1682
1533 1692
1534 1674
1534 1675
1535 1675
1535 1676
1536 1676
1536 1677
1537 1677
1537 1678
1538 1678
1538 1679
1539 1679
1539 1680
1540 1680
1540 1681
1541 1683
1541 1691
1541 1692
1541 1703
1542 1683
1542 1684
1543 1684
1543 1685
1544 1685
1544 1686
1545 1686
1545 1687
1546 1687
1546 1688
1547 1688
1547 1689
1548 1689
1548 1690
1549 1690
1549 1691
1550 1693
1550 1702
1550 1703
1550 1715
1551 1693
1551 1694
1552 1694
1552 1695
1553 1695
1553 1696
1554 1696
1554 1697
1555 1697
1555 1698
1556 1698
1556 1699
1557 1699
1557 1700
1558 1700
1558 1701
1559 1701
1559 1702
1560 1704
1560 1714
1560 1715
1560 1728
1561 1704
1561 1705
1562 1705
1562 1706
1563 1706
1563 1707
1564 1707
1564 1708
1565 1708
1565 1709
1566 1709
1566 1710
1567 1710
1567 1711
1568 1711
1568 1712
1569 1712
1569 1713
1570 1713
1570 1714
1571 1716
1571 1727
1571 1728
1571 1742
1572 1716
1572 1717
1573 1717
1573 1718
1574 1718
1574 1719
1575 1719
1575 1720
1576 1720
1576 1721
1577 1721
1577 1722
1578 1722
1578 1723
1579 1723
1579 1724
1580 1724
1580 1725
1581 1725
1581 1726
1582 1726
1582 1727
1583 1729
1583 1741
1583 1742
1583 16619
1583 16620
1584 1729
1584 1730
1585 1730
1585 1731
1586 1731
1586 1732
1587 1732
1587 1733
1588 1733
1588 1734
1589 1734
1589 1735
1590 1735
1590 1736
1591 1736
1591 1737
1592 1737
1592 1738
1593 1738
1593 1739
1594 1739
1594 1740
1595 1740
1595 1741
1596 1743
1596 1748
1596 1756
1597 1743
1597 1744
1598 1744
1598 1745
1599 1745
1599 1746
1600 1746
1600 1747
1601 1747
1601 1748
1602 1749
1602 1755
1602 1756
1602 1765
1603 1749
1603 1750
1604 1750
1604 1751
1605 1751
1605 1752
1606 1752
1606 1753
1607 1753
1607 1754
1608 1754
1608 1755
1609 1757
1609 1764
1609 1765
1609 1775
1610 1757
1610 1758
1611 1758
1611 1759
1612 1759
1612 1760
1613 1760
1613 1761
1614 1761
1614 1762
1615 1762
1615 1763
1616 1763
1616 1764
1617 1766
1617 1774
1617 1775
1617 1786
1618 1766
1618 1767
1619 1767
1619 1768
1620 1768
1620 1769
1621 1769
1621 1770
1622 1770
1622 1771
1623 1771
1623 1772
1624 1772
1624 1773
1625 1773
1625 1774
1626 1776
1626 1785
1626 1786
1626 1798
1627 1776
1627 1777
1628 1777
1628 1778
1629 1778
1629 1779
1630 1779
1630 1780
1631 1780
1631 1781
1632 1781
1632 1782
1633 1782
1633 1783
1634 1783
1634 1784
1635 1784
1635 1785
1636 1787
1636 1797
1636 1798
1636 1811
1637 1787
1637 1788
1638 1788
1638 1789
1639 1789
1639 1790
1640 1790
1640 1791
1641 1791
1641 1792
1642 1792
1642 1793
1643 1793
1643 1794
1644 1794
1644 1795
1645 1795
1645 1796
1646 1796
1646 1797
1647 1799
1647 1810
1647 1811
1647 1825
1648 1799
1648 1800
1649 1800
1649 1801
1650 1801
1650 1802
1651 1802
1651 1803
1652 1803
1652 1804
1653 1804
1653 1805
1654 1805
1654 1806
1655 1806
1655 1807
1656 1807
1656 1808
1657 1808
1657 1809
1658 1809
1658 1810
1659 1812
1659 1824
1659 1825
1659 16620
1659 16621
1660 1812
1660 1813
1661 1813
1661 1814
1662 1814
1662 1815
1663 1815
1663 1816
1664 1816
1664 1817
1665 1817
1665 1818
1666 1818
1666 1819
1667 1819
1667 1820
1668 1820
1668 1821
1669 1821
1669 1822
1670 1822
1670 1823
1671 1823
1671 1824
1672 1826
1672 1831
1672 1839
1673 1826
1673 1827
1674 1827
1674 1828
1675 1828
1675 1829
1676 1829
1676 1830
1677 1830
1677 1831
1678 1832
1678 1838
1678 1839
1678 1848
1679 1832
1679 1833
1680 1833
1680 1834
1681 1834
1681 1835
1682 1835
1682 1836
1683 1836
1683 1837
1684 1837
1684 1838
1685 1840
1685 1847
1685 1848
1685 1858
1686 1840
1686 1841
1687 1841
1687 1842
1688 1842
1688 1843
1689 1843
1689 1844
1690 1844
1690 1845
1691 1845
1691 1846
1692 1846
1692 1847
1693 1849
1693 1857
1693 1858
1693 1869
1694 1849
1694 1850
1695 1850
1695 1851
1696 1851
1696 1852
1697 1852
1697 1853
1698 1853
1698 1854
1699 1854
1699 1855
1700 1855
1700 1856
1701 1856
1701 1857
1702 1859
1702 1868
1702 1869
1702 1881
1703 1859
1703 1860
1704 1860
1704 1861
1705 1861
1705 1862
1706 1862
1706 1863
1707 1863
1707 1864
1708 1864
1708 1865
1709 1865
1709 1866
1710 1866
1710 1867
1711 1867
1711 1868
1712 1870
1712 1880
1712 1881
1712 1894
1713 1870
1713 1871
1714 1871
1714 1872
1715 1872
1715 1873
1716 1873
1716 1874
1717 1874
1717 1875
1718 1875
1718 1876
1719 1876
1719 1877
1720 1877
1720 1878
1721 1878
1721 1879
1722 1879
1722 1880
1723 1882
1723 1893
1723 1894
1723 1908
1724 1882
1724 1883
1725 1883
1725 1884
1726 1884
1726 1885
1727 1885
1727 1886
1728 1886
1728 1887
1729 1887
1729 1888
1730 1888
1730 1889
1731 1889
1731 1890
1732 1890
1732 1891
1733 1891
1733 1892
1734 1892
1734 1893
1735 1895
1735 1907
1735 1908
1735 16621
1735 16622
1736 1895
1736 1896
1737 1896
1737 1897
1738 1897
1738 1898
1739 1898
1739 1899
1740 1899
1740 1900
1741 1900
1741 1901
1742 1901
1742 1902
1743 1902
1743 1903
1744 1903
1744 1904
1745 1904
1745 1905
1746 1905
1746 1906
1747 1906
1747 1907
1748 1909
1748 1914
1748 1922
1749 1909
1749 1910
1750 1910
1750 1911
1751 1911
1751 1912
1752 1912
1752 1913
1753 1913
1753 1914
1754 1915
1754 1921
1754 1922
1754 1931
1755 1915
1755 1916
1756 1916
1756 1917
1757 1917
1757 1918
1758 1918
1758 1919
1759 1919
1759 1920
1760 1920
1760 1921
1761 1923
1761 1930
1761 1931
1761 1941
1762 1923
1762 1924
1763 1924
1763 1925
1764 1925
1764 1926
1765 1926
1765 1927
1766 1927
1766 1928
1767 1928
1767 1929
1768 1929
1768 1930
1769 1932
1769 1940
1769 1941
1769 1952
1770 1932
1770 1933
1771 1933
1771 1934
1772 1934
1772 1935
1773 1935
1773 1936
1774 1936
1774 1937
1775 1937
1775 1938
1776 1938
1776 1939
1777 1939
1777 1940
1778 1942
1778 1951
1778 1952
1778 1964
1779 1942
1779 1943
1780 1943
1780 1944
1781 1944
1781 1945
1782 1945
1782 1946
1783 1946
1783 1947
1784 1947
1784 1948
1785 1948
1785 1949
1786 1949
1786 1950
1787 1950
1787 1951
1788 1953
1788 1963
1788 1964
1788 1977
1789 1953
1789 1954
1790 1954
1790 1955
1791 1955
1791 1956
1792 1956
1792 1957
1793 1957
1793 1958
1794 1958
1794 1959
1795 1959
1795 1960
1796 1960
1796 1961
1797 1961
1797 1962
1798 1962
1798 1963
1799 1965
1799 1976
1799 1977
1799 1991
1800 1965
1800 1966
1801 1966
1801 1967
1802 1967
1802 1968
1803 1968
1803 1969
1804 1969
1804 1970
1805 1970
1805 1971
1806 1971
1806 1972
1807 1972
1807 1973
1808 1973
1808 1974
1809 1974
1809 1975
1810 1975
1810 1976
1811 1978
1811 1990
1811 1991
1811 16622
1811 16623
1812 1978
1812 1979
1813 1979
1813 1980
1814 1980
1814 1981
1815 1981
1815 1982
1816 1982
1816 1983
1817 1983
1817 1984
1818 1984
1818 1985
1819 1985
1819 1986
1820 1986
1820 1987
1821 1987
1821 1988
1822 1988
1822 1989
1823 1989
1823 1990
1824 1992
1824 1997
1824 2005
1825 1992
1825 1993
1826 1993
1826 1994
1827 1994
1827 1995
1828 1995
1828 1996
1829 1996
1829 1997
1830 1998
1830 2004
1830 2005
1830 2014
1831 1998
1831 1999
1832 1999
1832 2000
1833 2000
1833 2001
1834 2001
1834 2002
1835 2002
1835 2003
1836 2003
1836 2004
1837 2006
1837 2013
1837 2014
1837 2024
1838 2006
1838 2007
1839 2007
1839 2008
1840 2008
1840 2009
1841 2009
1841 2010
1842 2010
1842 2011
1843 2011
1843 2012
1844 2012
1844 2013
1845 2015
1845 2023
1845 2024
1845 2035
1846 2015
1846 2016
1847 2016
1847 2017
1848 2017
1848 2018
1849 2018
1849 2019
1850 2019
1850 2020
1851 2020
1851 2021
1852 2021
1852 2022
1853 2022
1853 2023
1854 2025
1854 2034
1854 2035
1854 2047
1855 2025
1855 2026
1856 2026
1856 2027
1857 2027
1857 2028
1858 2028
1858 2029
1859 2029
1859 2030
1860 2030
1860 2031
1861 2031
1861 2032
1862 2032
1862 2033
1863 2033
1863 2034
1864 2036
1864 2046
1864 2047
1864 2060
1865 2036
1865 2037
1866 2037
1866 2038
1867 2038
1867 2039
1868 2039
1868 2040
1869 2040
1869 2041
1870 2041
1870 2042
1871 2042
1871 2043
1872 2043
1872 2044
1873 2044
1873 2045
1874 2045
1874 2046
1875 2048
1875 2059
1875 2060
1875 2074
1876 2048
1876 2049
1877 2049
1877 2050
1878 2050
1878 2051
1879 2051
1879 2052
1880 2052
1880 2053
1881 2053
1881 2054
1882 2054
1882 2055
1883 2055
1883 2056
1884 2056
1884 2057
1885 2057
1885 2058
1886 2058
1886 2059
1887 2061
1887 2073
1887 2074
1887 16623
1887 16624
1888 2061
1888 2062
1889 2062
1889 2063
1890 2063
1890 2064
1891 2064
1891 2065
1892 2065
1892 2066
1893 2066
1893 2067
1894 2067
1894 2068
1895 2068
1895 2069
1896 2069
1896 2070
1897 2070
1897 2071
1898 2071
1898 2072
1899 2072
1899 2073
1900 2075
1900 2080
1900 2088
1901 2075
1901 2076
1902 2076
1902 2077
1903 2077
1903 2078
1904 2078
1904 2079
1905 2079
1905 2080
1906 2081
1906 2087
1906 2088
1906 2097
1907 2081
1907 2082
1908 2082
1908 2083
1909 2083
1909 2084
1910 2084
1910 2085
1911 2085
1911 2086
1912 2086
1912 2087
1913 2089
1913 2096
1913 2097
1913 2107
1914 2089
1914 2090
1915 2090
1915 2091
1916 2091
1916 2092
1917 2092
1917 2093
1918 2093
1918 2094
1919 2094
1919 2095
1920 2095
1920 2096
1921 2098
1921 2106
1921 2107
1921 2118
1922 2098
1922 2099
1923 2099
1923 2100
1924 2100
1924 2101
1925 2101
1925 2102
1926 2102
1926 2103
1927 2103
1927 2104
1928 2104
1928 2105
1929 2105
1929 2106
1930 2108
1930 2117
1930 2118
1930 2130
1931 2108
1931 2109
1932 2109
1932 2110
1933 2110
1933 2111
1934 2111
1934 2112
1935 2112
1935 2113
1936 2113
1936 2114
1937 2114
1937 2115
1938 2115
1938 2116
1939 2116
1939 2117
1940 2119
1940 2129
1940 2130
1940 2143
1941 2119
1941 2120
1942 2120
1942 2121
1943 2121
1943 2122
1944 2122
1944 2123
1945 2123
1945 2124
1946 2124
1946 2125
1947 2125
1947 2126
1948 2126
1948 2127
1949 2127
1949 2128
1950 2128
1950 2129
1951 2131
1951 2142
1951 2143
1951 2157
1952 2131
1952 2132
1953 2132
1953 2133
1954 2133
1954 2134
1955 2134
1955 2135
1956 2135
1956 2136
1957 2136
1957 2137
1958 2137
1958 2138
1959 2138
1959 2139
1960 2139
1960 2140
1961 2140
1961 2141
1962 2141
1962 2142
1963 2144
1963 2156
1963 2157
1963 16624
1963 16625
1964 2144
1964 2145
1965 2145
1965 2146
1966 2146
1966 2147
1967 2147
1967 2148
1968 2148
1968 2149
1969 2149
1969 2150
1970 2150
1970 2151
1971 2151
1971 2152
1972 2152
1972 2153
1973 2153
1973 2154
1974 2154
1974 2155
1975 2155
1975 2156
1976 2158
1976 2163
1976 2171
1977 2158
1977 2159
1978 2159
1978 2160
1979 2160
1979 2161
1980 2161
1980 2162
1981 2162
1981 2163
1982 2164
1982 2170
1982 2171
1982 2180
1983 2164
1983 2165
1984 2165
1984 2166
1985 2166
1985 2167
1986 2167
1986 2168
1987 2168
1987 2169
1988 2169
1988 2170
1989 2172
1989 2179
1989 2180
1989 2190
1990 2172
1990 2173
1991 2173
1991 2174
1992 2174
1992 2175
1993 2175
1993 2176
1994 2176
1994 2177
1995 2177
1995 2178
1996 2178
1996 2179
1997 2181
1997 2189
1997 2190
1997 2201
1998 2181
1998 2182
1999 2182
1999 2183
2000 2183
2000 2184
2001 2184
2001 2185
2002 2185
2002 2186
2003 2186
2003 2187
2004 2187
2004 2188
2005 2188
2005 2189
2006 2191
2006 2200
2006 2201
2006 2213
2007 2191
2007 2192
2008 2192
2008 2193
2009 2193
2009 2194
2010 2194
2010 2195
2011 2195
2011 2196
2012 2196
2012 2197
2013 2197
2013 2198
2014 2198
2014 2199
2015 2199
2015 2200
2016 2202
2016 2212
2016 2213
2016 2226
2017 2202
2017 2203
2018 2203
2018 2204
2019 2204
2019 2205
2020 2205
2020 2206
2021 2206
2021 2207
2022 2207
2022 2208
2023 2208
2023 2209
2024 2209
2024 2210
2025 2210
2025 2211
2026 2211
2026 2212
2027 2214
2027 2225
2027 2226
2027 2240
2028 2214
2028 2215
2029 2215
2029 2216
2030 2216
2030 2217
2031 2217
2031 2218
2032 2218
2032 2219
2033 2219
2033 2220
2034 2220
2034 2221
2035 2221
2035 2222
2036 2222
2036 2223
2037 2223
2037 2224
2038 2224
2038 2225
2039 2227
2039 2239
2039 2240
2039 16625
2039 16626
2040 2227
2040 2228
2041 2228
2041 2229
2042 2229
2042 2230
2043 2230
2043 2231
2044 2231
2044 2232
2045 2232
2045 2233
2046 2233
2046 2234
2047 2234
2047 2235
2048 2235
2048 2236
2049 2236
2049 2237
2050 2237
2050 2238
2051 2238
2051 2239
2052 2241
2052 2246
2052 2254
2053 2241
2053 2242
2054 2242
2054 2243
2055 2243
2055 2244
2056 2244
2056 2245
2057 2245
2057 2246
2058 2247
2058 2253
2058 2254
2058 2263
2059 2247
2059 2248
2060 2248
2060 2249
2061 2249
2061 2250
2062 2250
2062 2251
2063 2251
2063 2252
2064 2252
2064 2253
2065 2255
2065 2262
2065 2263
2065 2273
2066 2255
2066 2256
2067 2256
2067 2257
2068 2257
2068 2258
2069 2258
2069 2259
2070 2259
2070 2260
2071 2260
2071 2261
2072 2261
2072 2262
2073 2264
2073 2272
2073 2273
2073 2284
2074 2264
2074 2265
2075 2265
2075 2266
2076 2266
2076 2267
2077 2267
2077 2268
2078 2268
2078 2269
2079 2269
2079 2270
2080 2270
2080 2271
2081 2271
2081 2272
2082 2274
2082 2283
2082 2284
2082 2296
2083 2274
2083 2275
2084 2275
2084 2276
2085 2276
2085 2277
2086 2277
2086 2278
2087 2278
2087 2279
2088 2279
2088 2280
2089 2280
2089 2281
2090 2281
2090 2282
2091 2282
2091 2283
2092 2285
2092 2295
2092 2296
2092 2309
2093 2285
2093 2286
2094 2286
2094 2287
2095 2287
2095 2288
2096 2288
2096 2289
2097 2289
2097 2290
2098 2290
2098 2291
2099 2291
2099 2292
2100 2292
2100 2293
2101 2293
2101 2294
2102 2294
2102 2295
2103 2297
2103 2308
2103 2309
2103 2323
2104 2297
2104 2298
2105 2298
2105 2299
2106 2299
2106 2300
2107 2300
2107 2301
2108 2301
2108 2302
2109 2302
2109 2303
2110 2303
2110 2304
2111 2304
2111 2305
2112 2305
2112 2306
2113 2306
2113 2307
2114 2307
2114 2308
2115 2310
2115 2322
2115 2323
2115 16626
2115 16627
2116 2310
2116 2311
2117 2311
2117 2312
2118 2312
2118 2313
2119 2313
2119 2314
2120 2314
2120 2315
2121 2315
2121 2316
2122 2316
2122 2317
2123 2317
2123 2318
2124 2318
2124 2319
2125 2319
2125 2320
2126 2320
2126 2321
2127 2321
2127 2322
2128 2324
2128 2329
2128 2337
2129 2324
2129 2325
2130 2325
2130 2326
2131 2326
2131 2327
2132 2327
2132 2328
2133 2328
2133 2329
2134 2330
2134 2336
2134 2337
2134 2346
2135 2330
2135 2331
2136 2331
2136 2332
2137 2332
2137 2333
2138 2333
2138 2334
2139 2334
2139 2335
2140 2335
2140 2336
2141 2338
2141 2345
2141 2346
2141 2356
2142 2338
2142 2339
2143 2339
2143 2340
2144 2340
2144 2341
2145 2341
2145 2342
2146 2342
2146 2343
2147 2343
2147 2344
2148 2344
2148 2345
2149 2347
2149 2355
2149 2356
2149 2367
2150 2347
2150 2348
2151 2348
2151 2349
2152 2349
2152 2350
2153 2350
2153 2351
2154 2351
2154 2352
2155 2352
2155 2353
2156 2353
2156 2354
2157 2354
2157 2355
2158 2357
2158 2366
2158 2367
2158 2379
2159 2357
2159 2358
2160 2358
2160 2359
2161 2359
2161 2360
2162 2360
2162 2361
2163 2361
2163 2362
2164 2362
2164 2363
2165 2363
2165 2364
2166 2364
2166 2365
2167 2365
2167 2366
2168 2368
2168 2378
2168 2379
2168 2392
2169 2368
2169 2369
2170 2369
2170 2370
2171 2370
2171 2371
2172 2371
2172 2372
2173 2372
2173 2373
2174 2373
2174 2374
2175 2374
2175 2375
2176 2375
2176 2376
2177 2376
2177 2377
2178 2377
2178 2378
2179 2380
2179 2391
2179 2392
2179 2406
2180 2380
2180 2381
2181 2381
2181 2382
2182 2382
2182 2383
2183 2383
2183 2384
2184 2384
2184 2385
2185 2385
2185 2386
2186 2386
2186 2387
2187 2387
2187 2388
2188 2388
2188 2389
2189 2389
2189 2390
2190 2390
2190 2391
2191 2393
2191 2405
2191 2406
2191 16627
2191 16628
2192 2393
2192 2394
2193 2394
2193 2395
2194 2395
2194 2396
2195 2396
2195 2397
2196 2397
2196 2398
2197 2398
2197 2399
2198 2399
2198 2400
2199 2400
2199 2401
2200 2401
2200 2402
2201 2402
2201 2403
2202 2403
2202 2404
2203 2404
2203 2405
2204 2407
2204 2412
2204 2420
2205 2407
2205 2408
2206 2408
2206 2409
2207 2409
2207 2410
2208 2410
2208 2411
2209 2411
2209 2412
2210 2413
2210 2419
2210 2420
2210 2429
2211 2413
2211 2414
2212 2414
2212 2415
2213 2415
2213 2416
2214 2416
2214 2417
2215 2417
2215 2418
2216 2418
2216 2419
2217 2421
2217 2428
2217 2429
2217 2439
2218 2421
2218 2422
2219 2422
2219 2423
2220 2423
2220 2424
2221 2424
2221 2425
2222 2425
2222 2426
2223 2426
2223 2427
2224 2427
2224 2428
2225 2430
2225 2438
2225 2439
2225 2450
2226 2430
2226 2431
2227 2431
2227 2432
2228 2432
2228 2433
2229 2433
2229 2434
2230 2434
2230 2435
2231 2435
2231 2436
2232 2436
2232 2437
2233 2437
2233 2438
2234 2440
2234 2449
2234 2450
2234 2462
2235 2440
2235 2441
2236 2441
2236 2442
2237 2442
2237 2443
2238 2443
2238 2444
2239 2444
2239 2445
2240 2445
2240 2446
2241 2446
2241 2447
2242 2447
2242 2448
2243 2448
2243 2449
2244 2451
2244 2461
2244 2462
2244 2475
2245 2451
2245 2452
2246 2452
2246 2453
2247 2453
2247 2454
2248 2454
2248 2455
2249 2455
2249 2456
2250 2456
2250 2457
2251 2457
2251 2458
2252 2458
2252 2459
2253 2459
2253 2460
2254 2460
2254 2461
2255 2463
2255 2474
2255 2475
2255 2489
2256 2463
2256 2464
2257 2464
2257 2465
2258 2465
2258 2466
2259 2466
2259 2467
2260 2467
2260 2468
2261 2468
2261 2469
2262 2469
2262 2470
2263 2470
2263 2471
2264 2471
2264 2472
2265 2472
2265 2473
2266 2473
2266 2474
2267 2476
2267 2488
2267 2489
2267 16628
2267 16629
2268 2476
2268 2477
2269 2477
2269 2478
2270 2478
2270 2479
2271 2479
2271 2480
2272 2480
2272 2481
2273 2481
2273 2482
2274 2482
2274 2483
2275 2483
2275 2484
2276 2484
2276 2485
2277 2485
2277 2486
2278 2486
2278 2487
2279 2487
2279 2488
2280 2490
2280 2495
2280 2503
2281 2490
2281 2491
2282 2491
2282 2492
2283 2492
2283 2493
2284 2493
2284 2494
2285 2494
2285 2495
2286 2496
2286 2502
2286 2503
2286 2512
2287 2496
2287 2497
2288 2497
2288 2498
2289 2498
2289 2499
2290 2499
2290 2500
2291 2500
2291 2501
2292 2501
2292 2502
2293 2504
2293 2511
2293 2512
2293 2522
2294 2504
2294 2505
2295 2505
2295 2506
2296 2506
2296 2507
2297 2507
2297 2508
2298 2508
2298 2509
2299 2509
2299 2510
2300 2510
2300 2511
2301 2513
2301 2521
2301 2522
2301 2533
2302 2513
2302 2514
2303 2514
2303 2515
2304 2515
2304 2516
2305 2516
2305 2517
2306 2517
2306 2518
2307 2518
2307 2519
2308 2519
2308 2520
2309 2520
2309 2521
2310 2523
2310 2532
2310 2533
2310 2545
2311 2523
2311 2524
2312 2524
2312 2525
2313 2525
2313 2526
2314 2526
2314 2527
2315 2527
2315 2528
2316 2528
2316 2529
2317 2529
2317 2530
2318 2530
2318 2531
2319 2531
2319 2532
2320 2534
2320 2544
2320 2545
2320 2558
2321 2534
2321 2535
2322 2535
2322 2536
2323 2536
2323 2537
2324 2537
2324 2538
2325 2538
2325 2539
2326 2539
2326 2540
2327 2540
2327 2541
2328 2541
2328 2542
2329 2542
2329 2543
2330 2543
2330 2544
2331 2546
2331 2557
2331 2558
2331 2572
2332 2546
2332 2547
2333 2547
2333 2548
2334 2548
2334 2549
2335 2549
2335 2550
2336 2550
2336 2551
2337 2551
2337 2552
2338 2552
2338 2553
2339 2553
2339 2554
2340 2554
2340 2555
2341 2555
2341 2556
2342 2556
2342 2557
2343 2559
2343 2571
2343 2572
2343 16629
2343 16630
2344 2559
2344 2560
2345 2560
2345 2561
2346 2561
2346 2562
2347 2562
2347 2563
2348 2563
2348 2564
2349 2564
2349 2565
2350 2565
2350 2566
2351 2566
2351 2567
2352 2567
2352 2568
2353 2568
2353 2569
2354 2569
2354 2570
2355 2570
2355 2571
2356 2573
2356 2578
2356 2586
2357 2573
2357 2574
2358 2574
2358 2575
2359 2575
2359 2576
2360 2576
2360 2577
2361 2577
2361 2578
2362 2579
2362 2585
2362 2586
2362 2595
2363 2579
2363 2580
2364 2580
2364 2581
2365 2581
2365 2582
2366 2582
2366 2583
2367 2583
2367 2584
2368 2584
2368 2585
2369 2587
2369 2594
2369 2595
2369 2605
2370 2587
2370 2588
2371 2588
2371 2589
2372 2589
2372 2590
2373 2590
2373 2591
2374 2591
2374 2592
2375 2592
2375 2593
2376 2593
2376 2594
2377 2596
2377 2604
2377 2605
2377 2616
2378 2596
2378 2597
2379 2597
2379 2598
2380 2598
2380 2599
2381 2599
2381 2600
2382 2600
2382 2601
2383 2601
2383 2602
2384 2602
2384 2603
2385 2603
2385 2604
2386 2606
2386 2615
2386 2616
2386 2628
2387 2606
2387 2607
2388 2607
2388 2608
2389 2608
2389 2609
2390 2609
2390 2610
2391 2610
2391 2611
2392 2611
2392 2612
2393 2612
2393 2613
2394 2613
2394 2614
2395 2614
2395 2615
2396 2617
2396 2627
2396 2628
2396 2641
2397 2617
2397 2618
2398 2618
2398 2619
2399 2619
2399 2620
2400 2620
2400 2621
2401 2621
2401 2622
2402 2622
2402 2623
2403 2623
2403 2624
2404 2624
2404 2625
2405 2625
2405 2626
2406 2626
2406 2627
2407 2629
2407 2640
2407 2641
2407 2655
2408 2629
2408 2630
2409 2630
2409 2631
2410 2631
2410 2632
2411 2632
2411 2633
2412 2633
2412 2634
2413 2634
2413 2635
2414 2635
2414 2636
2415 2636
2415 2637
2416 2637
2416 2638
2417 2638
2417 2639
2418 2639
2418 2640
2419 2642
2419 2654
2419 2655
2419 16630
2419 16631
2420 2642
2420 2643
2421 2643
2421 2644
2422 2644
2422 2645
2423 2645
2423 2646
2424 2646
2424 2647
2425 2647
2425 2648
2426 2648
2426 2649
2427 2649
2427 2650
2428 2650
2428 2651
2429 2651
2429 2652
2430 2652
2430 2653
2431 2653
2431 2654
2432 2656
2432 2661
2432 2669
2433 2656
2433 2657
2434 2657
2434 2658
2435 2658
2435 2659
2436 2659
2436 2660
2437 2660
2437 2661
2438 2662
2438 2668
2438 2669
2438 2678
2439 2662
2439 2663
2440 2663
2440 2664
2441 2664
2441 2665
2442 2665
2442 2666
2443 2666
2443 2667
2444 2667
2444 2668
2445 2670
2445 2677
2445 2678
2445 2688
2446 2670
2446 2671
2447 2671
2447 2672
2448 2672
2448 2673
2449 2673
2449 2674
2450 2674
2450 2675
2451 2675
2451 2676
2452 2676
2452 2677
2453 2679
2453 2687
2453 2688
2453 2699
2454 2679
2454 2680
2455 2680
2455 2681
2456 2681
2456 2682
2457 2682
2457 2683
2458 2683
2458 2684
2459 2684
2459 2685
2460 2685
2460 2686
2461 2686
2461 2687
2462 2689
2462 2698
2462 2699
2462 2711
2463 2689
2463 2690
2464 2690
2464 2691
2465 2691
2465 2692
2466 2692
2466 2693
2467 2693
2467 2694
2468 2694
2468 2695
2469 2695
2469 2696
2470 2696
2470 2697
2471 2697
2471 2698
2472 2700
2472 2710
2472 2711
2472 2724
2473 2700
2473 2701
2474 2701
2474 2702
2475 2702
2475 2703
2476 2703
2476 2704
2477 2704
2477 2705
2478 2705
2478 2706
2479 2706
2479 2707
2480 2707
2480 2708
2481 2708
2481 2709
2482 2709
2482 2710
2483 2712
2483 2723
2483 2724
2483 2738
2484 2712
2484 2713
2485 2713
2485 2714
2486 2714
2486 2715
2487 2715
2487 2716
2488 2716
2488 2717
2489 2717
2489 2718
2490 2718
2490 2719
2491 2719
2491 2720
2492 2720
2492 2721
2493 2721
2493 2722
2494 2722
2494 2723
2495 2725
2495 2737
2495 2738
2495 16631
2495 16632
2496 2725
2496 2726
2497 2726
2497 2727
2498 2727
2498 2728
2499 2728
2499 2729
2500 2729
2500 2730
2501 2730
2501 2731
2502 2731
2502 2732
2503 2732
2503 2733
2504 2733
2504 2734
2505 2734
2505 2735
2506 2735
2506 2736
2507 2736
2507 2737
2508 2739
2508 2744
2508 2752
2509 2739
2509 2740
2510 2740
2510 2741
2511 2741
2511 2742
2512 2742
2512 2743
2513 2743
2513 2744
2514 2745
2514 2751
2514 2752
2514 2761
2515 2745
2515 2746
2516 2746
2516 2747
2517 2747
2517 2748
2518 2748
2518 2749
2519 2749
2519 2750
2520 2750
2520 2751
2521 2753
2521 2760
2521 2761
2521 2771
2522 2753
2522 2754
2523 2754
2523 2755
2524 2755
2524 2756
2525 2756
2525 2757
2526 2757
2526 2758
2527 2758
2527 2759
2528 2759
2528 2760
2529 2762
2529 2770
2529 2771
2529 2782
2530 2762
2530 2763
2531 2763
2531 2764
2532 2764
2532 2765
2533 2765
2533 2766
2534 2766
2534 2767
2535 2767
2535 2768
2536 2768
2536 2769
2537 2769
2537 2770
2538 2772
2538 2781
2538 2782
2538 2794
2539 2772
2539 2773
2540 2773
2540 2774
2541 2774
2541 2775
2542 2775
2542 2776
2543 2776
2543 2777
2544 2777
2544 2778
2545 2778
2545 2779
2546 2779
2546 2780
2547 2780
2547 2781
2548 2783
2548 2793
2548 2794
2548 2807
2549 2783
2549 2784
2550 2784
2550 2785
2551 2785
2551 2786
2552 2786
2552 2787
2553 2787
2553 2788
2554 2788
2554 2789
2555 2789
2555 2790
2556 2790
2556 2791
2557 2791
2557 2792
2558 2792
2558 2793
2559 2795
2559 2806
2559 2807
2559 2821
2560 2795
2560 2796
2561 2796
2561 2797
2562 2797
2562 2798
2563 2798
2563 2799
2564 2799
2564 2800
2565 2800
2565 2801
2566 2801
2566 2802
2567 2802
2567 2803
2568 2803
2568 2804
2569 2804
2569 2805
2570 2805
2570 2806
2571 2808
2571 2820
2571 2821
2571 16632
2571 16633
2572 2808
2572 2809
2573 2809
2573 2810
2574 2810
2574 2811
2575 2811
2575 2812
2576 2812
2576 2813
2577 2813
2577 2814
2578 2814
2578 2815
2579 2815
2579 2816
2580 2816
2580 2817
2581 2817
2581 2818
2582 2818
2582 2819
2583 2819
2583 2820
2584 2822
2584 2827
2584 2835
2585 2822
2585 2823
2586 2823
2586 2824
2587 2824
2587 2825
2588 2825
2588 2826
2589 2826
2589 2827
2590 2828
2590 2834
2590 2835
2590 2844
2591 2828
2591 2829
2592 2829
2592 2830
2593 2830
2593 2831
2594 2831
2594 2832
2595 2832
2595 2833
2596 2833
2596 2834
2597 2836
2597 2843
2597 2844
2597 2854
2598 2836
2598 2837
2599 2837
2599 2838
2600 2838
2600 2839
2601 2839
2601 2840
2602 2840
2602 2841
2603 2841
2603 2842
2604 2842
2604 2843
2605 2845
2605 2853
2605 2854
2605 2865
2606 2845
2606 2846
2607 2846
2607 2847
2608 2847
2608 2848
2609 2848
2609 2849
2610 2849
2610 2850
2611 2850
2611 2851
2612 2851
2612 2852
2613 2852
2613 2853
2614 2855
2614 2864
2614 2865
2614 2877
2615 2855
2615 2856
2616 2856
2616 2857
2617 2857
2617 2858
2618 2858
2618 2859
2619 2859
2619 2860
2620 2860
2620 2861
2621 2861
2621 2862
2622 2862
2622 2863
2623 2863
2623 2864
2624 2866
2624 2876
2624 2877
2624 2890
2625 2866
2625 2867
2626 2867
2626 2868
2627 2868
2627 2869
2628 2869
2628 2870
2629 2870
2629 2871
2630 2871
2630 2872
2631 2872
2631 2873
2632 2873
2632 2874
2633 2874
2633 2875
2634 2875
2634 2876
2635 2878
2635 2889
2635 2890
2635 2904
2636 2878
2636 2879
2637 2879
2637 2880
2638 2880
2638 2881
2639 2881
2639 2882
2640 2882
2640 2883
2641 2883
2641 2884
2642 2884
2642 2885
2643 2885
2643 2886
2644 2886
2644 2887
2645 2887
2645 2888
2646 2888
2646 2889
2647 2891
2647 2903
2647 2904
2647 16633
2647 16634
2648 2891
2648 2892
2649 2892
2649 2893
2650 2893
2650 2894
2651 2894
2651 2895
2652 2895
2652 2896
2653 2896
2653 2897
2654 2897
2654 2898
2655 2898
2655 2899
2656 2899
2656 2900
2657 2900
2657 2901
2658 2901
2658 2902
2659 2902
2659 2903
2660 2905
2660 2910
2660 2918
2661 2905
2661 2906
2662 2906
2662 2907
2663 2907
2663 2908
2664 2908
2664 2909
2665 2909
2665 2910
2666 2911
2666 2917
2666 2918
2666 2927
2667 2911
2667 2912
2668 2912
2668 2913
2669 2913
2669 2914
2670 2914
2670 2915
2671 2915
2671 2916
2672 2916
2672 2917
2673 2919
2673 2926
2673 2927
2673 2937
2674 2919
2674 2920
2675 2920
2675 2921
2676 2921
2676 2922
2677 2922
2677 2923
2678 2923
2678 2924
2679 2924
2679 2925
2680 2925
2680 2926
2681 2928
2681 2936
2681 2937
2681 2948
2682 2928
2682 2929
2683 2929
2683 2930
2684 2930
2684 2931
2685 2931
2685 2932
2686 2932
2686 2933
2687 2933
2687 2934
2688 2934
2688 2935
2689 2935
2689 2936
2690 2938
2690 2947
2690 2948
2690 2960
2691 2938
2691 2939
2692 2939
2692 2940
2693 2940
2693 2941
2694 2941
2694 2942
2695 2942
2695 2943
2696 2943
2696 2944
2697 2944
2697 2945
2698 2945
2698 2946
2699 2946
2699 2947
2700 2949
2700 2959
2700 2960
2700 2973
2701 2949
2701 2950
2702 2950
2702 2951
2703 2951
2703 2952
2704 2952
2704 2953
2705 2953
2705 2954
2706 2954
2706 2955
2707 2955
2707 2956
2708 2956
2708 2957
2709 2957
2709 2958
2710 2958
2710 2959
2711 2961
2711 2972
2711 2973
2711 2987
2712 2961
2712 2962
2713 2962
2713 2963
2714 2963
2714 2964
2715 2964
2715 2965
2716 2965
2716 2966
2717 2966
2717 2967
2718 2967
2718 2968
2719 2968
2719 2969
2720 2969
2720 2970
2721 2970
2721 2971
2722 2971
2722 2972
2723 2974
2723 2986
2723 2987
2723 16634
2723 16635
2724 2974
2724 2975
2725 2975
2725 2976
2726 2976
2726 2977
2727 2977
2727 2978
2728 2978
2728 2979
2729 2979
2729 2980
2730 2980
2730 2981
2731 2981
2731 2982
2732 2982
2732 2983
2733 2983
2733 2984
2734 2984
2734 2985
2735 2985
2735 2986
2736 2988
2736 2993
2736 3001
2737 2988
2737 2989
2738 2989
2738 2990
2739 2990
2739 2991
2740 2991
2740 2992
2741 2992
2741 2993
2742 2994
2742 3000
2742 3001
2742 3010
2743 2994
2743 2995
2744 2995
2744 2996
2745 2996
2745 2997
2746 2997
2746 2998
2747 2998
2747 2999
2748 2999
2748 3000
2749 3002
2749 3009
2749 3010
2749 3020
2750 3002
2750 3003
2751 3003
2751 3004
2752 3004
2752 3005
2753 3005
2753 3006
2754 3006
2754 3007
2755 3007
2755 3008
2756 3008
2756 3009
2757 3011
2757 3019
2757 3020
2757 3031
2758 3011
2758 3012
2759 3012
2759 3013
2760 3013
2760 3014
2761 3014
2761 3015
2762 3015
2762 3016
2763 3016
2763 3017
2764 3017
2764 3018
2765 3018
2765 3019
2766 3021
2766 3030
2766 3031
2766 3043
2767 3021
2767 3022
2768 3022
2768 3023
2769 3023
2769 3024
2770 3024
2770 3025
2771 3025
2771 3026
2772 3026
2772 3027
2773 3027
2773 3028
2774 3028
2774 3029
2775 3029
2775 3030
2776 3032
2776 3042
2776 3043
2776 3056
2777 3032
2777 3033
2778 3033
2778 3034
2779 3034
2779 3035
2780 3035
2780 3036
2781 3036
2781 3037
2782 3037
2782 3038
2783 3038
2783 3039
2784 3039
2784 3040
2785 3040
2785 3041
2786 3041
2786 3042
2787 3044
2787 3055
2787 3056
2787 3070
2788 3044
2788 3045
2789 3045
2789 3046
2790 3046
2790 3047
2791 3047
2791 3048
2792 3048
2792 3049
2793 3049
2793 3050
2794 3050
2794 3051
2795 3051
2795 3052
2796 3052
2796 3053
2797 3053
2797 3054
2798 3054
2798 3055
2799 3057
2799 3069
2799 3070
2799 16635
2799 16636
2800 3057
2800 3058
2801 3058
2801 3059
2802 3059
2802 3060
2803 3060
2803 3061
2804 3061
2804 3062
2805 3062
2805 3063
2806 3063
2806 3064
2807 3064
2807 3065
2808 3065
2808 3066
2809 3066
2809 3067
2810 3067
2810 3068
2811 3068
2811 3069
2812 3071
2812 3076
2812 3084
2813 3071
2813 3072
2814 3072
2814 3073
2815 3073
2815 3074
2816 3074
2816 3075
2817 3075
2817 3076
2818 3077
2818 3083
2818 3084
2818 3093
2819 3077
2819 3078
2820 3078
2820 3079
2821 3079
2821 3080
2822 3080
2822 3081
2823 3081
2823 3082
2824 3082
2824 3083
2825 3085
2825 3092
2825 3093
2825 3103
2826 3085
2826 3086
2827 3086
2827 3087
2828 3087
2828 3088
2829 3088
2829 3089
2830 3089
2830 3090
2831 3090
2831 3091
2832 3091
2832 3092
2833 3094
2833 3102
2833 3103
2833 3114
2834 3094
2834 3095
2835 3095
2835 3096
2836 3096
2836 3097
2837 3097
2837 3098
2838 3098
2838 3099
2839 3099
2839 3100
2840 3100
2840 3101
2841 3101
2841 3102
2842 3104
2842 3113
2842 3114
2842 3126
2843 3104
2843 3105
2844 3105
2844 3106
2845 3106
2845 3107
2846 3107
2846 3108
2847 3108
2847 3109
2848 3109
2848 3110
2849 3110
2849 3111
2850 3111
2850 3112
2851 3112
2851 3113
2852 3115
2852 3125
2852 3126
2852 3139
2853 3115
2853 3116
2854 3116
2854 3117
2855 3117
2855 3118
2856 3118
2856 3119
2857 3119
2857 3120
2858 3120
2858 3121
2859 3121
2859 3122
2860 3122
2860 3123
2861 3123
2861 3124
2862 3124
2862 3125
2863 3127
2863 3138
2863 3139
2863 3153
2864 3127
2864 3128
2865 3128
2865 3129
2866 3129
2866 3130
2867 3130
2867 3131
2868 3131
2868 3132
2869 3132
2869 3133
2870 3133
2870 3134
2871 3134
2871 3135
2872 3135
2872 3136
2873 3136
2873 3137
2874 3137
2874 3138
2875 3140
2875 3152
2875 3153
2875 16636
2875 16637
2876 3140
2876 3141
2877 3141
2877 3142
2878 3142
2878 3143
2879 3143
2879 3144
2880 3144
2880 3145
2881 3145
2881 3146
2882 3146
2882 3147
2883 3147
2883 3148
2884 3148
2884 3149
2885 3149
2885 3150
2886 3150
2886 3151
2887 3151
2887 3152
2888 3154
2888 3159
2888 3167
2889 3154
2889 3155
2890 3155
2890 3156
2891 3156
2891 3157
2892 3157
2892 3158
2893 3158
2893 3159
2894 3160
2894 3166
2894 3167
2894 3176
2895 3160
2895 3161
2896 3161
2896 3162
2897 3162
2897 3163
2898 3163
2898 3164
2899 3164
2899 3165
2900 3165
2900 3166
2901 3168
2901 3175
2901 3176
2901 3186
2902 3168
2902 3169
2903 3169
2903 3170
2904 3170
2904 3171
2905 3171
2905 3172
2906 3172
2906 3173
2907 3173
2907 3174
2908 3174
2908 3175
2909 3177
2909 3185
2909 3186
2909 3197
2910 3177
2910 3178
2911 3178
2911 3179
2912 3179
2912 3180
2913 3180
2913 3181
2914 3181
2914 3182
2915 3182
2915 3183
2916 3183
2916 3184
2917 3184
2917 3185
2918 3187
2918 3196
2918 3197
2918 3209
2919 3187
2919 3188
2920 3188
2920 3189
2921 3189
2921 3190
2922 3190
2922 3191
2923 3191
2923 3192
2924 3192
2924 3193
2925 3193
2925 3194
2926 3194
2926 3195
2927 3195
2927 3196
2928 3198
2928 3208
2928 3209
2928 3222
2929 3198
2929 3199
2930 3199
2930 3200
2931 3200
2931 3201
2932 3201
2932 3202
2933 3202
2933 3203
2934 3203
2934 3204
2935 3204
2935 3205
2936 3205
2936 3206
2937 3206
2937 3207
2938 3207
2938 3208
2939 3210
2939 3221
2939 3222
2939 3236
2940 3210
2940 3211
2941 3211
2941 3212
2942 3212
2942 3213
2943 3213
2943 3214
2944 3214
2944 3215
2945 3215
2945 3216
2946 3216
2946 3217
2947 3217
2947 3218
2948 3218
2948 3219
2949 3219
2949 3220
2950 3220
2950 3221
2951 3223
2951 3235
2951 3236
2951 16637
2951 16638
2952 3223
2952 3224
2953 3224
2953 3225
2954 3225
2954 3226
2955 3226
2955 3227
2956 3227
2956 3228
2957 3228
2957 3229
2958 3229
2958 3230
2959 3230
2959 3231
2960 3231
2960 3232
2961 3232
2961 3233
2962 3233
2962 3234
2963 3234
2963 3235
2964 3237
2964 3242
2964 3250
2965 3237
2965 3238
2966 3238
2966 3239
2967 3239
2967 3240
2968 3240
2968 3241
2969 3241
2969 3242
2970 3243
2970 3249
2970 3250
2970 3259
2971 3243
2971 3244
2972 3244
2972 3245
2973 3245
2973 3246
2974 3246
2974 3247
2975 3247
2975 3248
2976 3248
2976 3249
2977 3251
2977 3258
2977 3259
2977 3269
2978 3251
2978 3252
2979 3252
2979 3253
2980 3253
2980 3254
2981 3254
2981 3255
2982 3255
2982 3256
2983 3256
2983 3257
2984 3257
2984 3258
2985 3260
2985 3268
2985 3269
2985 3280
2986 3260
2986 3261
2987 3261
2987 3262
2988 3262
2988 3263
2989 3263
2989 3264
2990 3264
2990 3265
2991 3265
2991 3266
2992 3266
2992 3267
2993 3267
2993 3268
2994 3270
2994 3279
2994 3280
2994 3292
2995 3270
2995 3271
2996 3271
2996 3272
2997 3272
2997 3273
2998 3273
2998 3274
2999 3274
2999 3275
3000 3275
3000 3276
3001 3276
3001 3277
3002 3277
3002 3278
3003 3278
3003 3279
3004 3281
3004 3291
3004 3292
3004 3305
3005 3281
3005 3282
3006 3282
3006 3283
3007 3283
3007 3284
3008 3284
3008 3285
3009 3285
3009 3286
3010 3286
3010 3287
3011 3287
3011 3288
3012 3288
3012 3289
3013 3289
3013 3290
3014 3290
3014 3291
3015 3293
3015 3304
3015 3305
3015 3319
3016 3293
3016 3294
3017 3294
3017 3295
3018 3295
3018 3296
3019 3296
3019 3297
3020 3297
3020 3298
3021 3298
3021 3299
3022 3299
3022 3300
3023 3300
3023 3301
3024 3301
3024 3302
3025 3302
3025 3303
3026 3303
3026 3304
3027 3306
3027 3318
3027 3319
3027 16638
3027 16639
3028 3306
3028 3307
3029 3307
3029 3308
3030 3308
3030 3309
3031 3309
3031 3310
3032 3310
3032 3311
3033 3311
3033 3312
3034 3312
3034 3313
3035 3313
3035 3314
3036 3314
3036 3315
3037 3315
3037 3316
3038 3316
3038 3317
3039 3317
3039 3318
3040 3320
3040 3325
3040 3333
3041 3320
3041 3321
3042 3321
3042 3322
3043 3322
3043 3323
3044 3323
3044 3324
3045 3324
3045 3325
3046 3326
3046 3332
3046 3333
3046 3342
3047 3326
3047 3327
3048 3327
3048 3328
3049 3328
3049 3329
3050 3329
3050 3330
3051 3330
3051 3331
3052 3331
3052 3332
3053 3334
3053 3341
3053 3342
3053 3352
3054 3334
3054 3335
3055 3335
3055 3336
3056 3336
3056 3337
3057 3337
3057 3338
3058 3338
3058 3339
3059 3339
3059 3340
3060 3340
3060 3341
3061 3343
3061 3351
3061 3352
3061 3363
3062 3343
3062 3344
3063 3344
3063 3345
3064 3345
3064 3346
3065 3346
3065 3347
3066 3347
3066 3348
3067 3348
3067 3349
3068 3349
3068 3350
3069 3350
3069 3351
3070 3353
3070 3362
3070 3363
3070 3375
3071 3353
3071 3354
3072 3354
3072 3355
3073 3355
3073 3356
3074 3356
3074 3357
3075 3357
3075 3358
3076 3358
3076 3359
3077 3359
3077 3360
3078 3360
3078 3361
3079 3361
3079 3362
3080 3364
3080 3374
3080 3375
3080 3388
3081 3364
3081 3365
3082 3365
3082 3366
3083 3366
3083 3367
3084 3367
3084 3368
3085 3368
3085 3369
3086 3369
3086 3370
3087 3370
3087 3371
3088 3371
3088 3372
3089 3372
3089 3373
3090 3373
3090 3374
3091 3376
3091 3387
3091 3388
3091 3402
3092 3376
3092 3377
3093 3377
3093 3378
3094 3378
3094 3379
3095 3379
3095 3380
3096 3380
3096 3381
3097 3381
3097 3382
3098 3382
3098 3383
3099 3383
3099 3384
3100 3384
3100 3385
3101 3385
3101 3386
3102 3386
3102 3387
3103 3389
3103 3401
3103 3402
3103 16639
3103 16640
3104 3389
3104 3390
3105 3390
3105 3391
3106 3391
3106 3392
3107 3392
3107 3393
3108 3393
3108 3394
3109 3394
3109 3395
3110 3395
3110 3396
3111 3396
3111 3397
3112 3397
3112 3398
3113 3398
3113 3399
3114 3399
3114 3400
3115 3400
3115 3401
3116 3403
3116 3408
3116 3416
3117 3403
3117 3404
3118 3404
3118 3405
3119 3405
3119 3406
3120 3406
3120 3407
3121 3407
3121 3408
3122 3409
3122 3415
3122 3416
3122 3425
3123 3409
3123 3410
3124 3410
3124 3411
3125 3411
3125 3412
3126 3412
3126 3413
3127 3413
3127 3414
3128 3414
3128 3415
3129 3417
3129 3424
3129 3425
3129 3435
3130 3417
3130 3418
3131 3418
3131 3419
3132 3419
3132 3420
3133 3420
3133 3421
3134 3421
3134 3422
3135 3422
3135 3423
3136 3423
3136 3424
3137 3426
3137 3434
3137 3435
3137 3446
3138 3426
3138 3427
3139 3427
3139 3428
3140 3428
3140 3429
3141 3429
3141 3430
3142 3430
3142 3431
3143 3431
3143 3432
3144 3432
3144 3433
3145 3433
3145 3434
3146 3436
3146 3445
3146 3446
3146 3458
3147 3436
3147 3437
3148 3437
3148 3438
3149 3438
3149 3439
3150 3439
3150 3440
3151 3440
3151 3441
3152 3441
3152 3442
3153 3442
3153 3443
3154 3443
3154 3444
3155 3444
3155 3445
3156 3447
3156 3457
3156 3458
3156 3471
3157 3447
3157 3448
3158 3448
3158 3449
3159 3449
3159 3450
3160 3450
3160 3451
3161 3451
3161 3452
3162 3452
3162 3453
3163 3453
3163 3454
3164 3454
3164 3455
3165 3455
3165 3456
3166 3456
3166 3457
3167 3459
3167 3470
3167 3471
3167 3485
3168 3459
3168 3460
3169 3460
3169 3461
3170 3461
3170 3462
3171 3462
3171 3463
3172 3463
3172 3464
3173 3464
3173 3465
3174 3465
3174 3466
3175 3466
3175 3467
3176 3467
3176 3468
3177 3468
3177 3469
3178 3469
3178 3470
3179 3472
3179 3484
3179 3485
3179 16640
3179 16641
3180 3472
3180 3473
3181 3473
3181 3474
3182 3474
3182 3475
3183 3475
3183 3476
3184 3476
3184 3477
3185 3477
3185 3478
3186 3478
3186 3479
3187 3479
3187 3480
3188 3480
3188 3481
3189 3481
3189 3482
3190 3482
3190 3483
3191 3483
3191 3484
3192 3486
3192 3491
3192 3499
3193 3486
3193 3487
3194 3487
3194 3488
3195 3488
3195 3489
3196 3489
3196 3490
3197 3490
3197 3491
3198 3492
3198 3498
3198 3499
3198 3508
3199 3492
3199 3493
3200 3493
3200 3494
3201 3494
3201 3495
3202 3495
3202 3496
3203 3496
3203 3497
3204 3497
3204 3498
3205 3500
3205 3507
3205 3508
3205 3518
3206 3500
3206 3501
3207 3501
3207 3502
3208 3502
3208 3503
3209 3503
3209 3504
3210 3504
3210 3505
3211 3505
3211 3506
3212 3506
3212 3507
3213 3509
3213 3517
3213 3518
3213 3529
3214 3509
3214 3510
3215 3510
3215 3511
3216 3511
3216 3512
3217 3512
3217 3513
3218 3513
3218 3514
3219 3514
3219 3515
3220 3515
3220 3516
3221 3516
3221 3517
3222 3519
3222 3528
3222 3529
3222 3541
3223 3519
3223 3520
3224 3520
3224 3521
3225 3521
3225 3522
3226 3522
3226 3523
3227 3523
3227 3524
3228 3524
3228 3525
3229 3525
3229 3526
3230 3526
3230 3527
3231 3527
3231 3528
3232 3530
3232 3540
3232 3541
3232 3554
3233 3530
3233 3531
3234 3531
3234 3532
3235 3532
3235 3533
3236 3533
3236 3534
3237 3534
3237 3535
3238 3535
3238 3536
3239 3536
3239 3537
3240 3537
3240 3538
3241 3538
3241 3539
3242 3539
3242 3540
3243 3542
3243 3553
3243 3554
3243 3568
3244 3542
3244 3543
3245 3543
3245 3544
3246 3544
3246 3545
3247 3545
3247 3546
3248 3546
3248 3547
3249 3547
3249 3548
3250 3548
3250 3549
3251 3549
3251 3550
3252 3550
3252 3551
3253 3551
3253 3552
3254 3552
3254 3553
3255 3555
3255 3567
3255 3568
3255 16641
3255 16642
3256 3555
3256 3556
3257 3556
3257 3557
3258 3557
3258 3558
3259 3558
3259 3559
3260 3559
3260 3560
3261 3560
3261 3561
3262 3561
3262 3562
3263 3562
3263 3563
3264 3563
3264 3564
3265 3564
3265 3565
3266 3565
3266 3566
3267 3566
3267 3567
3268 3569
3268 3574
3268 3582
3269 3569
3269 3570
3270 3570
3270 3571
3271 3571
3271 3572
3272 3572
3272 3573
3273 3573
3273 3574
3274 3575
3274 3581
3274 3582
3274 3591
3275 3575
3275 3576
3276 3576
3276 3577
3277 3577
3277 3578
3278 3578
3278 3579
3279 3579
3279 3580
3280 3580
3280 3581
3281 3583
3281 3590
3281 3591
3281 3601
3282 3583
3282 3584
3283 3584
3283 3585
3284 3585
3284 3586
3285 3586
3285 3587
3286 3587
3286 3588
3287 3588
3287 3589
3288 3589
3288 3590
3289 3592
3289 3600
3289 3601
3289 3612
3290 3592
3290 3593
3291 3593
3291 3594
3292 3594
3292 3595
3293 3595
3293 3596
3294 3596
3294 3597
3295 3597
3295 3598
3296 3598
3296 3599
3297 3599
3297 3600
3298 3602
3298 3611
3298 3612
3298 3624
3299 3602
3299 3603
3300 3603
3300 3604
3301 3604
3301 3605
3302 3605
3302 3606
3303 3606
3303 3607
3304 3607
3304 3608
3305 3608
3305 3609
3306 3609
3306 3610
3307 3610
3307 3611
3308 3613
3308 3623
3308 3624
3308 3637
3309 3613
3309 3614
3310 3614
3310 3615
3311 3615
3311 3616
3312 3616
3312 3617
3313 3617
3313 3618
3314 3618
3314 3619
3315 3619
3315 3620
3316 3620
3316 3621
3317 3621
3317 3622
3318 3622
3318 3623
3319 3625
3319 3636
3319 3637
3319 3651
3320 3625
3320 3626
3321 3626
3321 3627
3322 3627
3322 3628
3323 3628
3323 3629
3324 3629
3324 3630
3325 3630
3325 3631
3326 3631
3326 3632
3327 3632
3327 3633
3328 3633
3328 3634
3329 3634
3329 3635
3330 3635
3330 3636
3331 3638
3331 3650
3331 3651
3331 16642
3331 16643
3332 3638
3332 3639
3333 3639
3333 3640
3334 3640
3334 3641
3335 3641
3335 3642
3336 3642
3336 3643
3337 3643
3337 3644
3338 3644
3338 3645
3339 3645
3339 3646
3340 3646
3340 3647
3341 3647
3341 3648
3342 3648
3342 3649
3343 3649
3343 3650
3344 3652
3344 3657
3344 3665
3345 3652
3345 3653
3346 3653
3346 3654
3347 3654
3347 3655
3348 3655
3348 3656
3349 3656
3349 3657
3350 3658
3350 3664
3350 3665
3350 3674
3351 3658
3351 3659
3352 3659
3352 3660
3353 3660
3353 3661
3354 3661
3354 3662
3355 3662
3355 3663
3356 3663
3356 3664
3357 3666
3357 3673
3357 3674
3357 3684
3358 3666
3358 3667
3359 3667
3359 3668
3360 3668
3360 3669
3361 3669
3361 3670
3362 3670
3362 3671
3363 3671
3363 3672
3364 3672
3364 3673
3365 3675
3365 3683
3365 3684
3365 3695
3366 3675
3366 3676
3367 3676
3367 3677
3368 3677
3368 3678
3369 3678
3369 3679
3370 3679
3370 3680
3371 3680
3371 3681
3372 3681
3372 3682
3373 3682
3373 3683
3374 3685
3374 3694
3374 3695
3374 3707
3375 3685
3375 3686
3376 3686
3376 3687
3377 3687
3377 3688
3378 3688
3378 3689
3379 3689
3379 3690
3380 3690
3380 3691
3381 3691
3381 3692
3382 3692
3382 3693
3383 3693
3383 3694
3384 3696
3384 3706
3384 3707
3384 3720
3385 3696
3385 3697
3386 3697
3386 3698
3387 3698
3387 3699
3388 3699
3388 3700
3389 3700
3389 3701
3390 3701
3390 3702
3391 3702
3391 3703
3392 3703
3392 3704
3393 3704
3393 3705
3394 3705
3394 3706
3395 3708
3395 3719
3395 3720
3395 3734
3396 3708
3396 3709
3397 3709
3397 3710
3398 3710
3398 3711
3399 3711
3399 3712
3400 3712
3400 3713
3401 3713
3401 3714
3402 3714
3402 3715
3403 3715
3403 3716
3404 3716
3404 3717
3405 3717
3405 3718
3406 3718
3406 3719
3407 3721
3407 3733
3407 3734
3407 16643
3407 16644
3408 3721
3408 3722
3409 3722
3409 3723
3410 3723
3410 3724
3411 3724
3411 3725
3412 3725
3412 3726
3413 3726
3413 3727
3414 3727
3414 3728
3415 3728
3415 3729
3416 3729
3416 3730
3417 3730
3417 3731
3418 3731
3418 3732
3419 3732
3419 3733
3420 3735
3420 3740
3420 3748
3421 3735
3421 3736
3422 3736
3422 3737
3423 3737
3423 3738
3424 3738
3424 3739
3425 3739
3425 3740
3426 3741
3426 3747
3426 3748
3426 3757
3427 3741
3427 3742
3428 3742
3428 3743
3429 3743
3429 3744
3430 3744
3430 3745
3431 3745
3431 3746
3432 3746
3432 3747
3433 3749
3433 3756
3433 3757
3433 3767
3434 3749
3434 3750
3435 3750
3435 3751
3436 3751
3436 3752
3437 3752
3437 3753
3438 3753
3438 3754
3439 3754
3439 3755
3440 3755
3440 3756
3441 3758
3441 3766
3441 3767
3441 3778
3442 3758
3442 3759
3443 3759
3443 3760
3444 3760
3444 3761
3445 3761
3445 3762
3446 3762
3446 3763
3447 3763
3447 3764
3448 3764
3448 3765
3449 3765
3449 3766
3450 3768
3450 3777
3450 3778
3450 3790
3451 3768
3451 3769
3452 3769
3452 3770
3453 3770
3453 3771
3454 3771
3454 3772
3455 3772
3455 3773
3456 3773
3456 3774
3457 3774
3457 3775
3458 3775
3458 3776
3459 3776
3459 3777
3460 3779
3460 3789
3460 3790
3460 3803
3461 3779
3461 3780
3462 3780
3462 3781
3463 3781
3463 3782
3464 3782
3464 3783
3465 3783
3465 3784
3466 3784
3466 3785
3467 3785
3467 3786
3468 3786
3468 3787
3469 3787
3469 3788
3470 3788
3470 3789
3471 3791
3471 3802
3471 3803
3471 3817
3472 3791
3472 3792
3473 3792
3473 3793
3474 3793
3474 3794
3475 3794
3475 3795
3476 3795
3476 3796
3477 3796
3477 3797
3478 3797
3478 3798
3479 3798
3479 3799
3480 3799
3480 3800
3481 3800
3481 3801
3482 3801
3482 3802
3483 3804
3483 3816
3483 3817
3483 16644
3483 16645
3484 3804
3484 3805
3485 3805
3485 3806
3486 3806
3486 3807
3487 3807
3487 3808
3488 3808
3488 3809
3489 3809
3489 3810
3490 3810
3490 3811
3491 3811
3491 3812
3492 3812
3492 3813
3493 3813
3493 3814
3494 3814
3494 3815
3495 3815
3495 3816
3496 3818
3496 3823
3496 3831
3497 3818
3497 3819
3498 3819
3498 3820
3499 3820
3499 3821
3500 3821
3500 3822
3501 3822
3501 3823
3502 3824
3502 3830
3502 3831
3502 3840
3503 3824
3503 3825
3504 3825
3504 3826
3505 3826
3505 3827
3506 3827
3506 3828
3507 3828
3507 3829
3508 3829
3508 3830
3509 3832
3509 3839
3509 3840
3509 3850
3510 3832
3510 3833
3511 3833
3511 3834
3512 3834
3512 3835
3513 3835
3513 3836
3514 3836
3514 3837
3515 3837
3515 3838
3516 3838
3516 3839
3517 3841
3517 3849
3517 3850
3517 3861
3518 3841
3518 3842
3519 3842
3519 3843
3520 3843
3520 3844
3521 3844
3521 3845
3522 3845
3522 3846
3523 3846
3523 3847
3524 3847
3524 3848
3525 3848
3525 3849
3526 3851
3526 3860
3526 3861
3526 3873
3527 3851
3527 3852
3528 3852
3528 3853
3529 3853
3529 3854
3530 3854
3530 3855
3531 3855
3531 3856
3532 3856
3532 3857
3533 3857
3533 3858
3534 3858
3534 3859
3535 3859
3535 3860
3536 3862
3536 3872
3536 3873
3536 3886
3537 3862
3537 3863
3538 3863
3538 3864
3539 3864
3539 3865
3540 3865
3540 3866
3541 3866
3541 3867
3542 3867
3542 3868
3543 3868
3543 3869
3544 3869
3544 3870
3545 3870
3545 3871
3546 3871
3546 3872
3547 3874
3547 3885
3547 3886
3547 3900
3548 3874
3548 3875
3549 3875
3549 3876
3550 3876
3550 3877
3551 3877
3551 3878
3552 3878
3552 3879
3553 3879
3553 3880
3554 3880
3554 3881
3555 3881
3555 3882
3556 3882
3556 3883
3557 3883
3557 3884
3558 3884
3558 3885
3559 3887
3559 3899
3559 3900
3559 16645
3559 16646
3560 3887
3560 3888
3561 3888
3561 3889
3562 3889
3562 3890
3563 3890
3563 3891
3564 3891
3564 3892
3565 3892
3565 3893
3566 3893
3566 3894
3567 3894
3567 3895
3568 3895
3568 3896
3569 3896
3569 3897
3570 3897
3570 3898
3571 3898
3571 3899
3572 3901
3572 3906
3572 3914
3573 3901
3573 3902
3574 3902
3574 3903
3575 3903
3575 3904
3576 3904
3576 3905
3577 3905
3577 3906
3578 3907
3578 3913
3578 3914
3578 3923
3579 3907
3579 3908
3580 3908
3580 3909
3581 3909
3581 3910
3582 3910
3582 3911
3583 3911
3583 3912
3584 3912
3584 3913
3585 3915
3585 3922
3585 3923
3585 3933
3586 3915
3586 3916
3587 3916
3587 3917
3588 3917
3588 3918
3589 3918
3589 3919
3590 3919
3590 3920
3591 3920
3591 3921
3592 3921
3592 3922
3593 3924
3593 3932
3593 3933
3593 3944
3594 3924
3594 3925
3595 3925
3595 3926
3596 3926
3596 3927
3597 3927
3597 3928
3598 3928
3598 3929
3599 3929
3599 3930
3600 3930
3600 3931
3601 3931
3601 3932
3602 3934
3602 3943
3602 3944
3602 3956
3603 3934
3603 3935
3604 3935
3604 3936
3605 3936
3605 3937
3606 3937
3606 3938
3607 3938
3607 3939
3608 3939
3608 3940
3609 3940
3609 3941
3610 3941
3610 3942
3611 3942
3611 3943
3612 3945
3612 3955
3612 3956
3612 3969
3613 3945
3613 3946
3614 3946
3614 3947
3615 3947
3615 3948
3616 3948
3616 3949
3617 3949
3617 3950
3618 3950
3618 3951
3619 3951
3619 3952
3620 3952
3620 3953
3621 3953
3621 3954
3622 3954
3622 3955
3623 3957
3623 3968
3623 3969
3623 3983
3624 3957
3624 3958
3625 3958
3625 3959
3626 3959
3626 3960
3627 3960
3627 3961
3628 3961
3628 3962
3629 3962
3629 3963
3630 3963
3630 3964
3631 3964
3631 3965
3632 3965
3632 3966
3633 3966
3633 3967
3634 3967
3634 3968
3635 3970
3635 3982
3635 3983
3635 16646
3635 16647
3636 3970
3636 3971
3637 3971
3637 3972
3638 3972
3638 3973
3639 3973
3639 3974
3640 3974
3640 3975
3641 3975
3641 3976
3642 3976
3642 3977
3643 3977
3643 3978
3644 3978
3644 3979
3645 3979
3645 3980
3646 3980
3646 3981
3647 3981
3647 3982
3648 3984
3648 3989
3648 3997
3649 3984
3649 3985
3650 3985
3650 3986
3651 3986
3651 3987
3652 3987
3652 3988
3653 3988
3653 3989
3654 3990
3654 3996
3654 3997
3654 4006
3655 3990
3655 3991
3656 3991
3656 3992
3657 3992
3657 3993
3658 3993
3658 3994
3659 3994
3659 3995
3660 3995
3660 3996
3661 3998
3661 4005
3661 4006
3661 4016
3662 3998
3662 3999
3663 3999
3663 4000
3664 4000
3664 4001
3665 4001
3665 4002
3666 4002
3666 4003
3667 4003
3667 4004
3668 4004
3668 4005
3669 4007
3669 4015
3669 4016
3669 4027
3670 4007
3670 4008
3671 4008
3671 4009
3672 4009
3672 4010
3673 4010
3673 4011
3674 4011
3674 4012
3675 4012
3675 4013
3676 4013
3676 4014
3677 4014
3677 4015
3678 4017
3678 4026
3678 4027
3678 4039
3679 4017
3679 4018
3680 4018
3680 4019
3681 4019
3681 4020
3682 4020
3682 4021
3683 4021
3683 4022
3684 4022
3684 4023
3685 4023
3685 4024
3686 4024
3686 4025
3687 4025
3687 4026
3688 4028
3688 4038
3688 4039
3688 4052
3689 4028
3689 4029
3690 4029
3690 4030
3691 4030
3691 4031
3692 4031
3692 4032
3693 4032
3693 4033
3694 4033
3694 4034
3695 4034
3695 4035
3696 4035
3696 4036
3697 4036
3697 4037
3698 4037
3698 4038
3699 4040
3699 4051
3699 4052
3699 4066
3700 4040
3700 4041
3701 4041
3701 4042
3702 4042
3702 4043
3703 4043
3703 4044
3704 4044
3704 4045
3705 4045
3705 4046
3706 4046
3706 4047
3707 4047
3707 4048
3708 4048
3708 4049
3709 4049
3709 4050
3710 4050
3710 4051
3711 4053
3711 4065
3711 4066
3711 16647
3711 16648
3712 4053
3712 4054
3713 4054
3713 4055
3714 4055
3714 4056
3715 4056
3715 4057
3716 4057
3716 4058
3717 4058
3717 4059
3718 4059
3718 4060
3719 4060
3719 4061
3720 4061
3720 4062
3721 4062
3721 4063
3722 4063
3722 4064
3723 4064
3723 4065
3724 4067
3724 4072
3724 4080
3725 4067
3725 4068
3726 4068
3726 4069
3727 4069
3727 4070
3728 4070
3728 4071
3729 4071
3729 4072
3730 4073
3730 4079
3730 4080
3730 4089
3731 4073
3731 4074
3732 4074
3732 4075
3733 4075
3733 4076
3734 4076
3734 4077
3735 4077
3735 4078
3736 4078
3736 4079
3737 4081
3737 4088
3737 4089
3737 4099
3738 4081
3738 4082
3739 4082
3739 4083
3740 4083
3740 4084
3741 4084
3741 4085
3742 4085
3742 4086
3743 4086
3743 4087
3744 4087
3744 4088
3745 4090
3745 4098
3745 4099
3745 4110
3746 4090
3746 4091
3747 4091
3747 4092
3748 4092
3748 4093
3749 4093
3749 4094
3750 4094
3750 4095
3751 4095
3751 4096
3752 4096
3752 4097
3753 4097
3753 4098
3754 4100
3754 4109
3754 4110
3754 4122
3755 4100
3755 4101
3756 4101
3756 4102
3757 4102
3757 4103
3758 4103
3758 4104
3759 4104
3759 4105
3760 4105
3760 4106
3761 4106
3761 4107
3762 4107
3762 4108
3763 4108
3763 4109
3764 4111
3764 4121
3764 4122
3764 4135
3765 4111
3765 4112
3766 4112
3766 4113
3767 4113
3767 4114
3768 4114
3768 4115
3769 4115
3769 4116
3770 4116
3770 4117
3771 4117
3771 4118
3772 4118
3772 4119
3773 4119
3773 4120
3774 4120
3774 4121
3775 4123
3775 4134
3775 4135
3775 4149
3776 4123
3776 4124
3777 4124
3777 4125
3778 4125
3778 4126
3779 4126
3779 4127
3780 4127
3780 4128
3781 4128
3781 4129
3782 4129
3782 4130
3783 4130
3783 4131
3784 4131
3784 4132
3785 4132
3785 4133
3786 4133
3786 4134
3787 4136
3787 4148
3787 4149
3787 16648
3787 16649
3788 4136
3788 4137
3789 4137
3789 4138
3790 4138
3790 4139
3791 4139
3791 4140
3792 4140
3792 4141
3793 4141
3793 4142
3794 4142
3794 4143
3795 4143
3795 4144
3796 4144
3796 4145
3797 4145
3797 4146
3798 4146
3798 4147
3799 4147
3799 4148
3800 4150
3800 4155
3800 4163
3801 4150
3801 4151
3802 4151
3802 4152
3803 4152
3803 4153
3804 4153
3804 4154
3805 4154
3805 4155
3806 4156
3806 4162
3806 4163
3806 4172
3807 4156
3807 4157
3808 4157
3808 4158
3809 4158
3809 4159
3810 4159
3810 4160
3811 4160
3811 4161
3812 4161
3812 4162
3813 4164
3813 4171
3813 4172
3813 4182
3814 4164
3814 4165
3815 4165
3815 4166
3816 4166
3816 4167
3817 4167
3817 4168
3818 4168
3818 4169
3819 4169
3819 4170
3820 4170
3820 4171
3821 4173
3821 4181
3821 4182
3821 4193
3822 4173
3822 4174
3823 4174
3823 4175
3824 4175
3824 4176
3825 4176
3825 4177
3826 4177
3826 4178
3827 4178
3827 4179
3828 4179
3828 4180
3829 4180
3829 4181
3830 4183
3830 4192
3830 4193
3830 4205
3831 4183
3831 4184
3832 4184
3832 4185
3833 4185
3833 4186
3834 4186
3834 4187
3835 4187
3835 4188
3836 4188
3836 4189
3837 4189
3837 4190
3838 4190
3838 4191
3839 4191
3839 4192
3840 4194
3840 4204
3840 4205
3840 4218
3841 4194
3841 4195
3842 4195
3842 4196
3843 4196
3843 4197
3844 4197
3844 4198
3845 4198
3845 4199
3846 4199
3846 4200
3847 4200
3847 4201
3848 4201
3848 4202
3849 4202
3849 4203
3850 4203
3850 4204
3851 4206
3851 4217
3851 4218
3851 4232
3852 4206
3852 4207
3853 4207
3853 4208
3854 4208
3854 4209
3855 4209
3855 4210
3856 4210
3856 4211
3857 4211
3857 4212
3858 4212
3858 4213
3859 4213
3859 4214
3860 4214
3860 4215
3861 4215
3861 4216
3862 4216
3862 4217
3863 4219
3863 4231
3863 4232
3863 16649
3863 16650
3864 4219
3864 4220
3865 4220
3865 4221
3866 4221
3866 4222
3867 4222
3867 4223
3868 4223
3868 4224
3869 4224
3869 4225
3870 4225
3870 4226
3871 4226
3871 4227
3872 4227
3872 4228
3873 4228
3873 4229
3874 4229
3874 4230
3875 4230
3875 4231
3876 4233
3876 4238
3876 4246
3877 4233
3877 4234
3878 4234
3878 4235
3879 4235
3879 4236
3880 4236
3880 4237
3881 4237
3881 4238
3882 4239
3882 4245
3882 4246
3882 4255
3883 4239
3883 4240
3884 4240
3884 4241
3885 4241
3885 4242
3886 4242
3886 4243
3887 4243
3887 4244
3888 4244
3888 4245
3889 4247
3889 4254
3889 4255
3889 4265
3890 4247
3890 4248
3891 4248
3891 4249
3892 4249
3892 4250
3893 4250
3893 4251
3894 4251
3894 4252
3895 4252
3895 4253
3896 4253
3896 4254
3897 4256
3897 4264
3897 4265
3897 4276
3898 4256
3898 4257
3899 4257
3899 4258
3900 4258
3900 4259
3901 4259
3901 4260
3902 4260
3902 4261
3903 4261
3903 4262
3904 4262
3904 4263
3905 4263
3905 4264
3906 4266
3906 4275
3906 4276
3906 4288
3907 4266
3907 4267
3908 4267
3908 4268
3909 4268
3909 4269
3910 4269
3910 4270
3911 4270
3911 4271
3912 4271
3912 4272
3913 4272
3913 4273
3914 4273
3914 4274
3915 4274
3915 4275
3916 4277
3916 4287
3916 4288
3916 4301
3917 4277
3917 4278
3918 4278
3918 4279
3919 4279
3919 4280
3920 4280
3920 4281
3921 4281
3921 4282
3922 4282
3922 4283
3923 4283
3923 4284
3924 4284
3924 4285
3925 4285
3925 4286
3926 4286
3926 4287
3927 4289
3927 4300
3927 4301
3927 4315
3928 4289
3928 4290
3929 4290
3929 4291
3930 4291
3930 4292
3931 4292
3931 4293
3932 4293
3932 4294
3933 4294
3933 4295
3934 4295
3934 4296
3935 4296
3935 4297
3936 4297
3936 4298
3937 4298
3937 4299
3938 4299
3938 4300
3939 4302
3939 4314
3939 4315
3939 16650
3939 16651
3940 4302
3940 4303
3941 4303
3941 4304
3942 4304
3942 4305
3943 4305
3943 4306
3944 4306
3944 4307
3945 4307
3945 4308
3946 4308
3946 4309
3947 4309
3947 4310
3948 4310
3948 4311
3949 4311
3949 4312
3950 4312
3950 4313
3951 4313
3951 4314
3952 4316
3952 4321
3952 4329
3953 4316
3953 4317
3954 4317
3954 4318
3955 4318
3955 4319
3956 4319
3956 4320
3957 4320
3957 4321
3958 4322
3958 4328
3958 4329
3958 4338
3959 4322
3959 4323
3960 4323
3960 4324
3961 4324
3961 4325
3962 4325
3962 4326
3963 4326
3963 4327
3964 4327
3964 4328
3965 4330
3965 4337
3965 4338
3965 4348
3966 4330
3966 4331
3967 4331
3967 4332
3968 4332
3968 4333
3969 4333
3969 4334
3970 4334
3970 4335
3971 4335
3971 4336
3972 4336
3972 4337
3973 4339
3973 4347
3973 4348
3973 4359
3974 4339
3974 4340
3975 4340
3975 4341
3976 4341
3976 4342
3977 4342
3977 4343
3978 4343
3978 4344
3979 4344
3979 4345
3980 4345
3980 4346
3981 4346
3981 4347
3982 4349
3982 4358
3982 4359
3982 4371
3983 4349
3983 4350
3984 4350
3984 4351
3985 4351
3985 4352
3986 4352
3986 4353
3987 4353
3987 4354
3988 4354
3988 4355
3989 4355
3989 4356
3990 4356
3990 4357
3991 4357
3991 4358
3992 4360
3992 4370
3992 4371
3992 4384
3993 4360
3993 4361
3994 4361
3994 4362
3995 4362
3995 4363
3996 4363
3996 4364
3997 4364
3997 4365
3998 4365
3998 4366
3999 4366
3999 4367
4000 4367
4000 4368
4001 4368
4001 4369
4002 4369
4002 4370
4003 4372
4003 4383
4003 4384
4003 4398
4004 4372
4004 4373
4005 4373
4005 4374
4006 4374
4006 4375
4007 4375
4007 4376
4008 4376
4008 4377
4009 4377
4009 4378
4010 4378
4010 4379
4011 4379
4011 4380
4012 4380
4012 4381
4013 4381
4013 4382
4014 4382
4014 4383
4015 4385
4015 4397
4015 4398
4015 16651
4015 16652
4016 4385
4016 4386
4017 4386
4017 4387
4018 4387
4018 4388
4019 4388
4019 4389
4020 4389
4020 4390
4021 4390
4021 4391
4022 4391
4022 4392
4023 4392
4023 4393
4024 4393
4024 4394
4025 4394
4025 4395
4026 4395
4026 4396
4027 4396
4027 4397
4028 4399
4028 4404
4028 4412
4029 4399
4029 4400
4030 4400
4030 4401
4031 4401
4031 4402
4032 4402
4032 4403
4033 4403
4033 4404
4034 4405
4034 4411
4034 4412
4034 4421
4035 4405
4035 4406
4036 4406
4036 4407
4037 4407
4037 4408
4038 4408
4038 4409
4039 4409
4039 4410
4040 4410
4040 4411
4041 4413
4041 4420
4041 4421
4041 4431
4042 4413
4042 4414
4043 4414
4043 4415
4044 4415
4044 4416
4045 4416
4045 4417
4046 4417
4046 4418
4047 4418
4047 4419
4048 4419
4048 4420
4049 4422
4049 4430
4049 4431
4049 4442
4050 4422
4050 4423
4051 4423
4051 4424
4052 4424
4052 4425
4053 4425
4053 4426
4054 4426
4054 4427
4055 4427
4055 4428
4056 4428
4056 4429
4057 4429
4057 4430
4058 4432
4058 4441
4058 4442
4058 4454
4059 4432
4059 4433
4060 4433
4060 4434
4061 4434
4061 4435
4062 4435
4062 4436
4063 4436
4063 4437
4064 4437
4064 4438
4065 4438
4065 4439
4066 4439
4066 4440
4067 4440
4067 4441
4068 4443
4068 4453
4068 4454
4068 4467
4069 4443
4069 4444
4070 4444
4070 4445
4071 4445
4071 4446
4072 4446
4072 4447
4073 4447
4073 4448
4074 4448
4074 4449
4075 4449
4075 4450
4076 4450
4076 4451
4077 4451
4077 4452
4078 4452
4078 4453
4079 4455
4079 4466
4079 4467
4079 4481
4080 4455
4080 4456
4081 4456
4081 4457
4082 4457
4082 4458
4083 4458
4083 4459
4084 4459
4084 4460
4085 4460
4085 4461
4086 4461
4086 4462
4087 4462
4087 4463
4088 4463
4088 4464
4089 4464
4089 4465
4090 4465
4090 4466
4091 4468
4091 4480
4091 4481
4091 16652
4091 16653
4092 4468
4092 4469
4093 4469
4093 4470
4094 4470
4094 4471
4095 4471
4095 4472
4096 4472
4096 4473
4097 4473
4097 4474
4098 4474
4098 4475
4099 4475
4099 4476
4100 4476
4100 4477
4101 4477
4101 4478
4102 4478
4102 4479
4103 4479
4103 4480
4104 4482
4104 4487
4104 4495
4105 4482
4105 4483
4106 4483
4106 4484
4107 4484
4107 4485
4108 4485
4108 4486
4109 4486
4109 4487
4110 4488
4110 4494
4110 4495
4110 4504
4111 4488
4111 4489
4112 4489
4112 4490
4113 4490
4113 4491
4114 4491
4114 4492
4115 4492
4115 4493
4116 4493
4116 4494
4117 4496
4117 4503
4117 4504
4117 4514
4118 4496
4118 4497
4119 4497
4119 4498
4120 4498
4120 4499
4121 4499
4121 4500
4122 4500
4122 4501
4123 4501
4123 4502
4124 4502
4124 4503
4125 4505
4125 4513
4125 4514
4125 4525
4126 4505
4126 4506
4127 4506
4127 4507
4128 4507
4128 4508
4129 4508
4129 4509
4130 4509
4130 4510
4131 4510
4131 4511
4132 4511
4132 4512
4133 4512
4133 4513
4134 4515
4134 4524
4134 4525
4134 4537
4135 4515
4135 4516
4136 4516
4136 4517
4137 4517
4137 4518
4138 4518
4138 4519
4139 4519
4139 4520
4140 4520
4140 4521
4141 4521
4141 4522
4142 4522
4142 4523
4143 4523
4143 4524
4144 4526
4144 4536
4144 4537
4144 4550
4145 4526
4145 4527
4146 4527
4146 4528
4147 4528
4147 4529
4148 4529
4148 4530
4149 4530
4149 4531
4150 4531
4150 4532
4151 4532
4151 4533
4152 4533
4152 4534
4153 4534
4153 4535
4154 4535
4154 4536
4155 4538
4155 4549
4155 4550
4155 4564
4156 4538
4156 4539
4157 4539
4157 4540
4158 4540
4158 4541
4159 4541
4159 4542
4160 4542
4160 4543
4161 4543
4161 4544
4162 4544
4162 4545
4163 4545
4163 4546
4164 4546
4164 4547
4165 4547
4165 4548
4166 4548
4166 4549
4167 4551
4167 4563
4167 4564
4167 16653
4167 16654
4168 4551
4168 4552
4169 4552
4169 4553
4170 4553
4170 4554
4171 4554
4171 4555
4172 4555
4172 4556
4173 4556
4173 4557
4174 4557
4174 4558
4175 4558
4175 4559
4176 4559
4176 4560
4177 4560
4177 4561
4178 4561
4178 4562
4179 4562
4179 4563
4180 4565
4180 4570
4180 4578
4181 4565
4181 4566
4182 4566
4182 4567
4183 4567
4183 4568
4184 4568
4184 4569
4185 4569
4185 4570
4186 4571
4186 4577
4186 4578
4186 4587
4187 4571
4187 4572
4188 4572
4188 4573
4189 4573
4189 4574
4190 4574
4190 4575
4191 4575
4191 4576
4192 4576
4192 4577
4193 4579
4193 4586
4193 4587
4193 4597
4194 4579
4194 4580
4195 4580
4195 4581
4196 4581
4196 4582
4197 4582
4197 4583
4198 4583
4198 4584
4199 4584
4199 4585
4200 4585
4200 4586
4201 4588
4201 4596
4201 4597
4201 4608
4202 4588
4202 4589
4203 4589
4203 4590
4204 4590
4204 4591
4205 4591
4205 4592
4206 4592
4206 4593
4207 4593
4207 4594
4208 4594
4208 4595
4209 4595
4209 4596
4210 4598
4210 4607
4210 4608
4210 4620
4211 4598
4211 4599
4212 4599
4212 4600
4213 4600
4213 4601
4214 4601
4214 4602
4215 4602
4215 4603
4216 4603
4216 4604
4217 4604
4217 4605
4218 4605
4218 4606
4219 4606
4219 4607
4220 4609
4220 4619
4220 4620
4220 4633
4221 4609
4221 4610
4222 4610
4222 4611
4223 4611
4223 4612
4224 4612
4224 4613
4225 4613
4225 4614
4226 4614
4226 4615
4227 4615
4227 4616
4228 4616
4228 4617
4229 4617
4229 4618
4230 4618
4230 4619
4231 4621
4231 4632
4231 4633
4231 4647
4232 4621
4232 4622
4233 4622
4233 4623
4234 4623
4234 4624
4235 4624
4235 4625
4236 4625
4236 4626
4237 4626
4237 4627
4238 4627
4238 4628
4239 4628
4239 4629
4240 4629
4240 4630
4241 4630
4241 4631
4242 4631
4242 4632
4243 4634
4243 4646
4243 4647
4243 16654
4243 16655
4244 4634
4244 4635
4245 4635
4245 4636
4246 4636
4246 4637
4247 4637
4247 4638
4248 4638
4248 4639
4249 4639
4249 4640
4250 4640
4250 4641
4251 4641
4251 4642
4252 4642
4252 4643
4253 4643
4253 4644
4254 4644
4254 4645
4255 4645
4255 4646
4256 4648
4256 4653
4256 4661
4257 4648
4257 4649
4258 4649
4258 4650
4259 4650
4259 4651
4260 4651
4260 4652
4261 4652
4261 4653
4262 4654
4262 4660
4262 4661
4262 4670
4263 4654
4263 4655
4264 4655
4264 4656
4265 4656
4265 4657
4266 4657
4266 4658
4267 4658
4267 4659
4268 4659
4268 4660
4269 4662
4269 4669
4269 4670
4269 4680
4270 4662
4270 4663
4271 4663
4271 4664
4272 4664
4272 4665
4273 4665
4273 4666
4274 4666
4274 4667
4275 4667
4275 4668
4276 4668
4276 4669
4277 4671
4277 4679
4277 4680
4277 4691
4278 4671
4278 4672
4279 4672
4279 4673
4280 4673
4280 4674
4281 4674
4281 4675
4282 4675
4282 4676
4283 4676
4283 4677
4284 4677
4284 4678
4285 4678
4285 4679
4286 4681
4286 4690
4286 4691
4286 4703
4287 4681
4287 4682
4288 4682
4288 4683
4289 4683
4289 4684
4290 4684
4290 4685
4291 4685
4291 4686
4292 4686
4292 4687
4293 4687
4293 4688
4294 4688
4294 4689
4295 4689
4295 4690
4296 4692
4296 4702
4296 4703
4296 4716
4297 4692
4297 4693
4298 4693
4298 4694
4299 4694
4299 4695
4300 4695
4300 4696
4301 4696
4301 4697
4302 4697
4302 4698
4303 4698
4303 4699
4304 4699
4304 4700
4305 4700
4305 4701
4306 4701
4306 4702
4307 4704
4307 4715
4307 4716
4307 4730
4308 4704
4308 4705
4309 4705
4309 4706
4310 4706
4310 4707
4311 4707
4311 4708
4312 4708
4312 4709
4313 4709
4313 4710
4314 4710
4314 4711
4315 4711
4315 4712
4316 4712
4316 4713
4317 4713
4317 4714
4318 4714
4318 4715
4319 4717
4319 4729
4319 4730
4319 16655
4319 16656
4320 4717
4320 4718
4321 4718
4321 4719
4322 4719
4322 4720
4323 4720
4323 4721
4324 4721
4324 4722
4325 4722
4325 4723
4326 4723
4326 4724
4327 4724
4327 4725
4328 4725
4328 4726
4329 4726
4329 4727
4330 4727
4330 4728
4331 4728
4331 4729
4332 4731
4332 4736
4332 4744
4333 4731
4333 4732
4334 4732
4334 4733
4335 4733
4335 4734
4336 4734
4336 4735
4337 4735
4337 4736
4338 4737
4338 4743
4338 4744
4338 4753
4339 4737
4339 4738
4340 4738
4340 4739
4341 4739
4341 4740
4342 4740
4342 4741
4343 4741
4343 4742
4344 4742
4344 4743
4345 4745
4345 4752
4345 4753
4345 4763
4346 4745
4346 4746
4347 4746
4347 4747
4348 4747
4348 4748
4349 4748
4349 4749
4350 4749
4350 4750
4351 4750
4351 4751
4352 4751
4352 4752
4353 4754
4353 4762
4353 4763
4353 4774
4354 4754
4354 4755
4355 4755
4355 4756
4356 4756
4356 4757
4357 4757
4357 4758
4358 4758
4358 4759
4359 4759
4359 4760
4360 4760
4360 4761
4361 4761
4361 4762
4362 4764
4362 4773
4362 4774
4362 4786
4363 4764
4363 4765
4364 4765
4364 4766
4365 4766
4365 4767
4366 4767
4366 4768
4367 4768
4367 4769
4368 4769
4368 4770
4369 4770
4369 4771
4370 4771
4370 4772
4371 4772
4371 4773
4372 4775
4372 4785
4372 4786
4372 4799
4373 4775
4373 4776
4374 4776
4374 4777
4375 4777
4375 4778
4376 4778
4376 4779
4377 4779
4377 4780
4378 4780
4378 4781
4379 4781
4379 4782
4380 4782
4380 4783
4381 4783
4381 4784
4382 4784
4382 4785
4383 4787
4383 4798
4383 4799
4383 4813
4384 4787
4384 4788
4385 4788
4385 4789
4386 4789
4386 4790
4387 4790
4387 4791
4388 4791
4388 4792
4389 4792
4389 4793
4390 4793
4390 4794
4391 4794
4391 4795
4392 4795
4392 4796
4393 4796
4393 4797
4394 4797
4394 4798
4395 4800
4395 4812
4395 4813
4395 16656
4395 16657
4396 4800
4396 4801
4397 4801
4397 4802
4398 4802
4398 4803
4399 4803
4399 4804
4400 4804
4400 4805
4401 4805
4401 4806
4402 4806
4402 4807
4403 4807
4403 4808
4404 4808
4404 4809
4405 4809
4405 4810
4406 4810
4406 4811
4407 4811
4407 4812
4408 4814
4408 4819
4408 4827
4409 4814
4409 4815
4410 4815
4410 4816
4411 4816
4411 4817
4412 4817
4412 4818
4413 4818
4413 4819
4414 4820
4414 4826
4414 4827
4414 4836
4415 4820
4415 4821
4416 4821
4416 4822
4417 4822
4417 4823
4418 4823
4418 4824
4419 4824
4419 4825
4420 4825
4420 4826
4421 4828
4421 4835
4421 4836
4421 4846
4422 4828
4422 4829
4423 4829
4423 4830
4424 4830
4424 4831
4425 4831
4425 4832
4426 4832
4426 4833
4427 4833
4427 4834
4428 4834
4428 4835
4429 4837
4429 4845
4429 4846
4429 4857
4430 4837
4430 4838
4431 4838
4431 4839
4432 4839
4432 4840
4433 4840
4433 4841
4434 4841
4434 4842
4435 4842
4435 4843
4436 4843
4436 4844
4437 4844
4437 4845
4438 4847
4438 4856
4438 4857
4438 4869
4439 4847
4439 4848
4440 4848
4440 4849
4441 4849
4441 4850
4442 4850
4442 4851
4443 4851
4443 4852
4444 4852
4444 4853
4445 4853
4445 4854
4446 4854
4446 4855
4447 4855
4447 4856
4448 4858
4448 4868
4448 4869
4448 4882
4449 4858
4449 4859
4450 4859
4450 4860
4451 4860
4451 4861
4452 4861
4452 4862
4453 4862
4453 4863
4454 4863
4454 4864
4455 4864
4455 4865
4456 4865
4456 4866
4457 4866
4457 4867
4458 4867
4458 4868
4459 4870
4459 4881
4459 4882
4459 4896
4460 4870
4460 4871
4461 4871
4461 4872
4462 4872
4462 4873
4463 4873
4463 4874
4464 4874
4464 4875
4465 4875
4465 4876
4466 4876
4466 4877
4467 4877
4467 4878
4468 4878
4468 4879
4469 4879
4469 4880
4470 4880
4470 4881
4471 4883
4471 4895
4471 4896
4471 16657
4471 16658
4472 4883
4472 4884
4473 4884
4473 4885
4474 4885
4474 4886
4475 4886
4475 4887
4476 4887
4476 4888
4477 4888
4477 4889
4478 4889
4478 4890
4479 4890
4479 4891
4480 4891
4480 4892
4481 4892
4481 4893
4482 4893
4482 4894
4483 4894
4483 4895
4484 4897
4484 4902
4484 4910
4485 4897
4485 4898
4486 4898
4486 4899
4487 4899
4487 4900
4488 4900
4488 4901
4489 4901
4489 4902
4490 4903
4490 4909
4490 4910
4490 4919
4491 4903
4491 4904
4492 4904
4492 4905
4493 4905
4493 4906
4494 4906
4494 4907
4495 4907
4495 4908
4496 4908
4496 4909
4497 4911
4497 4918
4497 4919
4497 4929
4498 4911
4498 4912
4499 4912
4499 4913
4500 4913
4500 4914
4501 4914
4501 4915
4502 4915
4502 4916
4503 4916
4503 4917
4504 4917
4504 4918
4505 4920
4505 4928
4505 4929
4505 4940
4506 4920
4506 4921
4507 4921
4507 4922
4508 4922
4508 4923
4509 4923
4509 4924
4510 4924
4510 4925
4511 4925
4511 4926
4512 4926
4512 4927
4513 4927
4513 4928
4514 4930
4514 4939
4514 4940
4514 4952
4515 4930
4515 4931
4516 4931
4516 4932
4517 4932
4517 4933
4518 4933
4518 4934
4519 4934
4519 4935
4520 4935
4520 4936
4521 4936
4521 4937
4522 4937
4522 4938
4523 4938
4523 4939
4524 4941
4524 4951
4524 4952
4524 4965
4525 4941
4525 4942
4526 4942
4526 4943
4527 4943
4527 4944
4528 4944
4528 4945
4529 4945
4529 4946
4530 4946
4530 4947
4531 4947
4531 4948
4532 4948
4532 4949
4533 4949
4533 4950
4534 4950
4534 4951
4535 4953
4535 4964
4535 4965
4535 4979
4536 4953
4536 4954
4537 4954
4537 4955
4538 4955
4538 4956
4539 4956
4539 4957
4540 4957
4540 4958
4541 4958
4541 4959
4542 4959
4542 4960
4543 4960
4543 4961
4544 4961
4544 4962
4545 4962
4545 4963
4546 4963
4546 4964
4547 4966
4547 4978
4547 4979
4547 16658
4547 16659
4548 4966
4548 4967
4549 4967
4549 4968
4550 4968
4550 4969
4551 4969
4551 4970
4552 4970
4552 4971
4553 4971
4553 4972
4554 4972
4554 4973
4555 4973
4555 4974
4556 4974
4556 4975
4557 4975
4557 4976
4558 4976
4558 4977
4559 4977
4559 4978
4560 4980
4560 4985
4560 4993
4561 4980
4561 4981
4562 4981
4562 4982
4563 4982
4563 4983
4564 4983
4564 4984
4565 4984
4565 4985
4566 4986
4566 4992
4566 4993
4566 5002
4567 4986
4567 4987
4568 4987
4568 4988
4569 4988
4569 4989
4570 4989
4570 4990
4571 4990
4571 4991
4572 4991
4572 4992
4573 4994
4573 5001
4573 5002
4573 5012
4574 4994
4574 4995
4575 4995
4575 4996
4576 4996
4576 4997
4577 4997
4577 4998
4578 4998
4578 4999
4579 4999
4579 5000
4580 5000
4580 5001
4581 5003
4581 5011
4581 5012
4581 5023
4582 5003
4582 5004
4583 5004
4583 5005
4584 5005
4584 5006
4585 5006
4585 5007
4586 5007
4586 5008
4587 5008
4587 5009
4588 5009
4588 5010
4589 5010
4589 5011
4590 5013
4590 5022
4590 5023
4590 5035
4591 5013
4591 5014
4592 5014
4592 5015
4593 5015
4593 5016
4594 5016
4594 5017
4595 5017
4595 5018
4596 5018
4596 5019
4597 5019
4597 5020
4598 5020
4598 5021
4599 5021
4599 5022
4600 5024
4600 5034
4600 5035
4600 5048
4601 5024
4601 5025
4602 5025
4602 5026
4603 5026
4603 5027
4604 5027
4604 5028
4605 5028
4605 5029
4606 5029
4606 5030
4607 5030
4607 5031
4608 5031
4608 5032
4609 5032
4609 5033
4610 5033
4610 5034
4611 5036
4611 5047
4611 5048
4611 5062
4612 5036
4612 5037
4613 5037
4613 5038
4614 5038
4614 5039
4615 5039
4615 5040
4616 5040
4616 5041
4617 5041
4617 5042
4618 5042
4618 5043
4619 5043
4619 5044
4620 5044
4620 5045
4621 5045
4621 5046
4622 5046
4622 5047
4623 5049
4623 5061
4623 5062
4623 16659
4623 16660
4624 5049
4624 5050
4625 5050
4625 5051
4626 5051
4626 5052
4627 5052
4627 5053
4628 5053
4628 5054
4629 5054
4629 5055
4630 5055
4630 5056
4631 5056
4631 5057
4632 5057
4632 5058
4633 5058
4633 5059
4634 5059
4634 5060
4635 5060
4635 5061
4636 5063
4636 5068
4636 5076
4637 5063
4637 5064
4638 5064
4638 5065
4639 5065
4639 5066
4640 5066
4640 5067
4641 5067
4641 5068
4642 5069
4642 5075
4642 5076
4642 5085
4643 5069
4643 5070
4644 5070
4644 5071
4645 5071
4645 5072
4646 5072
4646 5073
4647 5073
4647 5074
4648 5074
4648 5075
4649 5077
4649 5084
4649 5085
4649 5095
4650 5077
4650 5078
4651 5078
4651 5079
4652 5079
4652 5080
4653 5080
4653 5081
4654 5081
4654 5082
4655 5082
4655 5083
4656 5083
4656 5084
4657 5086
4657 5094
4657 5095
4657 5106
4658 5086
4658 5087
4659 5087
4659 5088
4660 5088
4660 5089
4661 5089
4661 5090
4662 5090
4662 5091
4663 5091
4663 5092
4664 5092
4664 5093
4665 5093
4665 5094
4666 5096
4666 5105
4666 5106
4666 5118
4667 5096
4667 5097
4668 5097
4668 5098
4669 5098
4669 5099
4670 5099
4670 5100
4671 5100
4671 5101
4672 5101
4672 5102
4673 5102
4673 5103
4674 5103
4674 5104
4675 5104
4675 5105
4676 5107
4676 5117
4676 5118
4676 5131
4677 5107
4677 5108
4678 5108
4678 5109
4679 5109
4679 5110
4680 5110
4680 5111
4681 5111
4681 5112
4682 5112
4682 5113
4683 5113
4683 5114
4684 5114
4684 5115
4685 5115
4685 5116
4686 5116
4686 5117
4687 5119
4687 5130
4687 5131
4687 5145
4688 5119
4688 5120
4689 5120
4689 5121
4690 5121
4690 5122
4691 5122
4691 5123
4692 5123
4692 5124
4693 5124
4693 5125
4694 5125
4694 5126
4695 5126
4695 5127
4696 5127
4696 5128
4697 5128
4697 5129
4698 5129
4698 5130
4699 5132
4699 5144
4699 5145
4699 16660
4699 16661
4700 5132
4700 5133
4701 5133
4701 5134
4702 5134
4702 5135
4703 5135
4703 5136
4704 5136
4704 5137
4705 5137
4705 5138
4706 5138
4706 5139
4707 5139
4707 5140
4708 5140
4708 5141
4709 5141
4709 5142
4710 5142
4710 5143
4711 5143
4711 5144
4712 5146
4712 5151
4712 5159
4713 5146
4713 5147
4714 5147
4714 5148
4715 5148
4715 5149
4716 5149
4716 5150
4717 5150
4717 5151
4718 5152
4718 5158
4718 5159
4718 5168
4719 5152
4719 5153
4720 5153
4720 5154
4721 5154
4721 5155
4722 5155
4722 5156
4723 5156
4723 5157
4724 5157
4724 5158
4725 5160
4725 5167
4725 5168
4725 5178
4726 5160
4726 5161
4727 5161
4727 5162
4728 5162
4728 5163
4729 5163
4729 5164
4730 5164
4730 5165
4731 5165
4731 5166
4732 5166
4732 5167
4733 5169
4733 5177
4733 5178
4733 5189
4734 5169
4734 5170
4735 5170
4735 5171
4736 5171
4736 5172
4737 5172
4737 5173
4738 5173
4738 5174
4739 5174
4739 5175
4740 5175
4740 5176
4741 5176
4741 5177
4742 5179
4742 5188
4742 5189
4742 5201
4743 5179
4743 5180
4744 5180
4744 5181
4745 5181
4745 5182
4746 5182
4746 5183
4747 5183
4747 5184
4748 5184
4748 5185
4749 5185
4749 5186
4750 5186
4750 5187
4751 5187
4751 5188
4752 5190
4752 5200
4752 5201
4752 5214
4753 5190
4753 5191
4754 5191
4754 5192
4755 5192
4755 5193
4756 5193
4756 5194
4757 5194
4757 5195
4758 5195
4758 5196
4759 5196
4759 5197
4760 5197
4760 5198
4761 5198
4761 5199
4762 5199
4762 5200
4763 5202
4763 5213
4763 5214
4763 5228
4764 5202
4764 5203
4765 5203
4765 5204
4766 5204
4766 5205
4767 5205
4767 5206
4768 5206
4768 5207
4769 5207
4769 5208
4770 5208
4770 5209
4771 5209
4771 5210
4772 5210
4772 5211
4773 5211
4773 5212
4774 5212
4774 5213
4775 5215
4775 5227
4775 5228
4775 16661
4775 16662
4776 5215
4776 5216
4777 5216
4777 5217
4778 5217
4778 5218
4779 5218
4779 5219
4780 5219
4780 5220
4781 5220
4781 5221
4782 5221
4782 5222
4783 5222
4783 5223
4784 5223
4784 5224
4785 5224
4785 5225
4786 5225
4786 5226
4787 5226
4787 5227
4788 5229
4788 5234
4788 5242
4789 5229
4789 5230
4790 5230
4790 5231
4791 5231
4791 5232
4792 5232
4792 5233
4793 5233
4793 5234
4794 5235
4794 5241
4794 5242
4794 5251
4795 5235
4795 5236
4796 5236
4796 5237
4797 5237
4797 5238
4798 5238
4798 5239
4799 5239
4799 5240
4800 5240
4800 5241
4801 5243
4801 5250
4801 5251
4801 5261
4802 5243
4802 5244
4803 5244
4803 5245
4804 5245
4804 5246
4805 5246
4805 5247
4806 5247
4806 5248
4807 5248
4807 5249
4808 5249
4808 5250
4809 5252
4809 5260
4809 5261
4809 5272
4810 5252
4810 5253
4811 5253
4811 5254
4812 5254
4812 5255
4813 5255
4813 5256
4814 5256
4814 5257
4815 5257
4815 5258
4816 5258
4816 5259
4817 5259
4817 5260
4818 5262
4818 5271
4818 5272
4818 5284
4819 5262
4819 5263
4820 5263
4820 5264
4821 5264
4821 5265
4822 5265
4822 5266
4823 5266
4823 5267
4824 5267
4824 5268
4825 5268
4825 5269
4826 5269
4826 5270
4827 5270
4827 5271
4828 5273
4828 5283
4828 5284
4828 5297
4829 5273
4829 5274
4830 5274
4830 5275
4831 5275
4831 5276
4832 5276
4832 5277
4833 5277
4833 5278
4834 5278
4834 5279
4835 5279
4835 5280
4836 5280
4836 5281
4837 5281
4837 5282
4838 5282
4838 5283
4839 5285
4839 5296
4839 5297
4839 5311
4840 5285
4840 5286
4841 5286
4841 5287
4842 5287
4842 5288
4843 5288
4843 5289
4844 5289
4844 5290
4845 5290
4845 5291
4846 5291
4846 5292
4847 5292
4847 5293
4848 5293
4848 5294
4849 5294
4849 5295
4850 5295
4850 5296
4851 5298
4851 5310
4851 5311
4851 16662
4851 16663
4852 5298
4852 5299
4853 5299
4853 5300
4854 5300
4854 5301
4855 5301
4855 5302
4856 5302
4856 5303
4857 5303
4857 5304
4858 5304
4858 5305
4859 5305
4859 5306
4860 5306
4860 5307
4861 5307
4861 5308
4862 5308
4862 5309
4863 5309
4863 5310
4864 5312
4864 5317
4864 5325
4865 5312
4865 5313
4866 5313
4866 5314
4867 5314
4867 5315
4868 5315
4868 5316
4869 5316
4869 5317
4870 5318
4870 5324
4870 5325
4870 5334
4871 5318
4871 5319
4872 5319
4872 5320
4873 5320
4873 5321
4874 5321
4874 5322
4875 5322
4875 5323
4876 5323
4876 5324
4877 5326
4877 5333
4877 5334
4877 5344
4878 5326
4878 5327
4879 5327
4879 5328
4880 5328
4880 5329
4881 5329
4881 5330
4882 5330
4882 5331
4883 5331
4883 5332
4884 5332
4884 5333
4885 5335
4885 5343
4885 5344
4885 5355
4886 5335
4886 5336
4887 5336
4887 5337
4888 5337
4888 5338
4889 5338
4889 5339
4890 5339
4890 5340
4891 5340
4891 5341
4892 5341
4892 5342
4893 5342
4893 5343
4894 5345
4894 5354
4894 5355
4894 5367
4895 5345
4895 5346
4896 5346
4896 5347
4897 5347
4897 5348
4898 5348
4898 5349
4899 5349
4899 5350
4900 5350
4900 5351
4901 5351
4901 5352
4902 5352
4902 5353
4903 5353
4903 5354
4904 5356
4904 5366
4904 5367
4904 5380
4905 5356
4905 5357
4906 5357
4906 5358
4907 5358
4907 5359
4908 5359
4908 5360
4909 5360
4909 5361
4910 5361
4910 5362
4911 5362
4911 5363
4912 5363
4912 5364
4913 5364
4913 5365
4914 5365
4914 5366
4915 5368
4915 5379
4915 5380
4915 5394
4916 5368
4916 5369
4917 5369
4917 5370
4918 5370
4918 5371
4919 5371
4919 5372
4920 5372
4920 5373
4921 5373
4921 5374
4922 5374
4922 5375
4923 5375
4923 5376
4924 5376
4924 5377
4925 5377
4925 5378
4926 5378
4926 5379
4927 5381
4927 5393
4927 5394
4927 16663
4927 16664
4928 5381
4928 5382
4929 5382
4929 5383
4930 5383
4930 5384
4931 5384
4931 5385
4932 5385
4932 5386
4933 5386
4933 5387
4934 5387
4934 5388
4935 5388
4935 5389
4936 5389
4936 5390
4937 5390
4937 5391
4938 5391
4938 5392
4939 5392
4939 5393
4940 5395
4940 5400
4940 5408
4941 5395
4941 5396
4942 5396
4942 5397
4943 5397
4943 5398
4944 5398
4944 5399
4945 5399
4945 5400
4946 5401
4946 5407
4946 5408
4946 5417
4947 5401
4947 5402
4948 5402
4948 5403
4949 5403
4949 5404
4950 5404
4950 5405
4951 5405
4951 5406
4952 5406
4952 5407
4953 5409
4953 5416
4953 5417
4953 5427
4954 5409
4954 5410
4955 5410
4955 5411
4956 5411
4956 5412
4957 5412
4957 5413
4958 5413
4958 5414
4959 5414
4959 5415
4960 5415
4960 5416
4961 5418
4961 5426
4961 5427
4961 5438
4962 5418
4962 5419
4963 5419
4963 5420
4964 5420
4964 5421
4965 5421
4965 5422
4966 5422
4966 5423
4967 5423
4967 5424
4968 5424
4968 5425
4969 5425
4969 5426
4970 5428
4970 5437
4970 5438
4970 5450
4971 5428
4971 5429
4972 5429
4972 5430
4973 5430
4973 5431
4974 5431
4974 5432
4975 5432
4975 5433
4976 5433
4976 5434
4977 5434
4977 5435
4978 5435
4978 5436
4979 5436
4979 5437
4980 5439
4980 5449
4980 5450
4980 5463
4981 5439
4981 5440
4982 5440
4982 5441
4983 5441
4983 5442
4984 5442
4984 5443
4985 5443
4985 5444
4986 5444
4986 5445
4987 5445
4987 5446
4988 5446
4988 5447
4989 5447
4989 5448
4990 5448
4990 5449
4991 5451
4991 5462
4991 5463
4991 5477
4992 5451
4992 5452
4993 5452
4993 5453
4994 5453
4994 5454
4995 5454
4995 5455
4996 5455
4996 5456
4997 5456
4997 5457
4998 5457
4998 5458
4999 5458
4999 5459
5000 5459
5000 5460
5001 5460
5001 5461
5002 5461
5002 5462
5003 5464
5003 5476
5003 5477
5003 16664
5003 16665
5004 5464
5004 5465
5005 5465
5005 5466
5006 5466
5006 5467
5007 5467
5007 5468
5008 5468
5008 5469
5009 5469
5009 5470
5010 5470
5010 5471
5011 5471
5011 5472
5012 5472
5012 5473
5013 5473
5013 5474
5014 5474
5014 5475
5015 5475
5015 5476
5016 5478
5016 5483
5016 5491
5017 5478
5017 5479
5018 5479
5018 5480
5019 5480
5019 5481
5020 5481
5020 5482
5021 5482
5021 5483
5022 5484
5022 5490
5022 5491
5022 5500
5023 5484
5023 5485
5024 5485
5024 5486
5025 5486
5025 5487
5026 5487
5026 5488
5027 5488
5027 5489
5028 5489
5028 5490
5029 5492
5029 5499
5029 5500
5029 5510
5030 5492
5030 5493
5031 5493
5031 5494
5032 5494
5032 5495
5033 5495
5033 5496
5034 5496
5034 5497
5035 5497
5035 5498
5036 5498
5036 5499
5037 5501
5037 5509
5037 5510
5037 5521
5038 5501
5038 5502
5039 5502
5039 5503
5040 5503
5040 5504
5041 5504
5041 5505
5042 5505
5042 5506
5043 5506
5043 5507
5044 5507
5044 5508
5045 5508
5045 5509
5046 5511
5046 5520
5046 5521
5046 5533
5047 5511
5047 5512
5048 5512
5048 5513
5049 5513
5049 5514
5050 5514
5050 5515
5051 5515
5051 5516
5052 5516
5052 5517
5053 5517
5053 5518
5054 5518
5054 5519
5055 5519
5055 5520
5056 5522
5056 5532
5056 5533
5056 5546
5057 5522
5057 5523
5058 5523
5058 5524
5059 5524
5059 5525
5060 5525
5060 5526
5061 5526
5061 5527
5062 5527
5062 5528
5063 5528
5063 5529
5064 5529
5064 5530
5065 5530
5065 5531
5066 5531
5066 5532
5067 5534
5067 5545
5067 5546
5067 5560
5068 5534
5068 5535
5069 5535
5069 5536
5070 5536
5070 5537
5071 5537
5071 5538
5072 5538
5072 5539
5073 5539
5073 5540
5074 5540
5074 5541
5075 5541
5075 5542
5076 5542
5076 5543
5077 5543
5077 5544
5078 5544
5078 5545
5079 5547
5079 5559
5079 5560
5079 16665
5079 16666
5080 5547
5080 5548
5081 5548
5081 5549
5082 5549
5082 5550
5083 5550
5083 5551
5084 5551
5084 5552
5085 5552
5085 5553
5086 5553
5086 5554
5087 5554
5087 5555
5088 5555
5088 5556
5089 5556
5089 5557
5090 5557
5090 5558
5091 5558
5091 5559
5092 5561
5092 5566
5092 5574
5093 5561
5093 5562
5094 5562
5094 5563
5095 5563
5095 5564
5096 5564
5096 5565
5097 5565
5097 5566
5098 5567
5098 5573
5098 5574
5098 5583
5099 5567
5099 5568
5100 5568
5100 5569
5101 5569
5101 5570
5102 5570
5102 5571
5103 5571
5103 5572
5104 5572
5104 5573
5105 5575
5105 5582
5105 5583
5105 5593
5106 5575
5106 5576
5107 5576
5107 5577
5108 5577
5108 5578
5109 5578
5109 5579
5110 5579
5110 5580
5111 5580
5111 5581
5112 5581
5112 5582
5113 5584
5113 5592
5113 5593
5113 5604
5114 5584
5114 5585
5115 5585
5115 5586
5116 5586
5116 5587
5117 5587
5117 5588
5118 5588
5118 5589
5119 5589
5119 5590
5120 5590
5120 5591
5121 5591
5121 5592
5122 5594
5122 5603
5122 5604
5122 5616
5123 5594
5123 5595
5124 5595
5124 5596
5125 5596
5125 5597
5126 5597
5126 5598
5127 5598
5127 5599
5128 5599
5128 5600
5129 5600
5129 5601
5130 5601
5130 5602
5131 5602
5131 5603
5132 5605
5132 5615
5132 5616
5132 5629
5133 5605
5133 5606
5134 5606
5134 5607
5135 5607
5135 5608
5136 5608
5136 5609
5137 5609
5137 5610
5138 5610
5138 5611
5139 5611
5139 5612
5140 5612
5140 5613
5141 5613
5141 5614
5142 5614
5142 5615
5143 5617
5143 5628
5143 5629
5143 5643
5144 5617
5144 5618
5145 5618
5145 5619
5146 5619
5146 5620
5147 5620
5147 5621
5148 5621
5148 5622
5149 5622
5149 5623
5150 5623
5150 5624
5151 5624
5151 5625
5152 5625
5152 5626
5153 5626
5153 5627
5154 5627
5154 5628
5155 5630
5155 5642
5155 5643
5155 16666
5155 16667
5156 5630
5156 5631
5157 5631
5157 5632
5158 5632
5158 5633
5159 5633
5159 5634
5160 5634
5160 5635
5161 5635
5161 5636
5162 5636
5162 5637
5163 5637
5163 5638
5164 5638
5164 5639
5165 5639
5165 5640
5166 5640
5166 5641
5167 5641
5167 5642
5168 5644
5168 5649
5168 5657
5169 5644
5169 5645
5170 5645
5170 5646
5171 5646
5171 5647
5172 5647
5172 5648
5173 5648
5173 5649
5174 5650
5174 5656
5174 5657
5174 5666
5175 5650
5175 5651
5176 5651
5176 5652
5177 5652
5177 5653
5178 5653
5178 5654
5179 5654
5179 5655
5180 5655
5180 5656
5181 5658
5181 5665
5181 5666
5181 5676
5182 5658
5182 5659
5183 5659
5183 5660
5184 5660
5184 5661
5185 5661
5185 5662
5186 5662
5186 5663
5187 5663
5187 5664
5188 5664
5188 5665
5189 5667
5189 5675
5189 5676
5189 5687
5190 5667
5190 5668
5191 5668
5191 5669
5192 5669
5192 5670
5193 5670
5193 5671
5194 5671
5194 5672
5195 5672
5195 5673
5196 5673
5196 5674
5197 5674
5197 5675
5198 5677
5198 5686
5198 5687
5198 5699
5199 5677
5199 5678
5200 5678
5200 5679
5201 5679
5201 5680
5202 5680
5202 5681
5203 5681
5203 5682
5204 5682
5204 5683
5205 5683
5205 5684
5206 5684
5206 5685
5207 5685
5207 5686
5208 5688
5208 5698
5208 5699
5208 5712
5209 5688
5209 5689
5210 5689
5210 5690
5211 5690
5211 5691
5212 5691
5212 5692
5213 5692
5213 5693
5214 5693
5214 5694
5215 5694
5215 5695
5216 5695
5216 5696
5217 5696
5217 5697
5218 5697
5218 5698
5219 5700
5219 5711
5219 5712
5219 5726
5220 5700
5220 5701
5221 5701
5221 5702
5222 5702
5222 5703
5223 5703
5223 5704
5224 5704
5224 5705
5225 5705
5225 5706
5226 5706
5226 5707
5227 5707
5227 5708
5228 5708
5228 5709
5229 5709
5229 5710
5230 5710
5230 5711
5231 5713
5231 5725
5231 5726
5231 16667
5231 16668
5232 5713
5232 5714
5233 5714
5233 5715
5234 5715
5234 5716
5235 5716
5235 5717
5236 5717
5236 5718
5237 5718
5237 5719
5238 5719
5238 5720
5239 5720
5239 5721
5240 5721
5240 5722
5241 5722
5241 5723
5242 5723
5242 5724
5243 5724
5243 5725
5244 5727
5244 5732
5244 5740
5245 5727
5245 5728
5246 5728
5246 5729
5247 5729
5247 5730
5248 5730
5248 5731
5249 5731
5249 5732
5250 5733
5250 5739
5250 5740
5250 5749
5251 5733
5251 5734
5252 5734
5252 5735
5253 5735
5253 5736
5254 5736
5254 5737
5255 5737
5255 5738
5256 5738
5256 5739
5257 5741
5257 5748
5257 5749
5257 5759
5258 5741
5258 5742
5259 5742
5259 5743
5260 5743
5260 5744
5261 5744
5261 5745
5262 5745
5262 5746
5263 5746
5263 5747
5264 5747
5264 5748
5265 5750
5265 5758
5265 5759
5265 5770
5266 5750
5266 5751
5267 5751
5267 5752
5268 5752
5268 5753
5269 5753
5269 5754
5270 5754
5270 5755
5271 5755
5271 5756
5272 5756
5272 5757
5273 5757
5273 5758
5274 5760
5274 5769
5274 5770
5274 5782
5275 5760
5275 5761
5276 5761
5276 5762
5277 5762
5277 5763
5278 5763
5278 5764
5279 5764
5279 5765
5280 5765
5280 5766
5281 5766
5281 5767
5282 5767
5282 5768
5283 5768
5283 5769
5284 5771
5284 5781
5284 5782
5284 5795
5285 5771
5285 5772
5286 5772
5286 5773
5287 5773
5287 5774
5288 5774
5288 5775
5289 5775
5289 5776
5290 5776
5290 5777
5291 5777
5291 5778
5292 5778
5292 5779
5293 5779
5293 5780
5294 5780
5294 5781
5295 5783
5295 5794
5295 5795
5295 5809
5296 5783
5296 5784
5297 5784
5297 5785
5298 5785
5298 5786
5299 5786
5299 5787
5300 5787
5300 5788
5301 5788
5301 5789
5302 5789
5302 5790
5303 5790
5303 5791
5304 5791
5304 5792
5305 5792
5305 5793
5306 5793
5306 5794
5307 5796
5307 5808
5307 5809
5307 16668
5307 16669
5308 5796
5308 5797
5309 5797
5309 5798
5310 5798
5310 5799
5311 5799
5311 5800
5312 5800
5312 5801
5313 5801
5313 5802
5314 5802
5314 5803
5315 5803
5315 5804
5316 5804
5316 5805
5317 5805
5317 5806
5318 5806
5318 5807
5319 5807
5319 5808
5320 5810
5320 5815
5320 5823
5321 5810
5321 5811
5322 5811
5322 5812
5323 5812
5323 5813
5324 5813
5324 5814
5325 5814
5325 5815
5326 5816
5326 5822
5326 5823
5326 5832
5327 5816
5327 5817
5328 5817
5328 5818
5329 5818
5329 5819
5330 5819
5330 5820
5331 5820
5331 5821
5332 5821
5332 5822
5333 5824
5333 5831
5333 5832
5333 5842
5334 5824
5334 5825
5335 5825
5335 5826
5336 5826
5336 5827
5337 5827
5337 5828
5338 5828
5338 5829
5339 5829
5339 5830
5340 5830
5340 5831
5341 5833
5341 5841
5341 5842
5341 5853
5342 5833
5342 5834
5343 5834
5343 5835
5344 5835
5344 5836
5345 5836
5345 5837
5346 5837
5346 5838
5347 5838
5347 5839
5348 5839
5348 5840
5349 5840
5349 5841
5350 5843
5350 5852
5350 5853
5350 5865
5351 5843
5351 5844
5352 5844
5352 5845
5353 5845
5353 5846
5354 5846
5354 5847
5355 5847
5355 5848
5356 5848
5356 5849
5357 5849
5357 5850
5358 5850
5358 5851
5359 5851
5359 5852
5360 5854
5360 5864
5360 5865
5360 5878
5361 5854
5361 5855
5362 5855
5362 5856
5363 5856
5363 5857
5364 5857
5364 5858
5365 5858
5365 5859
5366 5859
5366 5860
5367 5860
5367 5861
5368 5861
5368 5862
5369 5862
5369 5863
5370 5863
5370 5864
5371 5866
5371 5877
5371 5878
5371 5892
5372 5866
5372 5867
5373 5867
5373 5868
5374 5868
5374 5869
5375 5869
5375 5870
5376 5870
5376 5871
5377 5871
5377 5872
5378 5872
5378 5873
5379 5873
5379 5874
5380 5874
5380 5875
5381 5875
5381 5876
5382 5876
5382 5877
5383 5879
5383 5891
5383 5892
5383 16669
5383 16670
5384 5879
5384 5880
5385 5880
5385 5881
5386 5881
5386 5882
5387 5882
5387 5883
5388 5883
5388 5884
5389 5884
5389 5885
5390 5885
5390 5886
5391 5886
5391 5887
5392 5887
5392 5888
5393 5888
5393 5889
5394 5889
5394 5890
5395 5890
5395 5891
5396 5893
5396 5898
5396 5906
5397 5893
5397 5894
5398 5894
5398 5895
5399 5895
5399 5896
5400 5896
5400 5897
5401 5897
5401 5898
5402 5899
5402 5905
5402 5906
5402 5915
5403 5899
5403 5900
5404 5900
5404 5901
5405 5901
5405 5902
5406 5902
5406 5903
5407 5903
5407 5904
5408 5904
5408 5905
5409 5907
5409 5914
5409 5915
5409 5925
5410 5907
5410 5908
5411 5908
5411 5909
5412 5909
5412 5910
5413 5910
5413 5911
5414 5911
5414 5912
5415 5912
5415 5913
5416 5913
5416 5914
5417 5916
5417 5924
5417 5925
5417 5936
5418 5916
5418 5917
5419 5917
5419 5918
5420 5918
5420 5919
5421 5919
5421 5920
5422 5920
5422 5921
5423 5921
5423 5922
5424 5922
5424 5923
5425 5923
5425 5924
5426 5926
5426 5935
5426 5936
5426 5948
5427 5926
5427 5927
5428 5927
5428 5928
5429 5928
5429 5929
5430 5929
5430 5930
5431 5930
5431 5931
5432 5931
5432 5932
5433 5932
5433 5933
5434 5933
5434 5934
5435 5934
5435 5935
5436 5937
5436 5947
5436 5948
5436 5961
5437 5937
5437 5938
5438 5938
5438 5939
5439 5939
5439 5940
5440 5940
5440 5941
5441 5941
5441 5942
5442 5942
5442 5943
5443 5943
5443 5944
5444 5944
5444 5945
5445 5945
5445 5946
5446 5946
5446 5947
5447 5949
5447 5960
5447 5961
5447 5975
5448 5949
5448 5950
5449 5950
5449 5951
5450 5951
5450 5952
5451 5952
5451 5953
5452 5953
5452 5954
5453 5954
5453 5955
5454 5955
5454 5956
5455 5956
5455 5957
5456 5957
5456 5958
5457 5958
5457 5959
5458 5959
5458 5960
5459 5962
5459 5974
5459 5975
5459 16670
5459 16671
5460 5962
5460 5963
5461 5963
5461 5964
5462 5964
5462 5965
5463 5965
5463 5966
5464 5966
5464 5967
5465 5967
5465 5968
5466 5968
5466 5969
5467 5969
5467 5970
5468 5970
5468 5971
5469 5971
5469 5972
5470 5972
5470 5973
5471 5973
5471 5974
5472 5976
5472 5981
5472 5989
5473 5976
5473 5977
5474 5977
5474 5978
5475 5978
5475 5979
5476 5979
5476 5980
5477 5980
5477 5981
5478 5982
5478 5988
5478 5989
5478 5998
5479 5982
5479 5983
5480 5983
5480 5984
5481 5984
5481 5985
5482 5985
5482 5986
5483 5986
5483 5987
5484 5987
5484 5988
5485 5990
5485 5997
5485 5998
5485 6008
5486 5990
5486 5991
5487 5991
5487 5992
5488 5992
5488 5993
5489 5993
5489 5994
5490 5994
5490 5995
5491 5995
5491 5996
5492 5996
5492 5997
5493 5999
5493 6007
5493 6008
5493 6019
5494 5999
5494 6000
5495 6000
5495 6001
5496 6001
5496 6002
5497 6002
5497 6003
5498 6003
5498 6004
5499 6004
5499 6005
5500 6005
5500 6006
5501 6006
5501 6007
5502 6009
5502 6018
5502 6019
5502 6031
5503 6009
5503 6010
5504 6010
5504 6011
5505 6011
5505 6012
5506 6012
5506 6013
5507 6013
5507 6014
5508 6014
5508 6015
5509 6015
5509 6016
5510 6016
5510 6017
5511 6017
5511 6018
5512 6020
5512 6030
5512 6031
5512 6044
5513 6020
5513 6021
5514 6021
5514 6022
5515 6022
5515 6023
5516 6023
5516 6024
5517 6024
5517 6025
5518 6025
5518 6026
5519 6026
5519 6027
5520 6027
5520 6028
5521 6028
5521 6029
5522 6029
5522 6030
5523 6032
5523 6043
5523 6044
5523 6058
5524 6032
5524 6033
5525 6033
5525 6034
5526 6034
5526 6035
5527 6035
5527 6036
5528 6036
5528 6037
5529 6037
5529 6038
5530 6038
5530 6039
5531 6039
5531 6040
5532 6040
5532 6041
5533 6041
5533 6042
5534 6042
5534 6043
5535 6045
5535 6057
5535 6058
5535 16671
5535 16672
5536 6045
5536 6046
5537 6046
5537 6047
5538 6047
5538 6048
5539 6048
5539 6049
5540 6049
5540 6050
5541 6050
5541 6051
5542 6051
5542 6052
5543 6052
5543 6053
5544 6053
5544 6054
5545 6054
5545 6055
5546 6055
5546 6056
5547 6056
5547 6057
5548 6059
5548 6064
5548 6072
5549 6059
5549 6060
5550 6060
5550 6061
5551 6061
5551 6062
5552 6062
5552 6063
5553 6063
5553 6064
5554 6065
5554 6071
5554 6072
5554 6081
5555 6065
5555 6066
5556 6066
5556 6067
5557 6067
5557 6068
5558 6068
5558 6069
5559 6069
5559 6070
5560 6070
5560 6071
5561 6073
5561 6080
5561 6081
5561 6091
5562 6073
5562 6074
5563 6074
5563 6075
5564 6075
5564 6076
5565 6076
5565 6077
5566 6077
5566 6078
5567 6078
5567 6079
5568 6079
5568 6080
5569 6082
5569 6090
5569 6091
5569 6102
5570 6082
5570 6083
5571 6083
5571 6084
5572 6084
5572 6085
5573 6085
5573 6086
5574 6086
5574 6087
5575 6087
5575 6088
5576 6088
5576 6089
5577 6089
5577 6090
5578 6092
5578 6101
5578 6102
5578 6114
5579 6092
5579 6093
5580 6093
5580 6094
5581 6094
5581 6095
5582 6095
5582 6096
5583 6096
5583 6097
5584 6097
5584 6098
5585 6098
5585 6099
5586 6099
5586 6100
5587 6100
5587 6101
5588 6103
5588 6113
5588 6114
5588 6127
5589 6103
5589 6104
5590 6104
5590 6105
5591 6105
5591 6106
5592 6106
5592 6107
5593 6107
5593 6108
5594 6108
5594 6109
5595 6109
5595 6110
5596 6110
5596 6111
5597 6111
5597 6112
5598 6112
5598 6113
5599 6115
5599 6126
5599 6127
5599 6141
5600 6115
5600 6116
5601 6116
5601 6117
5602 6117
5602 6118
5603 6118
5603 6119
5604 6119
5604 6120
5605 6120
5605 6121
5606 6121
5606 6122
5607 6122
5607 6123
5608 6123
5608 6124
5609 6124
5609 6125
5610 6125
5610 6126
5611 6128
5611 6140
5611 6141
5611 16672
5611 16673
5612 6128
5612 6129
5613 6129
5613 6130
5614 6130
5614 6131
5615 6131
5615 6132
5616 6132
5616 6133
5617 6133
5617 6134
5618 6134
5618 6135
5619 6135
5619 6136
5620 6136
5620 6137
5621 6137
5621 6138
5622 6138
5622 6139
5623 6139
5623 6140
5624 6142
5624 6147
5624 6155
5625 6142
5625 6143
5626 6143
5626 6144
5627 6144
5627 6145
5628 6145
5628 6146
5629 6146
5629 6147
5630 6148
5630 6154
5630 6155
5630 6164
5631 6148
5631 6149
5632 6149
5632 6150
5633 6150
5633 6151
5634 6151
5634 6152
5635 6152
5635 6153
5636 6153
5636 6154
5637 6156
5637 6163
5637 6164
5637 6174
5638 6156
5638 6157
5639 6157
5639 6158
5640 6158
5640 6159
5641 6159
5641 6160
5642 6160
5642 6161
5643 6161
5643 6162
5644 6162
5644 6163
5645 6165
5645 6173
5645 6174
5645 6185
5646 6165
5646 6166
5647 6166
5647 6167
5648 6167
5648 6168
5649 6168
5649 6169
5650 6169
5650 6170
5651 6170
5651 6171
5652 6171
5652 6172
5653 6172
5653 6173
5654 6175
5654 6184
5654 6185
5654 6197
5655 6175
5655 6176
5656 6176
5656 6177
5657 6177
5657 6178
5658 6178
5658 6179
5659 6179
5659 6180
5660 6180
5660 6181
5661 6181
5661 6182
5662 6182
5662 6183
5663 6183
5663 6184
5664 6186
5664 6196
5664 6197
5664 6210
5665 6186
5665 6187
5666 6187
5666 6188
5667 6188
5667 6189
5668 6189
5668 6190
5669 6190
5669 6191
5670 6191
5670 6192
5671 6192
5671 6193
5672 6193
5672 6194
5673 6194
5673 6195
5674 6195
5674 6196
5675 6198
5675 6209
5675 6210
5675 6224
5676 6198
5676 6199
5677 6199
5677 6200
5678 6200
5678 6201
5679 6201
5679 6202
5680 6202
5680 6203
5681 6203
5681 6204
5682 6204
5682 6205
5683 6205
5683 6206
5684 6206
5684 6207
5685 6207
5685 6208
5686 6208
5686 6209
5687 6211
5687 6223
5687 6224
5687 16673
5687 16674
5688 6211
5688 6212
5689 6212
5689 6213
5690 6213
5690 6214
5691 6214
5691 6215
5692 6215
5692 6216
5693 6216
5693 6217
5694 6217
5694 6218
5695 6218
5695 6219
5696 6219
5696 6220
5697 6220
5697 6221
5698 6221
5698 6222
5699 6222
5699 6223
5700 6225
5700 6230
5700 6238
5701 6225
5701 6226
5702 6226
5702 6227
5703 6227
5703 6228
5704 6228
5704 6229
5705 6229
5705 6230
5706 6231
5706 6237
5706 6238
5706 6247
5707 6231
5707 6232
5708 6232
5708 6233
5709 6233
5709 6234
5710 6234
5710 6235
5711 6235
5711 6236
5712 6236
5712 6237
5713 6239
5713 6246
5713 6247
5713 6257
5714 6239
5714 6240
5715 6240
5715 6241
5716 6241
5716 6242
5717 6242
5717 6243
5718 6243
5718 6244
5719 6244
5719 6245
5720 6245
5720 6246
5721 6248
5721 6256
5721 6257
5721 6268
5722 6248
5722 6249
5723 6249
5723 6250
5724 6250
5724 6251
5725 6251
5725 6252
5726 6252
5726 6253
5727 6253
5727 6254
5728 6254
5728 6255
5729 6255
5729 6256
5730 6258
5730 6267
5730 6268
5730 6280
5731 6258
5731 6259
5732 6259
5732 6260
5733 6260
5733 6261
5734 6261
5734 6262
5735 6262
5735 6263
5736 6263
5736 6264
5737 6264
5737 6265
5738 6265
5738 6266
5739 6266
5739 6267
5740 6269
5740 6279
5740 6280
5740 6293
5741 6269
5741 6270
5742 6270
5742 6271
5743 6271
5743 6272
5744 6272
5744 6273
5745 6273
5745 6274
5746 6274
5746 6275
5747 6275
5747 6276
5748 6276
5748 6277
5749 6277
5749 6278
5750 6278
5750 6279
5751 6281
5751 6292
5751 6293
5751 6307
5752 6281
5752 6282
5753 6282
5753 6283
5754 6283
5754 6284
5755 6284
5755 6285
5756 6285
5756 6286
5757 6286
5757 6287
5758 6287
5758 6288
5759 6288
5759 6289
5760 6289
5760 6290
5761 6290
5761 6291
5762 6291
5762 6292
5763 6294
5763 6306
5763 6307
5763 16674
5763 16675
5764 6294
5764 6295
5765 6295
5765 6296
5766 6296
5766 6297
5767 6297
5767 6298
5768 6298
5768 6299
5769 6299
5769 6300
5770 6300
5770 6301
5771 6301
5771 6302
5772 6302
5772 6303
5773 6303
5773 6304
5774 6304
5774 6305
5775 6305
5775 6306
5776 6308
5776 6313
5776 6321
5777 6308
5777 6309
5778 6309
5778 6310
5779 6310
5779 6311
5780 6311
5780 6312
5781 6312
5781 6313
5782 6314
5782 6320
5782 6321
5782 6330
5783 6314
5783 6315
5784 6315
5784 6316
5785 6316
5785 6317
5786 6317
5786 6318
5787 6318
5787 6319
5788 6319
5788 6320
5789 6322
5789 6329
5789 6330
5789 6340
5790 6322
5790 6323
5791 6323
5791 6324
5792 6324
5792 6325
5793 6325
5793 6326
5794 6326
5794 6327
5795 6327
5795 6328
5796 6328
5796 6329
5797 6331
5797 6339
5797 6340
5797 6351
5798 6331
5798 6332
5799 6332
5799 6333
5800 6333
5800 6334
5801 6334
5801 6335
5802 6335
5802 6336
5803 6336
5803 6337
5804 6337
5804 6338
5805 6338
5805 6339
5806 6341
5806 6350
5806 6351
5806 6363
5807 6341
5807 6342
5808 6342
5808 6343
5809 6343
5809 6344
5810 6344
5810 6345
5811 6345
5811 6346
5812 6346
5812 6347
5813 6347
5813 6348
5814 6348
5814 6349
5815 6349
5815 6350
5816 6352
5816 6362
5816 6363
5816 6376
5817 6352
5817 6353
5818 6353
5818 6354
5819 6354
5819 6355
5820 6355
5820 6356
5821 6356
5821 6357
5822 6357
5822 6358
5823 6358
5823 6359
5824 6359
5824 6360
5825 6360
5825 6361
5826 6361
5826 6362
5827 6364
5827 6375
5827 6376
5827 6390
5828 6364
5828 6365
5829 6365
5829 6366
5830 6366
5830 6367
5831 6367
5831 6368
5832 6368
5832 6369
5833 6369
5833 6370
5834 6370
5834 6371
5835 6371
5835 6372
5836 6372
5836 6373
5837 6373
5837 6374
5838 6374
5838 6375
5839 6377
5839 6389
5839 6390
5839 16675
5839 16676
5840 6377
5840 6378
5841 6378
5841 6379
5842 6379
5842 6380
5843 6380
5843 6381
5844 6381
5844 6382
5845 6382
5845 6383
5846 6383
5846 6384
5847 6384
5847 6385
5848 6385
5848 6386
5849 6386
5849 6387
5850 6387
5850 6388
5851 6388
5851 6389
5852 6391
5852 6396
5852 6404
5853 6391
5853 6392
5854 6392
5854 6393
5855 6393
5855 6394
5856 6394
5856 6395
5857 6395
5857 6396
5858 6397
5858 6403
5858 6404
5858 6413
5859 6397
5859 6398
5860 6398
5860 6399
5861 6399
5861 6400
5862 6400
5862 6401
5863 6401
5863 6402
5864 6402
5864 6403
5865 6405
5865 6412
5865 6413
5865 6423
5866 6405
5866 6406
5867 6406
5867 6407
5868 6407
5868 6408
5869 6408
5869 6409
5870 6409
5870 6410
5871 6410
5871 6411
5872 6411
5872 6412
5873 6414
5873 6422
5873 6423
5873 6434
5874 6414
5874 6415
5875 6415
5875 6416
5876 6416
5876 6417
5877 6417
5877 6418
5878 6418
5878 6419
5879 6419
5879 6420
5880 6420
5880 6421
5881 6421
5881 6422
5882 6424
5882 6433
5882 6434
5882 6446
5883 6424
5883 6425
5884 6425
5884 6426
5885 6426
5885 6427
5886 6427
5886 6428
5887 6428
5887 6429
5888 6429
5888 6430
5889 6430
5889 6431
5890 6431
5890 6432
5891 6432
5891 6433
5892 6435
5892 6445
5892 6446
5892 6459
5893 6435
5893 6436
5894 6436
5894 6437
5895 6437
5895 6438
5896 6438
5896 6439
5897 6439
5897 6440
5898 6440
5898 6441
5899 6441
5899 6442
5900 6442
5900 6443
5901 6443
5901 6444
5902 6444
5902 6445
5903 6447
5903 6458
5903 6459
5903 6473
5904 6447
5904 6448
5905 6448
5905 6449
5906 6449
5906 6450
5907 6450
5907 6451
5908 6451
5908 6452
5909 6452
5909 6453
5910 6453
5910 6454
5911 6454
5911 6455
5912 6455
5912 6456
5913 6456
5913 6457
5914 6457
5914 6458
5915 6460
5915 6472
5915 6473
5915 16676
5915 16677
5916 6460
5916 6461
5917 6461
5917 6462
5918 6462
5918 6463
5919 6463
5919 6464
5920 6464
5920 6465
5921 6465
5921 6466
5922 6466
5922 6467
5923 6467
5923 6468
5924 6468
5924 6469
5925 6469
5925 6470
5926 6470
5926 6471
5927 6471
5927 6472
5928 6474
5928 6479
5928 6487
5929 6474
5929 6475
5930 6475
5930 6476
5931 6476
5931 6477
5932 6477
5932 6478
5933 6478
5933 6479
5934 6480
5934 6486
5934 6487
5934 6496
5935 6480
5935 6481
5936 6481
5936 6482
5937 6482
5937 6483
5938 6483
5938 6484
5939 6484
5939 6485
5940 6485
5940 6486
5941 6488
5941 6495
5941 6496
5941 6506
5942 6488
5942 6489
5943 6489
5943 6490
5944 6490
5944 6491
5945 6491
5945 6492
5946 6492
5946 6493
5947 6493
5947 6494
5948 6494
5948 6495
5949 6497
5949 6505
5949 6506
5949 6517
5950 6497
5950 6498
5951 6498
5951 6499
5952 6499
5952 6500
5953 6500
5953 6501
5954 6501
5954 6502
5955 6502
5955 6503
5956 6503
5956 6504
5957 6504
5957 6505
5958 6507
5958 6516
5958 6517
5958 6529
5959 6507
5959 6508
5960 6508
5960 6509
5961 6509
5961 6510
5962 6510
5962 6511
5963 6511
5963 6512
5964 6512
5964 6513
5965 6513
5965 6514
5966 6514
5966 6515
5967 6515
5967 6516
5968 6518
5968 6528
5968 6529
5968 6542
5969 6518
5969 6519
5970 6519
5970 6520
5971 6520
5971 6521
5972 6521
5972 6522
5973 6522
5973 6523
5974 6523
5974 6524
5975 6524
5975 6525
5976 6525
5976 6526
5977 6526
5977 6527
5978 6527
5978 6528
5979 6530
5979 6541
5979 6542
5979 6556
5980 6530
5980 6531
5981 6531
5981 6532
5982 6532
5982 6533
5983 6533
5983 6534
5984 6534
5984 6535
5985 6535
5985 6536
5986 6536
5986 6537
5987 6537
5987 6538
5988 6538
5988 6539
5989 6539
5989 6540
5990 6540
5990 6541
5991 6543
5991 6555
5991 6556
5991 16677
5991 16678
5992 6543
5992 6544
5993 6544
5993 6545
5994 6545
5994 6546
5995 6546
5995 6547
5996 6547
5996 6548
5997 6548
5997 6549
5998 6549
5998 6550
5999 6550
5999 6551
6000 6551
6000 6552
6001 6552
6001 6553
6002 6553
6002 6554
6003 6554
6003 6555
6004 6557
6004 6562
6004 6570
6005 6557
6005 6558
6006 6558
6006 6559
6007 6559
6007 6560
6008 6560
6008 6561
6009 6561
6009 6562
6010 6563
6010 6569
6010 6570
6010 6579
6011 6563
6011 6564
6012 6564
6012 6565
6013 6565
6013 6566
6014 6566
6014 6567
6015 6567
6015 6568
6016 6568
6016 6569
6017 6571
6017 6578
6017 6579
6017 6589
6018 6571
6018 6572
6019 6572
6019 6573
6020 6573
6020 6574
6021 6574
6021 6575
6022 6575
6022 6576
6023 6576
6023 6577
6024 6577
6024 6578
6025 6580
6025 6588
6025 6589
6025 6600
6026 6580
6026 6581
6027 6581
6027 6582
6028 6582
6028 6583
6029 6583
6029 6584
6030 6584
6030 6585
6031 6585
6031 6586
6032 6586
6032 6587
6033 6587
6033 6588
6034 6590
6034 6599
6034 6600
6034 6612
6035 6590
6035 6591
6036 6591
6036 6592
6037 6592
6037 6593
6038 6593
6038 6594
6039 6594
6039 6595
6040 6595
6040 6596
6041 6596
6041 6597
6042 6597
6042 6598
6043 6598
6043 6599
6044 6601
6044 6611
6044 6612
6044 6625
6045 6601
6045 6602
6046 6602
6046 6603
6047 6603
6047 6604
6048 6604
6048 6605
6049 6605
6049 6606
6050 6606
6050 6607
6051 6607
6051 6608
6052 6608
6052 6609
6053 6609
6053 6610
6054 6610
6054 6611
6055 6613
6055 6624
6055 6625
6055 6639
6056 6613
6056 6614
6057 6614
6057 6615
6058 6615
6058 6616
6059 6616
6059 6617
6060 6617
6060 6618
6061 6618
6061 6619
6062 6619
6062 6620
6063 6620
6063 6621
6064 6621
6064 6622
6065 6622
6065 6623
6066 6623
6066 6624
6067 6626
6067 6638
6067 6639
6067 16678
6067 16679
6068 6626
6068 6627
6069 6627
6069 6628
6070 6628
6070 6629
6071 6629
6071 6630
6072 6630
6072 6631
6073 6631
6073 6632
6074 6632
6074 6633
6075 6633
6075 6634
6076 6634
6076 6635
6077 6635
6077 6636
6078 6636
6078 6637
6079 6637
6079 6638
6080 6640
6080 6645
6080 6653
6081 6640
6081 6641
6082 6641
6082 6642
6083 6642
6083 6643
6084 6643
6084 6644
6085 6644
6085 6645
6086 6646
6086 6652
6086 6653
6086 6662
6087 6646
6087 6647
6088 6647
6088 6648
6089 6648
6089 6649
6090 6649
6090 6650
6091 6650
6091 6651
6092 6651
6092 6652
6093 6654
6093 6661
6093 6662
6093 6672
6094 6654
6094 6655
6095 6655
6095 6656
6096 6656
6096 6657
6097 6657
6097 6658
6098 6658
6098 6659
6099 6659
6099 6660
6100 6660
6100 6661
6101 6663
6101 6671
6101 6672
6101 6683
6102 6663
6102 6664
6103 6664
6103 6665
6104 6665
6104 6666
6105 6666
6105 6667
6106 6667
6106 6668
6107 6668
6107 6669
6108 6669
6108 6670
6109 6670
6109 6671
6110 6673
6110 6682
6110 6683
6110 6695
6111 6673
6111 6674
6112 6674
6112 6675
6113 6675
6113 6676
6114 6676
6114 6677
6115 6677
6115 6678
6116 6678
6116 6679
6117 6679
6117 6680
6118 6680
6118 6681
6119 6681
6119 6682
6120 6684
6120 6694
6120 6695
6120 6708
6121 6684
6121 6685
6122 6685
6122 6686
6123 6686
6123 6687
6124 6687
6124 6688
6125 6688
6125 6689
6126 6689
6126 6690
6127 6690
6127 6691
6128 6691
6128 6692
6129 6692
6129 6693
6130 6693
6130 6694
6131 6696
6131 6707
6131 6708
6131 6722
6132 6696
6132 6697
6133 6697
6133 6698
6134 6698
6134 6699
6135 6699
6135 6700
6136 6700
6136 6701
6137 6701
6137 6702
6138 6702
6138 6703
6139 6703
6139 6704
6140 6704
6140 6705
6141 6705
6141 6706
6142 6706
6142 6707
6143 6709
6143 6721
6143 6722
6143 16679
6143 16680
6144 6709
6144 6710
6145 6710
6145 6711
6146 6711
6146 6712
6147 6712
6147 6713
6148 6713
6148 6714
6149 6714
6149 6715
6150 6715
6150 6716
6151 6716
6151 6717
6152 6717
6152 6718
6153 6718
6153 6719
6154 6719
6154 6720
6155 6720
6155 6721
6156 6723
6156 6728
6156 6736
6157 6723
6157 6724
6158 6724
6158 6725
6159 6725
6159 6726
6160 6726
6160 6727
6161 6727
6161 6728
6162 6729
6162 6735
6162 6736
6162 6745
6163 6729
6163 6730
6164 6730
6164 6731
6165 6731
6165 6732
6166 6732
6166 6733
6167 6733
6167 6734
6168 6734
6168 6735
6169 6737
6169 6744
6169 6745
6169 6755
6170 6737
6170 6738
6171 6738
6171 6739
6172 6739
6172 6740
6173 6740
6173 6741
6174 6741
6174 6742
6175 6742
6175 6743
6176 6743
6176 6744
6177 6746
6177 6754
6177 6755
6177 6766
6178 6746
6178 6747
6179 6747
6179 6748
6180 6748
6180 6749
6181 6749
6181 6750
6182 6750
6182 6751
6183 6751
6183 6752
6184 6752
6184 6753
6185 6753
6185 6754
6186 6756
6186 6765
6186 6766
6186 6778
6187 6756
6187 6757
6188 6757
6188 6758
6189 6758
6189 6759
6190 6759
6190 6760
6191 6760
6191 6761
6192 6761
6192 6762
6193 6762
6193 6763
6194 6763
6194 6764
6195 6764
6195 6765
6196 6767
6196 6777
6196 6778
6196 6791
6197 6767
6197 6768
6198 6768
6198 6769
6199 6769
6199 6770
6200 6770
6200 6771
6201 6771
6201 6772
6202 6772
6202 6773
6203 6773
6203 6774
6204 6774
6204 6775
6205 6775
6205 6776
6206 6776
6206 6777
6207 6779
6207 6790
6207 6791
6207 6805
6208 6779
6208 6780
6209 6780
6209 6781
6210 6781
6210 6782
6211 6782
6211 6783
6212 6783
6212 6784
6213 6784
6213 6785
6214 6785
6214 6786
6215 6786
6215 6787
6216 6787
6216 6788
6217 6788
6217 6789
6218 6789
6218 6790
6219 6792
6219 6804
6219 6805
6219 16680
6219 16681
6220 6792
6220 6793
6221 6793
6221 6794
6222 6794
6222 6795
6223 6795
6223 6796
6224 6796
6224 6797
6225 6797
6225 6798
6226 6798
6226 6799
6227 6799
6227 6800
6228 6800
6228 6801
6229 6801
6229 6802
6230 6802
6230 6803
6231 6803
6231 6804
6232 6806
6232 6811
6232 6819
6233 6806
6233 6807
6234 6807
6234 6808
6235 6808
6235 6809
6236 6809
6236 6810
6237 6810
6237 6811
6238 6812
6238 6818
6238 6819
6238 6828
6239 6812
6239 6813
6240 6813
6240 6814
6241 6814
6241 6815
6242 6815
6242 6816
6243 6816
6243 6817
6244 6817
6244 6818
6245 6820
6245 6827
6245 6828
6245 6838
6246 6820
6246 6821
6247 6821
6247 6822
6248 6822
6248 6823
6249 6823
6249 6824
6250 6824
6250 6825
6251 6825
6251 6826
6252 6826
6252 6827
6253 6829
6253 6837
6253 6838
6253 6849
6254 6829
6254 6830
6255 6830
6255 6831
6256 6831
6256 6832
6257 6832
6257 6833
6258 6833
6258 6834
6259 6834
6259 6835
6260 6835
6260 6836
6261 6836
6261 6837
6262 6839
6262 6848
6262 6849
6262 6861
6263 6839
6263 6840
6264 6840
6264 6841
6265 6841
6265 6842
6266 6842
6266 6843
6267 6843
6267 6844
6268 6844
6268 6845
6269 6845
6269 6846
6270 6846
6270 6847
6271 6847
6271 6848
6272 6850
6272 6860
6272 6861
6272 6874
6273 6850
6273 6851
6274 6851
6274 6852
6275 6852
6275 6853
6276 6853
6276 6854
6277 6854
6277 6855
6278 6855
6278 6856
6279 6856
6279 6857
6280 6857
6280 6858
6281 6858
6281 6859
6282 6859
6282 6860
6283 6862
6283 6873
6283 6874
6283 6888
6284 6862
6284 6863
6285 6863
6285 6864
6286 6864
6286 6865
6287 6865
6287 6866
6288 6866
6288 6867
6289 6867
6289 6868
6290 6868
6290 6869
6291 6869
6291 6870
6292 6870
6292 6871
6293 6871
6293 6872
6294 6872
6294 6873
6295 6875
6295 6887
6295 6888
6295 16681
6295 16682
6296 6875
6296 6876
6297 6876
6297 6877
6298 6877
6298 6878
6299 6878
6299 6879
6300 6879
6300 6880
6301 6880
6301 6881
6302 6881
6302 6882
6303 6882
6303 6883
6304 6883
6304 6884
6305 6884
6305 6885
6306 6885
6306 6886
6307 6886
6307 6887
6308 6889
6308 6894
6308 6902
6309 6889
6309 6890
6310 6890
6310 6891
6311 6891
6311 6892
6312 6892
6312 6893
6313 6893
6313 6894
6314 6895
6314 6901
6314 6902
6314 6911
6315 6895
6315 6896
6316 6896
6316 6897
6317 6897
6317 6898
6318 6898
6318 6899
6319 6899
6319 6900
6320 6900
6320 6901
6321 6903
6321 6910
6321 6911
6321 6921
6322 6903
6322 6904
6323 6904
6323 6905
6324 6905
6324 6906
6325 6906
6325 6907
6326 6907
6326 6908
6327 6908
6327 6909
6328 6909
6328 6910
6329 6912
6329 6920
6329 6921
6329 6932
6330 6912
6330 6913
6331 6913
6331 6914
6332 6914
6332 6915
6333 6915
6333 6916
6334 6916
6334 6917
6335 6917
6335 6918
6336 6918
6336 6919
6337 6919
6337 6920
6338 6922
6338 6931
6338 6932
6338 6944
6339 6922
6339 6923
6340 6923
6340 6924
6341 6924
6341 6925
6342 6925
6342 6926
6343 6926
6343 6927
6344 6927
6344 6928
6345 6928
6345 6929
6346 6929
6346 6930
6347 6930
6347 6931
6348 6933
6348 6943
6348 6944
6348 6957
6349 6933
6349 6934
6350 6934
6350 6935
6351 6935
6351 6936
6352 6936
6352 6937
6353 6937
6353 6938
6354 6938
6354 6939
6355 6939
6355 6940
6356 6940
6356 6941
6357 6941
6357 6942
6358 6942
6358 6943
6359 6945
6359 6956
6359 6957
6359 6971
6360 6945
6360 6946
6361 6946
6361 6947
6362 6947
6362 6948
6363 6948
6363 6949
6364 6949
6364 6950
6365 6950
6365 6951
6366 6951
6366 6952
6367 6952
6367 6953
6368 6953
6368 6954
6369 6954
6369 6955
6370 6955
6370 6956
6371 6958
6371 6970
6371 6971
6371 16682
6371 16683
6372 6958
6372 6959
6373 6959
6373 6960
6374 6960
6374 6961
6375 6961
6375 6962
6376 6962
6376 6963
6377 6963
6377 6964
6378 6964
6378 6965
6379 6965
6379 6966
6380 6966
6380 6967
6381 6967
6381 6968
6382 6968
6382 6969
6383 6969
6383 6970
6384 6972
6384 6977
6384 6985
6385 6972
6385 6973
6386 6973
6386 6974
6387 6974
6387 6975
6388 6975
6388 6976
6389 6976
6389 6977
6390 6978
6390 6984
6390 6985
6390 6994
6391 6978
6391 6979
6392 6979
6392 6980
6393 6980
6393 6981
6394 6981
6394 6982
6395 6982
6395 6983
6396 6983
6396 6984
6397 6986
6397 6993
6397 6994
6397 7004
6398 6986
6398 6987
6399 6987
6399 6988
6400 6988
6400 6989
6401 6989
6401 6990
6402 6990
6402 6991
6403 6991
6403 6992
6404 6992
6404 6993
6405 6995
6405 7003
6405 7004
6405 7015
6406 6995
6406 6996
6407 6996
6407 6997
6408 6997
6408 6998
6409 6998
6409 6999
6410 6999
6410 7000
6411 7000
6411 7001
6412 7001
6412 7002
6413 7002
6413 7003
6414 7005
6414 7014
6414 7015
6414 7027
6415 7005
6415 7006
6416 7006
6416 7007
6417 7007
6417 7008
6418 7008
6418 7009
6419 7009
6419 7010
6420 7010
6420 7011
6421 7011
6421 7012
6422 7012
6422 7013
6423 7013
6423 7014
6424 7016
6424 7026
6424 7027
6424 7040
6425 7016
6425 7017
6426 7017
6426 7018
6427 7018
6427 7019
6428 7019
6428 7020
6429 7020
6429 7021
6430 7021
6430 7022
6431 7022
6431 7023
6432 7023
6432 7024
6433 7024
6433 7025
6434 7025
6434 7026
6435 7028
6435 7039
6435 7040
6435 7054
6436 7028
6436 7029
6437 7029
6437 7030
6438 7030
6438 7031
6439 7031
6439 7032
6440 7032
6440 7033
6441 7033
6441 7034
6442 7034
6442 7035
6443 7035
6443 7036
6444 7036
6444 7037
6445 7037
6445 7038
6446 7038
6446 7039
6447 7041
6447 7053
6447 7054
6447 16683
6447 16684
6448 7041
6448 7042
6449 7042
6449 7043
6450 7043
6450 7044
6451 7044
6451 7045
6452 7045
6452 7046
6453 7046
6453 7047
6454 7047
6454 7048
6455 7048
6455 7049
6456 7049
6456 7050
6457 7050
6457 7051
6458 7051
6458 7052
6459 7052
6459 7053
6460 7055
6460 7060
6460 7068
6461 7055
6461 7056
6462 7056
6462 7057
6463 7057
6463 7058
6464 7058
6464 7059
6465 7059
6465 7060
6466 7061
6466 7067
6466 7068
6466 7077
6467 7061
6467 7062
6468 7062
6468 7063
6469 7063
6469 7064
6470 7064
6470 7065
6471 7065
6471 7066
6472 7066
6472 7067
6473 7069
6473 7076
6473 7077
6473 7087
6474 7069
6474 7070
6475 7070
6475 7071
6476 7071
6476 7072
6477 7072
6477 7073
6478 7073
6478 7074
6479 7074
6479 7075
6480 7075
6480 7076
6481 7078
6481 7086
6481 7087
6481 7098
6482 7078
6482 7079
6483 7079
6483 7080
6484 7080
6484 7081
6485 7081
6485 7082
6486 7082
6486 7083
6487 7083
6487 7084
6488 7084
6488 7085
6489 7085
6489 7086
6490 7088
6490 7097
6490 7098
6490 7110
6491 7088
6491 7089
6492 7089
6492 7090
6493 7090
6493 7091
6494 7091
6494 7092
6495 7092
6495 7093
6496 7093
6496 7094
6497 7094
6497 7095
6498 7095
6498 7096
6499 7096
6499 7097
6500 7099
6500 7109
6500 7110
6500 7123
6501 7099
6501 7100
6502 7100
6502 7101
6503 7101
6503 7102
6504 7102
6504 7103
6505 7103
6505 7104
6506 7104
6506 7105
6507 7105
6507 7106
6508 7106
6508 7107
6509 7107
6509 7108
6510 7108
6510 7109
6511 7111
6511 7122
6511 7123
6511 7137
6512 7111
6512 7112
6513 7112
6513 7113
6514 7113
6514 7114
6515 7114
6515 7115
6516 7115
6516 7116
6517 7116
6517 7117
6518 7117
6518 7118
6519 7118
6519 7119
6520 7119
6520 7120
6521 7120
6521 7121
6522 7121
6522 7122
6523 7124
6523 7136
6523 7137
6523 16684
6523 16685
6524 7124
6524 7125
6525 7125
6525 7126
6526 7126
6526 7127
6527 7127
6527 7128
6528 7128
6528 7129
6529 7129
6529 7130
6530 7130
6530 7131
6531 7131
6531 7132
6532 7132
6532 7133
6533 7133
6533 7134
6534 7134
6534 7135
6535 7135
6535 7136
6536 7138
6536 7143
6536 7151
6537 7138
6537 7139
6538 7139
6538 7140
6539 7140
6539 7141
6540 7141
6540 7142
6541 7142
6541 7143
6542 7144
6542 7150
6542 7151
6542 7160
6543 7144
6543 7145
6544 7145
6544 7146
6545 7146
6545 7147
6546 7147
6546 7148
6547 7148
6547 7149
6548 7149
6548 7150
6549 7152
6549 7159
6549 7160
6549 7170
6550 7152
6550 7153
6551 7153
6551 7154
6552 7154
6552 7155
6553 7155
6553 7156
6554 7156
6554 7157
6555 7157
6555 7158
6556 7158
6556 7159
6557 7161
6557 7169
6557 7170
6557 7181
6558 7161
6558 7162
6559 7162
6559 7163
6560 7163
6560 7164
6561 7164
6561 7165
6562 7165
6562 7166
6563 7166
6563 7167
6564 7167
6564 7168
6565 7168
6565 7169
6566 7171
6566 7180
6566 7181
6566 7193
6567 7171
6567 7172
6568 7172
6568 7173
6569 7173
6569 7174
6570 7174
6570 7175
6571 7175
6571 7176
6572 7176
6572 7177
6573 7177
6573 7178
6574 7178
6574 7179
6575 7179
6575 7180
6576 7182
6576 7192
6576 7193
6576 7206
6577 7182
6577 7183
6578 7183
6578 7184
6579 7184
6579 7185
6580 7185
6580 7186
6581 7186
6581 7187
6582 7187
6582 7188
6583 7188
6583 7189
6584 7189
6584 7190
6585 7190
6585 7191
6586 7191
6586 7192
6587 7194
6587 7205
6587 7206
6587 7220
6588 7194
6588 7195
6589 7195
6589 7196
6590 7196
6590 7197
6591 7197
6591 7198
6592 7198
6592 7199
6593 7199
6593 7200
6594 7200
6594 7201
6595 7201
6595 7202
6596 7202
6596 7203
6597 7203
6597 7204
6598 7204
6598 7205
6599 7207
6599 7219
6599 7220
6599 16685
6599 16686
6600 7207
6600 7208
6601 7208
6601 7209
6602 7209
6602 7210
6603 7210
6603 7211
6604 7211
6604 7212
6605 7212
6605 7213
6606 7213
6606 7214
6607 7214
6607 7215
6608 7215
6608 7216
6609 7216
6609 7217
6610 7217
6610 7218
6611 7218
6611 7219
6612 7221
6612 7226
6612 7234
6613 7221
6613 7222
6614 7222
6614 7223
6615 7223
6615 7224
6616 7224
6616 7225
6617 7225
6617 7226
6618 7227
6618 7233
6618 7234
6618 7243
6619 7227
6619 7228
6620 7228
6620 7229
6621 7229
6621 7230
6622 7230
6622 7231
6623 7231
6623 7232
6624 7232
6624 7233
6625 7235
6625 7242
6625 7243
6625 7253
6626 7235
6626 7236
6627 7236
6627 7237
6628 7237
6628 7238
6629 7238
6629 7239
6630 7239
6630 7240
6631 7240
6631 7241
6632 7241
6632 7242
6633 7244
6633 7252
6633 7253
6633 7264
6634 7244
6634 7245
6635 7245
6635 7246
6636 7246
6636 7247
6637 7247
6637 7248
6638 7248
6638 7249
6639 7249
6639 7250
6640 7250
6640 7251
6641 7251
6641 7252
6642 7254
6642 7263
6642 7264
6642 7276
6643 7254
6643 7255
6644 7255
6644 7256
6645 7256
6645 7257
6646 7257
6646 7258
6647 7258
6647 7259
6648 7259
6648 7260
6649 7260
6649 7261
6650 7261
6650 7262
6651 7262
6651 7263
6652 7265
6652 7275
6652 7276
6652 7289
6653 7265
6653 7266
6654 7266
6654 7267
6655 7267
6655 7268
6656 7268
6656 7269
6657 7269
6657 7270
6658 7270
6658 7271
6659 7271
6659 7272
6660 7272
6660 7273
6661 7273
6661 7274
6662 7274
6662 7275
6663 7277
6663 7288
6663 7289
6663 7303
6664 7277
6664 7278
6665 7278
6665 7279
6666 7279
6666 7280
6667 7280
6667 7281
6668 7281
6668 7282
6669 7282
6669 7283
6670 7283
6670 7284
6671 7284
6671 7285
6672 7285
6672 7286
6673 7286
6673 7287
6674 7287
6674 7288
6675 7290
6675 7302
6675 7303
6675 16686
6675 16687
6676 7290
6676 7291
6677 7291
6677 7292
6678 7292
6678 7293
6679 7293
6679 7294
6680 7294
6680 7295
6681 7295
6681 7296
6682 7296
6682 7297
6683 7297
6683 7298
6684 7298
6684 7299
6685 7299
6685 7300
6686 7300
6686 7301
6687 7301
6687 7302
6688 7304
6688 7309
6688 7317
6689 7304
6689 7305
6690 7305
6690 7306
6691 7306
6691 7307
6692 7307
6692 7308
6693 7308
6693 7309
6694 7310
6694 7316
6694 7317
6694 7326
6695 7310
6695 7311
6696 7311
6696 7312
6697 7312
6697 7313
6698 7313
6698 7314
6699 7314
6699 7315
6700 7315
6700 7316
6701 7318
6701 7325
6701 7326
6701 7336
6702 7318
6702 7319
6703 7319
6703 7320
6704 7320
6704 7321
6705 7321
6705 7322
6706 7322
6706 7323
6707 7323
6707 7324
6708 7324
6708 7325
6709 7327
6709 7335
6709 7336
6709 7347
6710 7327
6710 7328
6711 7328
6711 7329
6712 7329
6712 7330
6713 7330
6713 7331
6714 7331
6714 7332
6715 7332
6715 7333
6716 7333
6716 7334
6717 7334
6717 7335
6718 7337
6718 7346
6718 7347
6718 7359
6719 7337
6719 7338
6720 7338
6720 7339
6721 7339
6721 7340
6722 7340
6722 7341
6723 7341
6723 7342
6724 7342
6724 7343
6725 7343
6725 7344
6726 7344
6726 7345
6727 7345
6727 7346
6728 7348
6728 7358
6728 7359
6728 7372
6729 7348
6729 7349
6730 7349
6730 7350
6731 7350
6731 7351
6732 7351
6732 7352
6733 7352
6733 7353
6734 7353
6734 7354
6735 7354
6735 7355
6736 7355
6736 7356
6737 7356
6737 7357
6738 7357
6738 7358
6739 7360
6739 7371
6739 7372
6739 7386
6740 7360
6740 7361
6741 7361
6741 7362
6742 7362
6742 7363
6743 7363
6743 7364
6744 7364
6744 7365
6745 7365
6745 7366
6746 7366
6746 7367
6747 7367
6747 7368
6748 7368
6748 7369
6749 7369
6749 7370
6750 7370
6750 7371
6751 7373
6751 7385
6751 7386
6751 16687
6751 16688
6752 7373
6752 7374
6753 7374
6753 7375
6754 7375
6754 7376
6755 7376
6755 7377
6756 7377
6756 7378
6757 7378
6757 7379
6758 7379
6758 7380
6759 7380
6759 7381
6760 7381
6760 7382
6761 7382
6761 7383
6762 7383
6762 7384
6763 7384
6763 7385
6764 7387
6764 7392
6764 7400
6765 7387
6765 7388
6766 7388
6766 7389
6767 7389
6767 7390
6768 7390
6768 7391
6769 7391
6769 7392
6770 7393
6770 7399
6770 7400
6770 7409
6771 7393
6771 7394
6772 7394
6772 7395
6773 7395
6773 7396
6774 7396
6774 7397
6775 7397
6775 7398
6776 7398
6776 7399
6777 7401
6777 7408
6777 7409
6777 7419
6778 7401
6778 7402
6779 7402
6779 7403
6780 7403
6780 7404
6781 7404
6781 7405
6782 7405
6782 7406
6783 7406
6783 7407
6784 7407
6784 7408
6785 7410
6785 7418
6785 7419
6785 7430
6786 7410
6786 7411
6787 7411
6787 7412
6788 7412
6788 7413
6789 7413
6789 7414
6790 7414
6790 7415
6791 7415
6791 7416
6792 7416
6792 7417
6793 7417
6793 7418
6794 7420
6794 7429
6794 7430
6794 7442
6795 7420
6795 7421
6796 7421
6796 7422
6797 7422
6797 7423
6798 7423
6798 7424
6799 7424
6799 7425
6800 7425
6800 7426
6801 7426
6801 7427
6802 7427
6802 7428
6803 7428
6803 7429
6804 7431
6804 7441
6804 7442
6804 7455
6805 7431
6805 7432
6806 7432
6806 7433
6807 7433
6807 7434
6808 7434
6808 7435
6809 7435
6809 7436
6810 7436
6810 7437
6811 7437
6811 7438
6812 7438
6812 7439
6813 7439
6813 7440
6814 7440
6814 7441
6815 7443
6815 7454
6815 7455
6815 7469
6816 7443
6816 7444
6817 7444
6817 7445
6818 7445
6818 7446
6819 7446
6819 7447
6820 7447
6820 7448
6821 7448
6821 7449
6822 7449
6822 7450
6823 7450
6823 7451
6824 7451
6824 7452
6825 7452
6825 7453
6826 7453
6826 7454
6827 7456
6827 7468
6827 7469
6827 16688
6827 16689
6828 7456
6828 7457
6829 7457
6829 7458
6830 7458
6830 7459
6831 7459
6831 7460
6832 7460
6832 7461
6833 7461
6833 7462
6834 7462
6834 7463
6835 7463
6835 7464
6836 7464
6836 7465
6837 7465
6837 7466
6838 7466
6838 7467
6839 7467
6839 7468
6840 7470
6840 7475
6840 7483
6841 7470
6841 7471
6842 7471
6842 7472
6843 7472
6843 7473
6844 7473
6844 7474
6845 7474
6845 7475
6846 7476
6846 7482
6846 7483
6846 7492
6847 7476
6847 7477
6848 7477
6848 7478
6849 7478
6849 7479
6850 7479
6850 7480
6851 7480
6851 7481
6852 7481
6852 7482
6853 7484
6853 7491
6853 7492
6853 7502
6854 7484
6854 7485
6855 7485
6855 7486
6856 7486
6856 7487
6857 7487
6857 7488
6858 7488
6858 7489
6859 7489
6859 7490
6860 7490
6860 7491
6861 7493
6861 7501
6861 7502
6861 7513
6862 7493
6862 7494
6863 7494
6863 7495
6864 7495
6864 7496
6865 7496
6865 7497
6866 7497
6866 7498
6867 7498
6867 7499
6868 7499
6868 7500
6869 7500
6869 7501
6870 7503
6870 7512
6870 7513
6870 7525
6871 7503
6871 7504
6872 7504
6872 7505
6873 7505
6873 7506
6874 7506
6874 7507
6875 7507
6875 7508
6876 7508
6876 7509
6877 7509
6877 7510
6878 7510
6878 7511
6879 7511
6879 7512
6880 7514
6880 7524
6880 7525
6880 7538
6881 7514
6881 7515
6882 7515
6882 7516
6883 7516
6883 7517
6884 7517
6884 7518
6885 7518
6885 7519
6886 7519
6886 7520
6887 7520
6887 7521
6888 7521
6888 7522
6889 7522
6889 7523
6890 7523
6890 7524
6891 7526
6891 7537
6891 7538
6891 7552
6892 7526
6892 7527
6893 7527
6893 7528
6894 7528
6894 7529
6895 7529
6895 7530
6896 7530
6896 7531
6897 7531
6897 7532
6898 7532
6898 7533
6899 7533
6899 7534
6900 7534
6900 7535
6901 7535
6901 7536
6902 7536
6902 7537
6903 7539
6903 7551
6903 7552
6903 16689
6903 16690
6904 7539
6904 7540
6905 7540
6905 7541
6906 7541
6906 7542
6907 7542
6907 7543
6908 7543
6908 7544
6909 7544
6909 7545
6910 7545
6910 7546
6911 7546
6911 7547
6912 7547
6912 7548
6913 7548
6913 7549
6914 7549
6914 7550
6915 7550
6915 7551
6916 7553
6916 7558
6916 7566
6917 7553
6917 7554
6918 7554
6918 7555
6919 7555
6919 7556
6920 7556
6920 7557
6921 7557
6921 7558
6922 7559
6922 7565
6922 7566
6922 7575
6923 7559
6923 7560
6924 7560
6924 7561
6925 7561
6925 7562
6926 7562
6926 7563
6927 7563
6927 7564
6928 7564
6928 7565
6929 7567
6929 7574
6929 7575
6929 7585
6930 7567
6930 7568
6931 7568
6931 7569
6932 7569
6932 7570
6933 7570
6933 7571
6934 7571
6934 7572
6935 7572
6935 7573
6936 7573
6936 7574
6937 7576
6937 7584
6937 7585
6937 7596
6938 7576
6938 7577
6939 7577
6939 7578
6940 7578
6940 7579
6941 7579
6941 7580
6942 7580
6942 7581
6943 7581
6943 7582
6944 7582
6944 7583
6945 7583
6945 7584
6946 7586
6946 7595
6946 7596
6946 7608
6947 7586
6947 7587
6948 7587
6948 7588
6949 7588
6949 7589
6950 7589
6950 7590
6951 7590
6951 7591
6952 7591
6952 7592
6953 7592
6953 7593
6954 7593
6954 7594
6955 7594
6955 7595
6956 7597
6956 7607
6956 7608
6956 7621
6957 7597
6957 7598
6958 7598
6958 7599
6959 7599
6959 7600
6960 7600
6960 7601
6961 7601
6961 7602
6962 7602
6962 7603
6963 7603
6963 7604
6964 7604
6964 7605
6965 7605
6965 7606
6966 7606
6966 7607
6967 7609
6967 7620
6967 7621
6967 7635
6968 7609
6968 7610
6969 7610
6969 7611
6970 7611
6970 7612
6971 7612
6971 7613
6972 7613
6972 7614
6973 7614
6973 7615
6974 7615
6974 7616
6975 7616
6975 7617
6976 7617
6976 7618
6977 7618
6977 7619
6978 7619
6978 7620
6979 7622
6979 7634
6979 7635
6979 16690
6979 16691
6980 7622
6980 7623
6981 7623
6981 7624
6982 7624
6982 7625
6983 7625
6983 7626
6984 7626
6984 7627
6985 7627
6985 7628
6986 7628
6986 7629
6987 7629
6987 7630
6988 7630
6988 7631
6989 7631
6989 7632
6990 7632
6990 7633
6991 7633
6991 7634
6992 7636
6992 7641
6992 7649
6993 7636
6993 7637
6994 7637
6994 7638
6995 7638
6995 7639
6996 7639
6996 7640
6997 7640
6997 7641
6998 7642
6998 7648
6998 7649
6998 7658
6999 7642
6999 7643
7000 7643
7000 7644
7001 7644
7001 7645
7002 7645
7002 7646
7003 7646
7003 7647
7004 7647
7004 7648
7005 7650
7005 7657
7005 7658
7005 7668
7006 7650
7006 7651
7007 7651
7007 7652
7008 7652
7008 7653
7009 7653
7009 7654
7010 7654
7010 7655
7011 7655
7011 7656
7012 7656
7012 7657
7013 7659
7013 7667
7013 7668
7013 7679
7014 7659
7014 7660
7015 7660
7015 7661
7016 7661
7016 7662
7017 7662
7017 7663
7018 7663
7018 7664
7019 7664
7019 7665
7020 7665
7020 7666
7021 7666
7021 7667
7022 7669
7022 7678
7022 7679
7022 7691
7023 7669
7023 7670
7024 7670
7024 7671
7025 7671
7025 7672
7026 7672
7026 7673
7027 7673
7027 7674
7028 7674
7028 7675
7029 7675
7029 7676
7030 7676
7030 7677
7031 7677
7031 7678
7032 7680
7032 7690
7032 7691
7032 7704
7033 7680
7033 7681
7034 7681
7034 7682
7035 7682
7035 7683
7036 7683
7036 7684
7037 7684
7037 7685
7038 7685
7038 7686
7039 7686
7039 7687
7040 7687
7040 7688
7041 7688
7041 7689
7042 7689
7042 7690
7043 7692
7043 7703
7043 7704
7043 7718
7044 7692
7044 7693
7045 7693
7045 7694
7046 7694
7046 7695
7047 7695
7047 7696
7048 7696
7048 7697
7049 7697
7049 7698
7050 7698
7050 7699
7051 7699
7051 7700
7052 7700
7052 7701
7053 7701
7053 7702
7054 7702
7054 7703
7055 7705
7055 7717
7055 7718
7055 16691
7055 16692
7056 7705
7056 7706
7057 7706
7057 7707
7058 7707
7058 7708
7059 7708
7059 7709
7060 7709
7060 7710
7061 7710
7061 7711
7062 7711
7062 7712
7063 7712
7063 7713
7064 7713
7064 7714
7065 7714
7065 7715
7066 7715
7066 7716
7067 7716
7067 7717
7068 7719
7068 7724
7068 7732
7069 7719
7069 7720
7070 7720
7070 7721
7071 7721
7071 7722
7072 7722
7072 7723
7073 7723
7073 7724
7074 7725
7074 7731
7074 7732
7074 7741
7075 7725
7075 7726
7076 7726
7076 7727
7077 7727
7077 7728
7078 7728
7078 7729
7079 7729
7079 7730
7080 7730
7080 7731
7081 7733
7081 7740
7081 7741
7081 7751
7082 7733
7082 7734
7083 7734
7083 7735
7084 7735
7084 7736
7085 7736
7085 7737
7086 7737
7086 7738
7087 7738
7087 7739
7088 7739
7088 7740
7089 7742
7089 7750
7089 7751
7089 7762
7090 7742
7090 7743
7091 7743
7091 7744
7092 7744
7092 7745
7093 7745
7093 7746
7094 7746
7094 7747
7095 7747
7095 7748
7096 7748
7096 7749
7097 7749
7097 7750
7098 7752
7098 7761
7098 7762
7098 7774
7099 7752
7099 7753
7100 7753
7100 7754
7101 7754
7101 7755
7102 7755
7102 7756
7103 7756
7103 7757
7104 7757
7104 7758
7105 7758
7105 7759
7106 7759
7106 7760
7107 7760
7107 7761
7108 7763
7108 7773
7108 7774
7108 7787
7109 7763
7109 7764
7110 7764
7110 7765
7111 7765
7111 7766
7112 7766
7112 7767
7113 7767
7113 7768
7114 7768
7114 7769
7115 7769
7115 7770
7116 7770
7116 7771
7117 7771
7117 7772
7118 7772
7118 7773
7119 7775
7119 7786
7119 7787
7119 7801
7120 7775
7120 7776
7121 7776
7121 7777
7122 7777
7122 7778
7123 7778
7123 7779
7124 7779
7124 7780
7125 7780
7125 7781
7126 7781
7126 7782
7127 7782
7127 7783
7128 7783
7128 7784
7129 7784
7129 7785
7130 7785
7130 7786
7131 7788
7131 7800
7131 7801
7131 16692
7131 16693
7132 7788
7132 7789
7133 7789
7133 7790
7134 7790
7134 7791
7135 7791
7135 7792
7136 7792
7136 7793
7137 7793
7137 7794
7138 7794
7138 7795
7139 7795
7139 7796
7140 7796
7140 7797
7141 7797
7141 7798
7142 7798
7142 7799
7143 7799
7143 7800
7144 7802
7144 7807
7144 7815
7145 7802
7145 7803
7146 7803
7146 7804
7147 7804
7147 7805
7148 7805
7148 7806
7149 7806
7149 7807
7150 7808
7150 7814
7150 7815
7150 7824
7151 7808
7151 7809
7152 7809
7152 7810
7153 7810
7153 7811
7154 7811
7154 7812
7155 7812
7155 7813
7156 7813
7156 7814
7157 7816
7157 7823
7157 7824
7157 7834
7158 7816
7158 7817
7159 7817
7159 7818
7160 7818
7160 7819
7161 7819
7161 7820
7162 7820
7162 7821
7163 7821
7163 7822
7164 7822
7164 7823
7165 7825
7165 7833
7165 7834
7165 7845
7166 7825
7166 7826
7167 7826
7167 7827
7168 7827
7168 7828
7169 7828
7169 7829
7170 7829
7170 7830
7171 7830
7171 7831
7172 7831
7172 7832
7173 7832
7173 7833
7174 7835
7174 7844
7174 7845
7174 7857
7175 7835
7175 7836
7176 7836
7176 7837
7177 7837
7177 7838
7178 7838
7178 7839
7179 7839
7179 7840
7180 7840
7180 7841
7181 7841
7181 7842
7182 7842
7182 7843
7183 7843
7183 7844
7184 7846
7184 7856
7184 7857
7184 7870
7185 7846
7185 7847
7186 7847
7186 7848
7187 7848
7187 7849
7188 7849
7188 7850
7189 7850
7189 7851
7190 7851
7190 7852
7191 7852
7191 7853
7192 7853
7192 7854
7193 7854
7193 7855
7194 7855
7194 7856
7195 7858
7195 7869
7195 7870
7195 7884
7196 7858
7196 7859
7197 7859
7197 7860
7198 7860
7198 7861
7199 7861
7199 7862
7200 7862
7200 7863
7201 7863
7201 7864
7202 7864
7202 7865
7203 7865
7203 7866
7204 7866
7204 7867
7205 7867
7205 7868
7206 7868
7206 7869
7207 7871
7207 7883
7207 7884
7207 16693
7207 16694
7208 7871
7208 7872
7209 7872
7209 7873
7210 7873
7210 7874
7211 7874
7211 7875
7212 7875
7212 7876
7213 7876
7213 7877
7214 7877
7214 7878
7215 7878
7215 7879
7216 7879
7216 7880
7217 7880
7217 7881
7218 7881
7218 7882
7219 7882
7219 7883
7220 7885
7220 7890
7220 7898
7221 7885
7221 7886
7222 7886
7222 7887
7223 7887
7223 7888
7224 7888
7224 7889
7225 7889
7225 7890
7226 7891
7226 7897
7226 7898
7226 7907
7227 7891
7227 7892
7228 7892
7228 7893
7229 7893
7229 7894
7230 7894
7230 7895
7231 7895
7231 7896
7232 7896
7232 7897
7233 7899
7233 7906
7233 7907
7233 7917
7234 7899
7234 7900
7235 7900
7235 7901
7236 7901
7236 7902
7237 7902
7237 7903
7238 7903
7238 7904
7239 7904
7239 7905
7240 7905
7240 7906
7241 7908
7241 7916
7241 7917
7241 7928
7242 7908
7242 7909
7243 7909
7243 7910
7244 7910
7244 7911
7245 7911
7245 7912
7246 7912
7246 7913
7247 7913
7247 7914
7248 7914
7248 7915
7249 7915
7249 7916
7250 7918
7250 7927
7250 7928
7250 7940
7251 7918
7251 7919
7252 7919
7252 7920
7253 7920
7253 7921
7254 7921
7254 7922
7255 7922
7255 7923
7256 7923
7256 7924
7257 7924
7257 7925
7258 7925
7258 7926
7259 7926
7259 7927
7260 7929
7260 7939
7260 7940
7260 7953
7261 7929
7261 7930
7262 7930
7262 7931
7263 7931
7263 7932
7264 7932
7264 7933
7265 7933
7265 7934
7266 7934
7266 7935
7267 7935
7267 7936
7268 7936
7268 7937
7269 7937
7269 7938
7270 7938
7270 7939
7271 7941
7271 7952
7271 7953
7271 7967
7272 7941
7272 7942
7273 7942
7273 7943
7274 7943
7274 7944
7275 7944
7275 7945
7276 7945
7276 7946
7277 7946
7277 7947
7278 7947
7278 7948
7279 7948
7279 7949
7280 7949
7280 7950
7281 7950
7281 7951
7282 7951
7282 7952
7283 7954
7283 7966
7283 7967
7283 16694
7283 16695
7284 7954
7284 7955
7285 7955
7285 7956
7286 7956
7286 7957
7287 7957
7287 7958
7288 7958
7288 7959
7289 7959
7289 7960
7290 7960
7290 7961
7291 7961
7291 7962
7292 7962
7292 7963
7293 7963
7293 7964
7294 7964
7294 7965
7295 7965
7295 7966
7296 7968
7296 7973
7296 7981
7297 7968
7297 7969
7298 7969
7298 7970
7299 7970
7299 7971
7300 7971
7300 7972
7301 7972
7301 7973
7302 7974
7302 7980
7302 7981
7302 7990
7303 7974
7303 7975
7304 7975
7304 7976
7305 7976
7305 7977
7306 7977
7306 7978
7307 7978
7307 7979
7308 7979
7308 7980
7309 7982
7309 7989
7309 7990
7309 8000
7310 7982
7310 7983
7311 7983
7311 7984
7312 7984
7312 7985
7313 7985
7313 7986
7314 7986
7314 7987
7315 7987
7315 7988
7316 7988
7316 7989
7317 7991
7317 7999
7317 8000
7317 8011
7318 7991
7318 7992
7319 7992
7319 7993
7320 7993
7320 7994
7321 7994
7321 7995
7322 7995
7322 7996
7323 7996
7323 7997
7324 7997
7324 7998
7325 7998
7325 7999
7326 8001
7326 8010
7326 8011
7326 8023
7327 8001
7327 8002
7328 8002
7328 8003
7329 8003
7329 8004
7330 8004
7330 8005
7331 8005
7331 8006
7332 8006
7332 8007
7333 8007
7333 8008
7334 8008
7334 8009
7335 8009
7335 8010
7336 8012
7336 8022
7336 8023
7336 8036
7337 8012
7337 8013
7338 8013
7338 8014
7339 8014
7339 8015
7340 8015
7340 8016
7341 8016
7341 8017
7342 8017
7342 8018
7343 8018
7343 8019
7344 8019
7344 8020
7345 8020
7345 8021
7346 8021
7346 8022
7347 8024
7347 8035
7347 8036
7347 8050
7348 8024
7348 8025
7349 8025
7349 8026
7350 8026
7350 8027
7351 8027
7351 8028
7352 8028
7352 8029
7353 8029
7353 8030
7354 8030
7354 8031
7355 8031
7355 8032
7356 8032
7356 8033
7357 8033
7357 8034
7358 8034
7358 8035
7359 8037
7359 8049
7359 8050
7359 16695
7359 16696
7360 8037
7360 8038
7361 8038
7361 8039
7362 8039
7362 8040
7363 8040
7363 8041
7364 8041
7364 8042
7365 8042
7365 8043
7366 8043
7366 8044
7367 8044
7367 8045
7368 8045
7368 8046
7369 8046
7369 8047
7370 8047
7370 8048
7371 8048
7371 8049
7372 8051
7372 8056
7372 8064
7373 8051
7373 8052
7374 8052
7374 8053
7375 8053
7375 8054
7376 8054
7376 8055
7377 8055
7377 8056
7378 8057
7378 8063
7378 8064
7378 8073
7379 8057
7379 8058
7380 8058
7380 8059
7381 8059
7381 8060
7382 8060
7382 8061
7383 8061
7383 8062
7384 8062
7384 8063
7385 8065
7385 8072
7385 8073
7385 8083
7386 8065
7386 8066
7387 8066
7387 8067
7388 8067
7388 8068
7389 8068
7389 8069
7390 8069
7390 8070
7391 8070
7391 8071
7392 8071
7392 8072
7393 8074
7393 8082
7393 8083
7393 8094
7394 8074
7394 8075
7395 8075
7395 8076
7396 8076
7396 8077
7397 8077
7397 8078
7398 8078
7398 8079
7399 8079
7399 8080
7400 8080
7400 8081
7401 8081
7401 8082
7402 8084
7402 8093
7402 8094
7402 8106
7403 8084
7403 8085
7404 8085
7404 8086
7405 8086
7405 8087
7406 8087
7406 8088
7407 8088
7407 8089
7408 8089
7408 8090
7409 8090
7409 8091
7410 8091
7410 8092
7411 8092
7411 8093
7412 8095
7412 8105
7412 8106
7412 8119
7413 8095
7413 8096
7414 8096
7414 8097
7415 8097
7415 8098
7416 8098
7416 8099
7417 8099
7417 8100
7418 8100
7418 8101
7419 8101
7419 8102
7420 8102
7420 8103
7421 8103
7421 8104
7422 8104
7422 8105
7423 8107
7423 8118
7423 8119
7423 8133
7424 8107
7424 8108
7425 8108
7425 8109
7426 8109
7426 8110
7427 8110
7427 8111
7428 8111
7428 8112
7429 8112
7429 8113
7430 8113
7430 8114
7431 8114
7431 8115
7432 8115
7432 8116
7433 8116
7433 8117
7434 8117
7434 8118
7435 8120
7435 8132
7435 8133
7435 16696
7435 16697
7436 8120
7436 8121
7437 8121
7437 8122
7438 8122
7438 8123
7439 8123
7439 8124
7440 8124
7440 8125
7441 8125
7441 8126
7442 8126
7442 8127
7443 8127
7443 8128
7444 8128
7444 8129
7445 8129
7445 8130
7446 8130
7446 8131
7447 8131
7447 8132
7448 8134
7448 8139
7448 8147
7449 8134
7449 8135
7450 8135
7450 8136
7451 8136
7451 8137
7452 8137
7452 8138
7453 8138
7453 8139
7454 8140
7454 8146
7454 8147
7454 8156
7455 8140
7455 8141
7456 8141
7456 8142
7457 8142
7457 8143
7458 8143
7458 8144
7459 8144
7459 8145
7460 8145
7460 8146
7461 8148
7461 8155
7461 8156
7461 8166
7462 8148
7462 8149
7463 8149
7463 8150
7464 8150
7464 8151
7465 8151
7465 8152
7466 8152
7466 8153
7467 8153
7467 8154
7468 8154
7468 8155
7469 8157
7469 8165
7469 8166
7469 8177
7470 8157
7470 8158
7471 8158
7471 8159
7472 8159
7472 8160
7473 8160
7473 8161
7474 8161
7474 8162
7475 8162
7475 8163
7476 8163
7476 8164
7477 8164
7477 8165
7478 8167
7478 8176
7478 8177
7478 8189
7479 8167
7479 8168
7480 8168
7480 8169
7481 8169
7481 8170
7482 8170
7482 8171
7483 8171
7483 8172
7484 8172
7484 8173
7485 8173
7485 8174
7486 8174
7486 8175
7487 8175
7487 8176
7488 8178
7488 8188
7488 8189
7488 8202
7489 8178
7489 8179
7490 8179
7490 8180
7491 8180
7491 8181
7492 8181
7492 8182
7493 8182
7493 8183
7494 8183
7494 8184
7495 8184
7495 8185
7496 8185
7496 8186
7497 8186
7497 8187
7498 8187
7498 8188
7499 8190
7499 8201
7499 8202
7499 8216
7500 8190
7500 8191
7501 8191
7501 8192
7502 8192
7502 8193
7503 8193
7503 8194
7504 8194
7504 8195
7505 8195
7505 8196
7506 8196
7506 8197
7507 8197
7507 8198
7508 8198
7508 8199
7509 8199
7509 8200
7510 8200
7510 8201
7511 8203
7511 8215
7511 8216
7511 16697
7511 16698
7512 8203
7512 8204
7513 8204
7513 8205
7514 8205
7514 8206
7515 8206
7515 8207
7516 8207
7516 8208
7517 8208
7517 8209
7518 8209
7518 8210
7519 8210
7519 8211
7520 8211
7520 8212
7521 8212
7521 8213
7522 8213
7522 8214
7523 8214
7523 8215
7524 8217
7524 8222
7524 8230
7525 8217
7525 8218
7526 8218
7526 8219
7527 8219
7527 8220
7528 8220
7528 8221
7529 8221
7529 8222
7530 8223
7530 8229
7530 8230
7530 8239
7531 8223
7531 8224
7532 8224
7532 8225
7533 8225
7533 8226
7534 8226
7534 8227
7535 8227
7535 8228
7536 8228
7536 8229
7537 8231
7537 8238
7537 8239
7537 8249
7538 8231
7538 8232
7539 8232
7539 8233
7540 8233
7540 8234
7541 8234
7541 8235
7542 8235
7542 8236
7543 8236
7543 8237
7544 8237
7544 8238
7545 8240
7545 8248
7545 8249
7545 8260
7546 8240
7546 8241
7547 8241
7547 8242
7548 8242
7548 8243
7549 8243
7549 8244
7550 8244
7550 8245
7551 8245
7551 8246
7552 8246
7552 8247
7553 8247
7553 8248
7554 8250
7554 8259
7554 8260
7554 8272
7555 8250
7555 8251
7556 8251
7556 8252
7557 8252
7557 8253
7558 8253
7558 8254
7559 8254
7559 8255
7560 8255
7560 8256
7561 8256
7561 8257
7562 8257
7562 8258
7563 8258
7563 8259
7564 8261
7564 8271
7564 8272
7564 8285
7565 8261
7565 8262
7566 8262
7566 8263
7567 8263
7567 8264
7568 8264
7568 8265
7569 8265
7569 8266
7570 8266
7570 8267
7571 8267
7571 8268
7572 8268
7572 8269
7573 8269
7573 8270
7574 8270
7574 8271
7575 8273
7575 8284
7575 8285
7575 8299
7576 8273
7576 8274
7577 8274
7577 8275
7578 8275
7578 8276
7579 8276
7579 8277
7580 8277
7580 8278
7581 8278
7581 8279
7582 8279
7582 8280
7583 8280
7583 8281
7584 8281
7584 8282
7585 8282
7585 8283
7586 8283
7586 8284
7587 8286
7587 8298
7587 8299
7587 16698
7587 16699
7588 8286
7588 8287
7589 8287
7589 8288
7590 8288
7590 8289
7591 8289
7591 8290
7592 8290
7592 8291
7593 8291
7593 8292
7594 8292
7594 8293
7595 8293
7595 8294
7596 8294
7596 8295
7597 8295
7597 8296
7598 8296
7598 8297
7599 8297
7599 8298
7600 8300
7600 8305
7600 8313
7601 8300
7601 8301
7602 8301
7602 8302
7603 8302
7603 8303
7604 8303
7604 8304
7605 8304
7605 8305
7606 8306
7606 8312
7606 8313
7606 8322
7607 8306
7607 8307
7608 8307
7608 8308
7609 8308
7609 8309
7610 8309
7610 8310
7611 8310
7611 8311
7612 8311
7612 8312
7613 8314
7613 8321
7613 8322
7613 8332
7614 8314
7614 8315
7615 8315
7615 8316
7616 8316
7616 8317
7617 8317
7617 8318
7618 8318
7618 8319
7619 8319
7619 8320
7620 8320
7620 8321
7621 8323
7621 8331
7621 8332
7621 8343
7622 8323
7622 8324
7623 8324
7623 8325
7624 8325
7624 8326
7625 8326
7625 8327
7626 8327
7626 8328
7627 8328
7627 8329
7628 8329
7628 8330
7629 8330
7629 8331
7630 8333
7630 8342
7630 8343
7630 8355
7631 8333
7631 8334
7632 8334
7632 8335
7633 8335
7633 8336
7634 8336
7634 8337
7635 8337
7635 8338
7636 8338
7636 8339
7637 8339
7637 8340
7638 8340
7638 8341
7639 8341
7639 8342
7640 8344
7640 8354
7640 8355
7640 8368
7641 8344
7641 8345
7642 8345
7642 8346
7643 8346
7643 8347
7644 8347
7644 8348
7645 8348
7645 8349
7646 8349
7646 8350
7647 8350
7647 8351
7648 8351
7648 8352
7649 8352
7649 8353
7650 8353
7650 8354
7651 8356
7651 8367
7651 8368
7651 8382
7652 8356
7652 8357
7653 8357
7653 8358
7654 8358
7654 8359
7655 8359
7655 8360
7656 8360
7656 8361
7657 8361
7657 8362
7658 8362
7658 8363
7659 8363
7659 8364
7660 8364
7660 8365
7661 8365
7661 8366
7662 8366
7662 8367
7663 8369
7663 8381
7663 8382
7663 16699
7663 16700
7664 8369
7664 8370
7665 8370
7665 8371
7666 8371
7666 8372
7667 8372
7667 8373
7668 8373
7668 8374
7669 8374
7669 8375
7670 8375
7670 8376
7671 8376
7671 8377
7672 8377
7672 8378
7673 8378
7673 8379
7674 8379
7674 8380
7675 8380
7675 8381
7676 8383
7676 8388
7676 8396
7677 8383
7677 8384
7678 8384
7678 8385
7679 8385
7679 8386
7680 8386
7680 8387
7681 8387
7681 8388
7682 8389
7682 8395
7682 8396
7682 8405
7683 8389
7683 8390
7684 8390
7684 8391
7685 8391
7685 8392
7686 8392
7686 8393
7687 8393
7687 8394
7688 8394
7688 8395
7689 8397
7689 8404
7689 8405
7689 8415
7690 8397
7690 8398
7691 8398
7691 8399
7692 8399
7692 8400
7693 8400
7693 8401
7694 8401
7694 8402
7695 8402
7695 8403
7696 8403
7696 8404
7697 8406
7697 8414
7697 8415
7697 8426
7698 8406
7698 8407
7699 8407
7699 8408
7700 8408
7700 8409
7701 8409
7701 8410
7702 8410
7702 8411
7703 8411
7703 8412
7704 8412
7704 8413
7705 8413
7705 8414
7706 8416
7706 8425
7706 8426
7706 8438
7707 8416
7707 8417
7708 8417
7708 8418
7709 8418
7709 8419
7710 8419
7710 8420
7711 8420
7711 8421
7712 8421
7712 8422
7713 8422
7713 8423
7714 8423
7714 8424
7715 8424
7715 8425
7716 8427
7716 8437
7716 8438
7716 8451
7717 8427
7717 8428
7718 8428
7718 8429
7719 8429
7719 8430
7720 8430
7720 8431
7721 8431
7721 8432
7722 8432
7722 8433
7723 8433
7723 8434
7724 8434
7724 8435
7725 8435
7725 8436
7726 8436
7726 8437
7727 8439
7727 8450
7727 8451
7727 8465
7728 8439
7728 8440
7729 8440
7729 8441
7730 8441
7730 8442
7731 8442
7731 8443
7732 8443
7732 8444
7733 8444
7733 8445
7734 8445
7734 8446
7735 8446
7735 8447
7736 8447
7736 8448
7737 8448
7737 8449
7738 8449
7738 8450
7739 8452
7739 8464
7739 8465
7739 16700
7739 16701
7740 8452
7740 8453
7741 8453
7741 8454
7742 8454
7742 8455
7743 8455
7743 8456
7744 8456
7744 8457
7745 8457
7745 8458
7746 8458
7746 8459
7747 8459
7747 8460
7748 8460
7748 8461
7749 8461
7749 8462
7750 8462
7750 8463
7751 8463
7751 8464
7752 8466
7752 8471
7752 8479
7753 8466
7753 8467
7754 8467
7754 8468
7755 8468
7755 8469
7756 8469
7756 8470
7757 8470
7757 8471
7758 8472
7758 8478
7758 8479
7758 8488
7759 8472
7759 8473
7760 8473
7760 8474
7761 8474
7761 8475
7762 8475
7762 8476
7763 8476
7763 8477
7764 8477
7764 8478
7765 8480
7765 8487
7765 8488
7765 8498
7766 8480
7766 8481
7767 8481
7767 8482
7768 8482
7768 8483
7769 8483
7769 8484
7770 8484
7770 8485
7771 8485
7771 8486
7772 8486
7772 8487
7773 8489
7773 8497
7773 8498
7773 8509
7774 8489
7774 8490
7775 8490
7775 8491
7776 8491
7776 8492
7777 8492
7777 8493
7778 8493
7778 8494
7779 8494
7779 8495
7780 8495
7780 8496
7781 8496
7781 8497
7782 8499
7782 8508
7782 8509
7782 8521
7783 8499
7783 8500
7784 8500
7784 8501
7785 8501
7785 8502
7786 8502
7786 8503
7787 8503
7787 8504
7788 8504
7788 8505
7789 8505
7789 8506
7790 8506
7790 8507
7791 8507
7791 8508
7792 8510
7792 8520
7792 8521
7792 8534
7793 8510
7793 8511
7794 8511
7794 8512
7795 8512
7795 8513
7796 8513
7796 8514
7797 8514
7797 8515
7798 8515
7798 8516
7799 8516
7799 8517
7800 8517
7800 8518
7801 8518
7801 8519
7802 8519
7802 8520
7803 8522
7803 8533
7803 8534
7803 8548
7804 8522
7804 8523
7805 8523
7805 8524
7806 8524
7806 8525
7807 8525
7807 8526
7808 8526
7808 8527
7809 8527
7809 8528
7810 8528
7810 8529
7811 8529
7811 8530
7812 8530
7812 8531
7813 8531
7813 8532
7814 8532
7814 8533
7815 8535
7815 8547
7815 8548
7815 16701
7815 16702
7816 8535
7816 8536
7817 8536
7817 8537
7818 8537
7818 8538
7819 8538
7819 8539
7820 8539
7820 8540
7821 8540
7821 8541
7822 8541
7822 8542
7823 8542
7823 8543
7824 8543
7824 8544
7825 8544
7825 8545
7826 8545
7826 8546
7827 8546
7827 8547
7828 8549
7828 8554
7828 8562
7829 8549
7829 8550
7830 8550
7830 8551
7831 8551
7831 8552
7832 8552
7832 8553
7833 8553
7833 8554
7834 8555
7834 8561
7834 8562
7834 8571
7835 8555
7835 8556
7836 8556
7836 8557
7837 8557
7837 8558
7838 8558
7838 8559
7839 8559
7839 8560
7840 8560
7840 8561
7841 8563
7841 8570
7841 8571
7841 8581
7842 8563
7842 8564
7843 8564
7843 8565
7844 8565
7844 8566
7845 8566
7845 8567
7846 8567
7846 8568
7847 8568
7847 8569
7848 8569
7848 8570
7849 8572
7849 8580
7849 8581
7849 8592
7850 8572
7850 8573
7851 8573
7851 8574
7852 8574
7852 8575
7853 8575
7853 8576
7854 8576
7854 8577
7855 8577
7855 8578
7856 8578
7856 8579
7857 8579
7857 8580
7858 8582
7858 8591
7858 8592
7858 8604
7859 8582
7859 8583
7860 8583
7860 8584
7861 8584
7861 8585
7862 8585
7862 8586
7863 8586
7863 8587
7864 8587
7864 8588
7865 8588
7865 8589
7866 8589
7866 8590
7867 8590
7867 8591
7868 8593
7868 8603
7868 8604
7868 8617
7869 8593
7869 8594
7870 8594
7870 8595
7871 8595
7871 8596
7872 8596
7872 8597
7873 8597
7873 8598
7874 8598
7874 8599
7875 8599
7875 8600
7876 8600
7876 8601
7877 8601
7877 8602
7878 8602
7878 8603
7879 8605
7879 8616
7879 8617
7879 8631
7880 8605
7880 8606
7881 8606
7881 8607
7882 8607
7882 8608
7883 8608
7883 8609
7884 8609
7884 8610
7885 8610
7885 8611
7886 8611
7886 8612
7887 8612
7887 8613
7888 8613
7888 8614
7889 8614
7889 8615
7890 8615
7890 8616
7891 8618
7891 8630
7891 8631
7891 16702
7891 16703
7892 8618
7892 8619
7893 8619
7893 8620
7894 8620
7894 8621
7895 8621
7895 8622
7896 8622
7896 8623
7897 8623
7897 8624
7898 8624
7898 8625
7899 8625
7899 8626
7900 8626
7900 8627
7901 8627
7901 8628
7902 8628
7902 8629
7903 8629
7903 8630
7904 8632
7904 8637
7904 8645
7905 8632
7905 8633
7906 8633
7906 8634
7907 8634
7907 8635
7908 8635
7908 8636
7909 8636
7909 8637
7910 8638
7910 8644
7910 8645
7910 8654
7911 8638
7911 8639
7912 8639
7912 8640
7913 8640
7913 8641
7914 8641
7914 8642
7915 8642
7915 8643
7916 8643
7916 8644
7917 8646
7917 8653
7917 8654
7917 8664
7918 8646
7918 8647
7919 8647
7919 8648
7920 8648
7920 8649
7921 8649
7921 8650
7922 8650
7922 8651
7923 8651
7923 8652
7924 8652
7924 8653
7925 8655
7925 8663
7925 8664
7925 8675
7926 8655
7926 8656
7927 8656
7927 8657
7928 8657
7928 8658
7929 8658
7929 8659
7930 8659
7930 8660
7931 8660
7931 8661
7932 8661
7932 8662
7933 8662
7933 8663
7934 8665
7934 8674
7934 8675
7934 8687
7935 8665
7935 8666
7936 8666
7936 8667
7937 8667
7937 8668
7938 8668
7938 8669
7939 8669
7939 8670
7940 8670
7940 8671
7941 8671
7941 8672
7942 8672
7942 8673
7943 8673
7943 8674
7944 8676
7944 8686
7944 8687
7944 8700
7945 8676
7945 8677
7946 8677
7946 8678
7947 8678
7947 8679
7948 8679
7948 8680
7949 8680
7949 8681
7950 8681
7950 8682
7951 8682
7951 8683
7952 8683
7952 8684
7953 8684
7953 8685
7954 8685
7954 8686
7955 8688
7955 8699
7955 8700
7955 8714
7956 8688
7956 8689
7957 8689
7957 8690
7958 8690
7958 8691
7959 8691
7959 8692
7960 8692
7960 8693
7961 8693
7961 8694
7962 8694
7962 8695
7963 8695
7963 8696
7964 8696
7964 8697
7965 8697
7965 8698
7966 8698
7966 8699
7967 8701
7967 8713
7967 8714
7967 16703
7967 16704
7968 8701
7968 8702
7969 8702
7969 8703
7970 8703
7970 8704
7971 8704
7971 8705
7972 8705
7972 8706
7973 8706
7973 8707
7974 8707
7974 8708
7975 8708
7975 8709
7976 8709
7976 8710
7977 8710
7977 8711
7978 8711
7978 8712
7979 8712
7979 8713
7980 8715
7980 8720
7980 8728
7981 8715
7981 8716
7982 8716
7982 8717
7983 8717
7983 8718
7984 8718
7984 8719
7985 8719
7985 8720
7986 8721
7986 8727
7986 8728
7986 8737
7987 8721
7987 8722
7988 8722
7988 8723
7989 8723
7989 8724
7990 8724
7990 8725
7991 8725
7991 8726
7992 8726
7992 8727
7993 8729
7993 8736
7993 8737
7993 8747
7994 8729
7994 8730
7995 8730
7995 8731
7996 8731
7996 8732
7997 8732
7997 8733
7998 8733
7998 8734
7999 8734
7999 8735
8000 8735
8000 8736
8001 8738
8001 8746
8001 8747
8001 8758
8002 8738
8002 8739
8003 8739
8003 8740
8004 8740
8004 8741
8005 8741
8005 8742
8006 8742
8006 8743
8007 8743
8007 8744
8008 8744
8008 8745
8009 8745
8009 8746
8010 8748
8010 8757
8010 8758
8010 8770
8011 8748
8011 8749
8012 8749
8012 8750
8013 8750
8013 8751
8014 8751
8014 8752
8015 8752
8015 8753
8016 8753
8016 8754
8017 8754
8017 8755
8018 8755
8018 8756
8019 8756
8019 8757
8020 8759
8020 8769
8020 8770
8020 8783
8021 8759
8021 8760
8022 8760
8022 8761
8023 8761
8023 8762
8024 8762
8024 8763
8025 8763
8025 8764
8026 8764
8026 8765
8027 8765
8027 8766
8028 8766
8028 8767
8029 8767
8029 8768
8030 8768
8030 8769
8031 8771
8031 8782
8031 8783
8031 8797
8032 8771
8032 8772
8033 8772
8033 8773
8034 8773
8034 8774
8035 8774
8035 8775
8036 8775
8036 8776
8037 8776
8037 8777
8038 8777
8038 8778
8039 8778
8039 8779
8040 8779
8040 8780
8041 8780
8041 8781
8042 8781
8042 8782
8043 8784
8043 8796
8043 8797
8043 16704
8043 16705
8044 8784
8044 8785
8045 8785
8045 8786
8046 8786
8046 8787
8047 8787
8047 8788
8048 8788
8048 8789
8049 8789
8049 8790
8050 8790
8050 8791
8051 8791
8051 8792
8052 8792
8052 8793
8053 8793
8053 8794
8054 8794
8054 8795
8055 8795
8055 8796
8056 8798
8056 8803
8056 8811
8057 8798
8057 8799
8058 8799
8058 8800
8059 8800
8059 8801
8060 8801
8060 8802
8061 8802
8061 8803
8062 8804
8062 8810
8062 8811
8062 8820
8063 8804
8063 8805
8064 8805
8064 8806
8065 8806
8065 8807
8066 8807
8066 8808
8067 8808
8067 8809
8068 8809
8068 8810
8069 8812
8069 8819
8069 8820
8069 8830
8070 8812
8070 8813
8071 8813
8071 8814
8072 8814
8072 8815
8073 8815
8073 8816
8074 8816
8074 8817
8075 8817
8075 8818
8076 8818
8076 8819
8077 8821
8077 8829
8077 8830
8077 8841
8078 8821
8078 8822
8079 8822
8079 8823
8080 8823
8080 8824
8081 8824
8081 8825
8082 8825
8082 8826
8083 8826
8083 8827
8084 8827
8084 8828
8085 8828
8085 8829
8086 8831
8086 8840
8086 8841
8086 8853
8087 8831
8087 8832
8088 8832
8088 8833
8089 8833
8089 8834
8090 8834
8090 8835
8091 8835
8091 8836
8092 8836
8092 8837
8093 8837
8093 8838
8094 8838
8094 8839
8095 8839
8095 8840
8096 8842
8096 8852
8096 8853
8096 8866
8097 8842
8097 8843
8098 8843
8098 8844
8099 8844
8099 8845
8100 8845
8100 8846
8101 8846
8101 8847
8102 8847
8102 8848
8103 8848
8103 8849
8104 8849
8104 8850
8105 8850
8105 8851
8106 8851
8106 8852
8107 8854
8107 8865
8107 8866
8107 8880
8108 8854
8108 8855
8109 8855
8109 8856
8110 8856
8110 8857
8111 8857
8111 8858
8112 8858
8112 8859
8113 8859
8113 8860
8114 8860
8114 8861
8115 8861
8115 8862
8116 8862
8116 8863
8117 8863
8117 8864
8118 8864
8118 8865
8119 8867
8119 8879
8119 8880
8119 16705
8119 16706
8120 8867
8120 8868
8121 8868
8121 8869
8122 8869
8122 8870
8123 8870
8123 8871
8124 8871
8124 8872
8125 8872
8125 8873
8126 8873
8126 8874
8127 8874
8127 8875
8128 8875
8128 8876
8129 8876
8129 8877
8130 8877
8130 8878
8131 8878
8131 8879
8132 8881
8132 8886
8132 8894
8133 8881
8133 8882
8134 8882
8134 8883
8135 8883
8135 8884
8136 8884
8136 8885
8137 8885
8137 8886
8138 8887
8138 8893
8138 8894
8138 8903
8139 8887
8139 8888
8140 8888
8140 8889
8141 8889
8141 8890
8142 8890
8142 8891
8143 8891
8143 8892
8144 8892
8144 8893
8145 8895
8145 8902
8145 8903
8145 8913
8146 8895
8146 8896
8147 8896
8147 8897
8148 8897
8148 8898
8149 8898
8149 8899
8150 8899
8150 8900
8151 8900
8151 8901
8152 8901
8152 8902
8153 8904
8153 8912
8153 8913
8153 8924
8154 8904
8154 8905
8155 8905
8155 8906
8156 8906
8156 8907
8157 8907
8157 8908
8158 8908
8158 8909
8159 8909
8159 8910
8160 8910
8160 8911
8161 8911
8161 8912
8162 8914
8162 8923
8162 8924
8162 8936
8163 8914
8163 8915
8164 8915
8164 8916
8165 8916
8165 8917
8166 8917
8166 8918
8167 8918
8167 8919
8168 8919
8168 8920
8169 8920
8169 8921
8170 8921
8170 8922
8171 8922
8171 8923
8172 8925
8172 8935
8172 8936
8172 8949
8173 8925
8173 8926
8174 8926
8174 8927
8175 8927
8175 8928
8176 8928
8176 8929
8177 8929
8177 8930
8178 8930
8178 8931
8179 8931
8179 8932
8180 8932
8180 8933
8181 8933
8181 8934
8182 8934
8182 8935
8183 8937
8183 8948
8183 8949
8183 8963
8184 8937
8184 8938
8185 8938
8185 8939
8186 8939
8186 8940
8187 8940
8187 8941
8188 8941
8188 8942
8189 8942
8189 8943
8190 8943
8190 8944
8191 8944
8191 8945
8192 8945
8192 8946
8193 8946
8193 8947
8194 8947
8194 8948
8195 8950
8195 8962
8195 8963
8195 16706
8195 16707
8196 8950
8196 8951
8197 8951
8197 8952
8198 8952
8198 8953
8199 8953
8199 8954
8200 8954
8200 8955
8201 8955
8201 8956
8202 8956
8202 8957
8203 8957
8203 8958
8204 8958
8204 8959
8205 8959
8205 8960
8206 8960
8206 8961
8207 8961
8207 8962
8208 8964
8208 8969
8208 8977
8209 8964
8209 8965
8210 8965
8210 8966
8211 8966
8211 8967
8212 8967
8212 8968
8213 8968
8213 8969
8214 8970
8214 8976
8214 8977
8214 8986
8215 8970
8215 8971
8216 8971
8216 8972
8217 8972
8217 8973
8218 8973
8218 8974
8219 8974
8219 8975
8220 8975
8220 8976
8221 8978
8221 8985
8221 8986
8221 8996
8222 8978
8222 8979
8223 8979
8223 8980
8224 8980
8224 8981
8225 8981
8225 8982
8226 8982
8226 8983
8227 8983
8227 8984
8228 8984
8228 8985
8229 8987
8229 8995
8229 8996
8229 9007
8230 8987
8230 8988
8231 8988
8231 8989
8232 8989
8232 8990
8233 8990
8233 8991
8234 8991
8234 8992
8235 8992
8235 8993
8236 8993
8236 8994
8237 8994
8237 8995
8238 8997
8238 9006
8238 9007
8238 9019
8239 8997
8239 8998
8240 8998
8240 8999
8241 8999
8241 9000
8242 9000
8242 9001
8243 9001
8243 9002
8244 9002
8244 9003
8245 9003
8245 9004
8246 9004
8246 9005
8247 9005
8247 9006
8248 9008
8248 9018
8248 9019
8248 9032
8249 9008
8249 9009
8250 9009
8250 9010
8251 9010
8251 9011
8252 9011
8252 9012
8253 9012
8253 9013
8254 9013
8254 9014
8255 9014
8255 9015
8256 9015
8256 9016
8257 9016
8257 9017
8258 9017
8258 9018
8259 9020
8259 9031
8259 9032
8259 9046
8260 9020
8260 9021
8261 9021
8261 9022
8262 9022
8262 9023
8263 9023
8263 9024
8264 9024
8264 9025
8265 9025
8265 9026
8266 9026
8266 9027
8267 9027
8267 9028
8268 9028
8268 9029
8269 9029
8269 9030
8270 9030
8270 9031
8271 9033
8271 9045
8271 9046
8271 16707
8271 16708
8272 9033
8272 9034
8273 9034
8273 9035
8274 9035
8274 9036
8275 9036
8275 9037
8276 9037
8276 9038
8277 9038
8277 9039
8278 9039
8278 9040
8279 9040
8279 9041
8280 9041
8280 9042
8281 9042
8281 9043
8282 9043
8282 9044
8283 9044
8283 9045
8284 9047
8284 9052
8284 9060
8285 9047
8285 9048
8286 9048
8286 9049
8287 9049
8287 9050
8288 9050
8288 9051
8289 9051
8289 9052
8290 9053
8290 9059
8290 9060
8290 9069
8291 9053
8291 9054
8292 9054
8292 9055
8293 9055
8293 9056
8294 9056
8294 9057
8295 9057
8295 9058
8296 9058
8296 9059
8297 9061
8297 9068
8297 9069
8297 9079
8298 9061
8298 9062
8299 9062
8299 9063
8300 9063
8300 9064
8301 9064
8301 9065
8302 9065
8302 9066
8303 9066
8303 9067
8304 9067
8304 9068
8305 9070
8305 9078
8305 9079
8305 9090
8306 9070
8306 9071
8307 9071
8307 9072
8308 9072
8308 9073
8309 9073
8309 9074
8310 9074
8310 9075
8311 9075
8311 9076
8312 9076
8312 9077
8313 9077
8313 9078
8314 9080
8314 9089
8314 9090
8314 9102
8315 9080
8315 9081
8316 9081
8316 9082
8317 9082
8317 9083
8318 9083
8318 9084
8319 9084
8319 9085
8320 9085
8320 9086
8321 9086
8321 9087
8322 9087
8322 9088
8323 9088
8323 9089
8324 9091
8324 9101
8324 9102
8324 9115
8325 9091
8325 9092
8326 9092
8326 9093
8327 9093
8327 9094
8328 9094
8328 9095
8329 9095
8329 9096
8330 9096
8330 9097
8331 9097
8331 9098
8332 9098
8332 9099
8333 9099
8333 9100
8334 9100
8334 9101
8335 9103
8335 9114
8335 9115
8335 9129
8336 9103
8336 9104
8337 9104
8337 9105
8338 9105
8338 9106
8339 9106
8339 9107
8340 9107
8340 9108
8341 9108
8341 9109
8342 9109
8342 9110
8343 9110
8343 9111
8344 9111
8344 9112
8345 9112
8345 9113
8346 9113
8346 9114
8347 9116
8347 9128
8347 9129
8347 16708
8347 16709
8348 9116
8348 9117
8349 9117
8349 9118
8350 9118
8350 9119
8351 9119
8351 9120
8352 9120
8352 9121
8353 9121
8353 9122
8354 9122
8354 9123
8355 9123
8355 9124
8356 9124
8356 9125
8357 9125
8357 9126
8358 9126
8358 9127
8359 9127
8359 9128
8360 9130
8360 9135
8360 9143
8361 9130
8361 9131
8362 9131
8362 9132
8363 9132
8363 9133
8364 9133
8364 9134
8365 9134
8365 9135
8366 9136
8366 9142
8366 9143
8366 9152
8367 9136
8367 9137
8368 9137
8368 9138
8369 9138
8369 9139
8370 9139
8370 9140
8371 9140
8371 9141
8372 9141
8372 9142
8373 9144
8373 9151
8373 9152
8373 9162
8374 9144
8374 9145
8375 9145
8375 9146
8376 9146
8376 9147
8377 9147
8377 9148
8378 9148
8378 9149
8379 9149
8379 9150
8380 9150
8380 9151
8381 9153
8381 9161
8381 9162
8381 9173
8382 9153
8382 9154
8383 9154
8383 9155
8384 9155
8384 9156
8385 9156
8385 9157
8386 9157
8386 9158
8387 9158
8387 9159
8388 9159
8388 9160
8389 9160
8389 9161
8390 9163
8390 9172
8390 9173
8390 9185
8391 9163
8391 9164
8392 9164
8392 9165
8393 9165
8393 9166
8394 9166
8394 9167
8395 9167
8395 9168
8396 9168
8396 9169
8397 9169
8397 9170
8398 9170
8398 9171
8399 9171
8399 9172
8400 9174
8400 9184
8400 9185
8400 9198
8401 9174
8401 9175
8402 9175
8402 9176
8403 9176
8403 9177
8404 9177
8404 9178
8405 9178
8405 9179
8406 9179
8406 9180
8407 9180
8407 9181
8408 9181
8408 9182
8409 9182
8409 9183
8410 9183
8410 9184
8411 9186
8411 9197
8411 9198
8411 9212
8412 9186
8412 9187
8413 9187
8413 9188
8414 9188
8414 9189
8415 9189
8415 9190
8416 9190
8416 9191
8417 9191
8417 9192
8418 9192
8418 9193
8419 9193
8419 9194
8420 9194
8420 9195
8421 9195
8421 9196
8422 9196
8422 9197
8423 9199
8423 9211
8423 9212
8423 16709
8423 16710
8424 9199
8424 9200
8425 9200
8425 9201
8426 9201
8426 9202
8427 9202
8427 9203
8428 9203
8428 9204
8429 9204
8429 9205
8430 9205
8430 9206
8431 9206
8431 9207
8432 9207
8432 9208
8433 9208
8433 9209
8434 9209
8434 9210
8435 9210
8435 9211
8436 9213
8436 9218
8436 9226
8437 9213
8437 9214
8438 9214
8438 9215
8439 9215
8439 9216
8440 9216
8440 9217
8441 9217
8441 9218
8442 9219
8442 9225
8442 9226
8442 9235
8443 9219
8443 9220
8444 9220
8444 9221
8445 9221
8445 9222
8446 9222
8446 9223
8447 9223
8447 9224
8448 9224
8448 9225
8449 9227
8449 9234
8449 9235
8449 9245
8450 9227
8450 9228
8451 9228
8451 9229
8452 9229
8452 9230
8453 9230
8453 9231
8454 9231
8454 9232
8455 9232
8455 9233
8456 9233
8456 9234
8457 9236
8457 9244
8457 9245
8457 9256
8458 9236
8458 9237
8459 9237
8459 9238
8460 9238
8460 9239
8461 9239
8461 9240
8462 9240
8462 9241
8463 9241
8463 9242
8464 9242
8464 9243
8465 9243
8465 9244
8466 9246
8466 9255
8466 9256
8466 9268
8467 9246
8467 9247
8468 9247
8468 9248
8469 9248
8469 9249
8470 9249
8470 9250
8471 9250
8471 9251
8472 9251
8472 9252
8473 9252
8473 9253
8474 9253
8474 9254
8475 9254
8475 9255
8476 9257
8476 9267
8476 9268
8476 9281
8477 9257
8477 9258
8478 9258
8478 9259
8479 9259
8479 9260
8480 9260
8480 9261
8481 9261
8481 9262
8482 9262
8482 9263
8483 9263
8483 9264
8484 9264
8484 9265
8485 9265
8485 9266
8486 9266
8486 9267
8487 9269
8487 9280
8487 9281
8487 9295
8488 9269
8488 9270
8489 9270
8489 9271
8490 9271
8490 9272
8491 9272
8491 9273
8492 9273
8492 9274
8493 9274
8493 9275
8494 9275
8494 9276
8495 9276
8495 9277
8496 9277
8496 9278
8497 9278
8497 9279
8498 9279
8498 9280
8499 9282
8499 9294
8499 9295
8499 16710
8499 16711
8500 9282
8500 9283
8501 9283
8501 9284
8502 9284
8502 9285
8503 9285
8503 9286
8504 9286
8504 9287
8505 9287
8505 9288
8506 9288
8506 9289
8507 9289
8507 9290
8508 9290
8508 9291
8509 9291
8509 9292
8510 9292
8510 9293
8511 9293
8511 9294
8512 9296
8512 9301
8512 9309
8513 9296
8513 9297
8514 9297
8514 9298
8515 9298
8515 9299
8516 9299
8516 9300
8517 9300
8517 9301
8518 9302
8518 9308
8518 9309
8518 9318
8519 9302
8519 9303
8520 9303
8520 9304
8521 9304
8521 9305
8522 9305
8522 9306
8523 9306
8523 9307
8524 9307
8524 9308
8525 9310
8525 9317
8525 9318
8525 9328
8526 9310
8526 9311
8527 9311
8527 9312
8528 9312
8528 9313
8529 9313
8529 9314
8530 9314
8530 9315
8531 9315
8531 9316
8532 9316
8532 9317
8533 9319
8533 9327
8533 9328
8533 9339
8534 9319
8534 9320
8535 9320
8535 9321
8536 9321
8536 9322
8537 9322
8537 9323
8538 9323
8538 9324
8539 9324
8539 9325
8540 9325
8540 9326
8541 9326
8541 9327
8542 9329
8542 9338
8542 9339
8542 9351
8543 9329
8543 9330
8544 9330
8544 9331
8545 9331
8545 9332
8546 9332
8546 9333
8547 9333
8547 9334
8548 9334
8548 9335
8549 9335
8549 9336
8550 9336
8550 9337
8551 9337
8551 9338
8552 9340
8552 9350
8552 9351
8552 9364
8553 9340
8553 9341
8554 9341
8554 9342
8555 9342
8555 9343
8556 9343
8556 9344
8557 9344
8557 9345
8558 9345
8558 9346
8559 9346
8559 9347
8560 9347
8560 9348
8561 9348
8561 9349
8562 9349
8562 9350
8563 9352
8563 9363
8563 9364
8563 9378
8564 9352
8564 9353
8565 9353
8565 9354
8566 9354
8566 9355
8567 9355
8567 9356
8568 9356
8568 9357
8569 9357
8569 9358
8570 9358
8570 9359
8571 9359
8571 9360
8572 9360
8572 9361
8573 9361
8573 9362
8574 9362
8574 9363
8575 9365
8575 9377
8575 9378
8575 16711
8575 16712
8576 9365
8576 9366
8577 9366
8577 9367
8578 9367
8578 9368
8579 9368
8579 9369
8580 9369
8580 9370
8581 9370
8581 9371
8582 9371
8582 9372
8583 9372
8583 9373
8584 9373
8584 9374
8585 9374
8585 9375
8586 9375
8586 9376
8587 9376
8587 9377
8588 9379
8588 9384
8588 9392
8589 9379
8589 9380
8590 9380
8590 9381
8591 9381
8591 9382
8592 9382
8592 9383
8593 9383
8593 9384
8594 9385
8594 9391
8594 9392
8594 9401
8595 9385
8595 9386
8596 9386
8596 9387
8597 9387
8597 9388
8598 9388
8598 9389
8599 9389
8599 9390
8600 9390
8600 9391
8601 9393
8601 9400
8601 9401
8601 9411
8602 9393
8602 9394
8603 9394
8603 9395
8604 9395
8604 9396
8605 9396
8605 9397
8606 9397
8606 9398
8607 9398
8607 9399
8608 9399
8608 9400
8609 9402
8609 9410
8609 9411
8609 9422
8610 9402
8610 9403
8611 9403
8611 9404
8612 9404
8612 9405
8613 9405
8613 9406
8614 9406
8614 9407
8615 9407
8615 9408
8616 9408
8616 9409
8617 9409
8617 9410
8618 9412
8618 9421
8618 9422
8618 9434
8619 9412
8619 9413
8620 9413
8620 9414
8621 9414
8621 9415
8622 9415
8622 9416
8623 9416
8623 9417
8624 9417
8624 9418
8625 9418
8625 9419
8626 9419
8626 9420
8627 9420
8627 9421
8628 9423
8628 9433
8628 9434
8628 9447
8629 9423
8629 9424
8630 9424
8630 9425
8631 9425
8631 9426
8632 9426
8632 9427
8633 9427
8633 9428
8634 9428
8634 9429
8635 9429
8635 9430
8636 9430
8636 9431
8637 9431
8637 9432
8638 9432
8638 9433
8639 9435
8639 9446
8639 9447
8639 9461
8640 9435
8640 9436
8641 9436
8641 9437
8642 9437
8642 9438
8643 9438
8643 9439
8644 9439
8644 9440
8645 9440
8645 9441
8646 9441
8646 9442
8647 9442
8647 9443
8648 9443
8648 9444
8649 9444
8649 9445
8650 9445
8650 9446
8651 9448
8651 9460
8651 9461
8651 16712
8651 16713
8652 9448
8652 9449
8653 9449
8653 9450
8654 9450
8654 9451
8655 9451
8655 9452
8656 9452
8656 9453
8657 9453
8657 9454
8658 9454
8658 9455
8659 9455
8659 9456
8660 9456
8660 9457
8661 9457
8661 9458
8662 9458
8662 9459
8663 9459
8663 9460
8664 9462
8664 9467
8664 9475
8665 9462
8665 9463
8666 9463
8666 9464
8667 9464
8667 9465
8668 9465
8668 9466
8669 9466
8669 9467
8670 9468
8670 9474
8670 9475
8670 9484
8671 9468
8671 9469
8672 9469
8672 9470
8673 9470
8673 9471
8674 9471
8674 9472
8675 9472
8675 9473
8676 9473
8676 9474
8677 9476
8677 9483
8677 9484
8677 9494
8678 9476
8678 9477
8679 9477
8679 9478
8680 9478
8680 9479
8681 9479
8681 9480
8682 9480
8682 9481
8683 9481
8683 9482
8684 9482
8684 9483
8685 9485
8685 9493
8685 9494
8685 9505
8686 9485
8686 9486
8687 9486
8687 9487
8688 9487
8688 9488
8689 9488
8689 9489
8690 9489
8690 9490
8691 9490
8691 9491
8692 9491
8692 9492
8693 9492
8693 9493
8694 9495
8694 9504
8694 9505
8694 9517
8695 9495
8695 9496
8696 9496
8696 9497
8697 9497
8697 9498
8698 9498
8698 9499
8699 9499
8699 9500
8700 9500
8700 9501
8701 9501
8701 9502
8702 9502
8702 9503
8703 9503
8703 9504
8704 9506
8704 9516
8704 9517
8704 9530
8705 9506
8705 9507
8706 9507
8706 9508
8707 9508
8707 9509
8708 9509
8708 9510
8709 9510
8709 9511
8710 9511
8710 9512
8711 9512
8711 9513
8712 9513
8712 9514
8713 9514
8713 9515
8714 9515
8714 9516
8715 9518
8715 9529
8715 9530
8715 9544
8716 9518
8716 9519
8717 9519
8717 9520
8718 9520
8718 9521
8719 9521
8719 9522
8720 9522
8720 9523
8721 9523
8721 9524
8722 9524
8722 9525
8723 9525
8723 9526
8724 9526
8724 9527
8725 9527
8725 9528
8726 9528
8726 9529
8727 9531
8727 9543
8727 9544
8727 16713
8727 16714
8728 9531
8728 9532
8729 9532
8729 9533
8730 9533
8730 9534
8731 9534
8731 9535
8732 9535
8732 9536
8733 9536
8733 9537
8734 9537
8734 9538
8735 9538
8735 9539
8736 9539
8736 9540
8737 9540
8737 9541
8738 9541
8738 9542
8739 9542
8739 9543
8740 9545
8740 9550
8740 9558
8741 9545
8741 9546
8742 9546
8742 9547
8743 9547
8743 9548
8744 9548
8744 9549
8745 9549
8745 9550
8746 9551
8746 9557
8746 9558
8746 9567
8747 9551
8747 9552
8748 9552
8748 9553
8749 9553
8749 9554
8750 9554
8750 9555
8751 9555
8751 9556
8752 9556
8752 9557
8753 9559
8753 9566
8753 9567
8753 9577
8754 9559
8754 9560
8755 9560
8755 9561
8756 9561
8756 9562
8757 9562
8757 9563
8758 9563
8758 9564
8759 9564
8759 9565
8760 9565
8760 9566
8761 9568
8761 9576
8761 9577
8761 9588
8762 9568
8762 9569
8763 9569
8763 9570
8764 9570
8764 9571
8765 9571
8765 9572
8766 9572
8766 9573
8767 9573
8767 9574
8768 9574
8768 9575
8769 9575
8769 9576
8770 9578
8770 9587
8770 9588
8770 9600
8771 9578
8771 9579
8772 9579
8772 9580
8773 9580
8773 9581
8774 9581
8774 9582
8775 9582
8775 9583
8776 9583
8776 9584
8777 9584
8777 9585
8778 9585
8778 9586
8779 9586
8779 9587
8780 9589
8780 9599
8780 9600
8780 9613
8781 9589
8781 9590
8782 9590
8782 9591
8783 9591
8783 9592
8784 9592
8784 9593
8785 9593
8785 9594
8786 9594
8786 9595
8787 9595
8787 9596
8788 9596
8788 9597
8789 9597
8789 9598
8790 9598
8790 9599
8791 9601
8791 9612
8791 9613
8791 9627
8792 9601
8792 9602
8793 9602
8793 9603
8794 9603
8794 9604
8795 9604
8795 9605
8796 9605
8796 9606
8797 9606
8797 9607
8798 9607
8798 9608
8799 9608
8799 9609
8800 9609
8800 9610
8801 9610
8801 9611
8802 9611
8802 9612
8803 9614
8803 9626
8803 9627
8803 16714
8803 16715
8804 9614
8804 9615
8805 9615
8805 9616
8806 9616
8806 9617
8807 9617
8807 9618
8808 9618
8808 9619
8809 9619
8809 9620
8810 9620
8810 9621
8811 9621
8811 9622
8812 9622
8812 9623
8813 9623
8813 9624
8814 9624
8814 9625
8815 9625
8815 9626
8816 9628
8816 9633
8816 9641
8817 9628
8817 9629
8818 9629
8818 9630
8819 9630
8819 9631
8820 9631
8820 9632
8821 9632
8821 9633
8822 9634
8822 9640
8822 9641
8822 9650
8823 9634
8823 9635
8824 9635
8824 9636
8825 9636
8825 9637
8826 9637
8826 9638
8827 9638
8827 9639
8828 9639
8828 9640
8829 9642
8829 9649
8829 9650
8829 9660
8830 9642
8830 9643
8831 9643
8831 9644
8832 9644
8832 9645
8833 9645
8833 9646
8834 9646
8834 9647
8835 9647
8835 9648
8836 9648
8836 9649
8837 9651
8837 9659
8837 9660
8837 9671
8838 9651
8838 9652
8839 9652
8839 9653
8840 9653
8840 9654
8841 9654
8841 9655
8842 9655
8842 9656
8843 9656
8843 9657
8844 9657
8844 9658
8845 9658
8845 9659
8846 9661
8846 9670
8846 9671
8846 9683
8847 9661
8847 9662
8848 9662
8848 9663
8849 9663
8849 9664
8850 9664
8850 9665
8851 9665
8851 9666
8852 9666
8852 9667
8853 9667
8853 9668
8854 9668
8854 9669
8855 9669
8855 9670
8856 9672
8856 9682
8856 9683
8856 9696
8857 9672
8857 9673
8858 9673
8858 9674
8859 9674
8859 9675
8860 9675
8860 9676
8861 9676
8861 9677
8862 9677
8862 9678
8863 9678
8863 9679
8864 9679
8864 9680
8865 9680
8865 9681
8866 9681
8866 9682
8867 9684
8867 9695
8867 9696
8867 9710
8868 9684
8868 9685
8869 9685
8869 9686
8870 9686
8870 9687
8871 9687
8871 9688
8872 9688
8872 9689
8873 9689
8873 9690
8874 9690
8874 9691
8875 9691
8875 9692
8876 9692
8876 9693
8877 9693
8877 9694
8878 9694
8878 9695
8879 9697
8879 9709
8879 9710
8879 16715
8879 16716
8880 9697
8880 9698
8881 9698
8881 9699
8882 9699
8882 9700
8883 9700
8883 9701
8884 9701
8884 9702
8885 9702
8885 9703
8886 9703
8886 9704
8887 9704
8887 9705
8888 9705
8888 9706
8889 9706
8889 9707
8890 9707
8890 9708
8891 9708
8891 9709
8892 9711
8892 9716
8892 9724
8893 9711
8893 9712
8894 9712
8894 9713
8895 9713
8895 9714
8896 9714
8896 9715
8897 9715
8897 9716
8898 9717
8898 9723
8898 9724
8898 9733
8899 9717
8899 9718
8900 9718
8900 9719
8901 9719
8901 9720
8902 9720
8902 9721
8903 9721
8903 9722
8904 9722
8904 9723
8905 9725
8905 9732
8905 9733
8905 9743
8906 9725
8906 9726
8907 9726
8907 9727
8908 9727
8908 9728
8909 9728
8909 9729
8910 9729
8910 9730
8911 9730
8911 9731
8912 9731
8912 9732
8913 9734
8913 9742
8913 9743
8913 9754
8914 9734
8914 9735
8915 9735
8915 9736
8916 9736
8916 9737
8917 9737
8917 9738
8918 9738
8918 9739
8919 9739
8919 9740
8920 9740
8920 9741
8921 9741
8921 9742
8922 9744
8922 9753
8922 9754
8922 9766
8923 9744
8923 9745
8924 9745
8924 9746
8925 9746
8925 9747
8926 9747
8926 9748
8927 9748
8927 9749
8928 9749
8928 9750
8929 9750
8929 9751
8930 9751
8930 9752
8931 9752
8931 9753
8932 9755
8932 9765
8932 9766
8932 9779
8933 9755
8933 9756
8934 9756
8934 9757
8935 9757
8935 9758
8936 9758
8936 9759
8937 9759
8937 9760
8938 9760
8938 9761
8939 9761
8939 9762
8940 9762
8940 9763
8941 9763
8941 9764
8942 9764
8942 9765
8943 9767
8943 9778
8943 9779
8943 9793
8944 9767
8944 9768
8945 9768
8945 9769
8946 9769
8946 9770
8947 9770
8947 9771
8948 9771
8948 9772
8949 9772
8949 9773
8950 9773
8950 9774
8951 9774
8951 9775
8952 9775
8952 9776
8953 9776
8953 9777
8954 9777
8954 9778
8955 9780
8955 9792
8955 9793
8955 16716
8955 16717
8956 9780
8956 9781
8957 9781
8957 9782
8958 9782
8958 9783
8959 9783
8959 9784
8960 9784
8960 9785
8961 9785
8961 9786
8962 9786
8962 9787
8963 9787
8963 9788
8964 9788
8964 9789
8965 9789
8965 9790
8966 9790
8966 9791
8967 9791
8967 9792
8968 9794
8968 9799
8968 9807
8969 9794
8969 9795
8970 9795
8970 9796
8971 9796
8971 9797
8972 9797
8972 9798
8973 9798
8973 9799
8974 9800
8974 9806
8974 9807
8974 9816
8975 9800
8975 9801
8976 9801
8976 9802
8977 9802
8977 9803
8978 9803
8978 9804
8979 9804
8979 9805
8980 9805
8980 9806
8981 9808
8981 9815
8981 9816
8981 9826
8982 9808
8982 9809
8983 9809
8983 9810
8984 9810
8984 9811
8985 9811
8985 9812
8986 9812
8986 9813
8987 9813
8987 9814
8988 9814
8988 9815
8989 9817
8989 9825
8989 9826
8989 9837
8990 9817
8990 9818
8991 9818
8991 9819
8992 9819
8992 9820
8993 9820
8993 9821
8994 9821
8994 9822
8995 9822
8995 9823
8996 9823
8996 9824
8997 9824
8997 9825
8998 9827
8998 9836
8998 9837
8998 9849
8999 9827
8999 9828
9000 9828
9000 9829
9001 9829
9001 9830
9002 9830
9002 9831
9003 9831
9003 9832
9004 9832
9004 9833
9005 9833
9005 9834
9006 9834
9006 9835
9007 9835
9007 9836
9008 9838
9008 9848
9008 9849
9008 9862
9009 9838
9009 9839
9010 9839
9010 9840
9011 9840
9011 9841
9012 9841
9012 9842
9013 9842
9013 9843
9014 9843
9014 9844
9015 9844
9015 9845
9016 9845
9016 9846
9017 9846
9017 9847
9018 9847
9018 9848
9019 9850
9019 9861
9019 9862
9019 9876
9020 9850
9020 9851
9021 9851
9021 9852
9022 9852
9022 9853
9023 9853
9023 9854
9024 9854
9024 9855
9025 9855
9025 9856
9026 9856
9026 9857
9027 9857
9027 9858
9028 9858
9028 9859
9029 9859
9029 9860
9030 9860
9030 9861
9031 9863
9031 9875
9031 9876
9031 16717
9031 16718
9032 9863
9032 9864
9033 9864
9033 9865
9034 9865
9034 9866
9035 9866
9035 9867
9036 9867
9036 9868
9037 9868
9037 9869
9038 9869
9038 9870
9039 9870
9039 9871
9040 9871
9040 9872
9041 9872
9041 9873
9042 9873
9042 9874
9043 9874
9043 9875
9044 9877
9044 9882
9044 9890
9045 9877
9045 9878
9046 9878
9046 9879
9047 9879
9047 9880
9048 9880
9048 9881
9049 9881
9049 9882
9050 9883
9050 9889
9050 9890
9050 9899
9051 9883
9051 9884
9052 9884
9052 9885
9053 9885
9053 9886
9054 9886
9054 9887
9055 9887
9055 9888
9056 9888
9056 9889
9057 9891
9057 9898
9057 9899
9057 9909
9058 9891
9058 9892
9059 9892
9059 9893
9060 9893
9060 9894
9061 9894
9061 9895
9062 9895
9062 9896
9063 9896
9063 9897
9064 9897
9064 9898
9065 9900
9065 9908
9065 9909
9065 9920
9066 9900
9066 9901
9067 9901
9067 9902
9068 9902
9068 9903
9069 9903
9069 9904
9070 9904
9070 9905
9071 9905
9071 9906
9072 9906
9072 9907
9073 9907
9073 9908
9074 9910
9074 9919
9074 9920
9074 9932
9075 9910
9075 9911
9076 9911
9076 9912
9077 9912
9077 9913
9078 9913
9078 9914
9079 9914
9079 9915
9080 9915
9080 9916
9081 9916
9081 9917
9082 9917
9082 9918
9083 9918
9083 9919
9084 9921
9084 9931
9084 9932
9084 9945
9085 9921
9085 9922
9086 9922
9086 9923
9087 9923
9087 9924
9088 9924
9088 9925
9089 9925
9089 9926
9090 9926
9090 9927
9091 9927
9091 9928
9092 9928
9092 9929
9093 9929
9093 9930
9094 9930
9094 9931
9095 9933
9095 9944
9095 9945
9095 9959
9096 9933
9096 9934
9097 9934
9097 9935
9098 9935
9098 9936
9099 9936
9099 9937
9100 9937
9100 9938
9101 9938
9101 9939
9102 9939
9102 9940
9103 9940
9103 9941
9104 9941
9104 9942
9105 9942
9105 9943
9106 9943
9106 9944
9107 9946
9107 9958
9107 9959
9107 16718
9107 16719
9108 9946
9108 9947
9109 9947
9109 9948
9110 9948
9110 9949
9111 9949
9111 9950
9112 9950
9112 9951
9113 9951
9113 9952
9114 9952
9114 9953
9115 9953
9115 9954
9116 9954
9116 9955
9117 9955
9117 9956
9118 9956
9118 9957
9119 9957
9119 9958
9120 9960
9120 9965
9120 9973
9121 9960
9121 9961
9122 9961
9122 9962
9123 9962
9123 9963
9124 9963
9124 9964
9125 9964
9125 9965
9126 9966
9126 9972
9126 9973
9126 9982
9127 9966
9127 9967
9128 9967
9128 9968
9129 9968
9129 9969
9130 9969
9130 9970
9131 9970
9131 9971
9132 9971
9132 9972
9133 9974
9133 9981
9133 9982
9133 9992
9134 9974
9134 9975
9135 9975
9135 9976
9136 9976
9136 9977
9137 9977
9137 9978
9138 9978
9138 9979
9139 9979
9139 9980
9140 9980
9140 9981
9141 9983
9141 9991
9141 9992
9141 10003
9142 9983
9142 9984
9143 9984
9143 9985
9144 9985
9144 9986
9145 9986
9145 9987
9146 9987
9146 9988
9147 9988
9147 9989
9148 9989
9148 9990
9149 9990
9149 9991
9150 9993
9150 10002
9150 10003
9150 10015
9151 9993
9151 9994
9152 9994
9152 9995
9153 9995
9153 9996
9154 9996
9154 9997
9155 9997
9155 9998
9156 9998
9156 9999
9157 9999
9157 10000
9158 10000
9158 10001
9159 10001
9159 10002
9160 10004
9160 10014
9160 10015
9160 10028
9161 10004
9161 10005
9162 10005
9162 10006
9163 10006
9163 10007
9164 10007
9164 10008
9165 10008
9165 10009
9166 10009
9166 10010
9167 10010
9167 10011
9168 10011
9168 10012
9169 10012
9169 10013
9170 10013
9170 10014
9171 10016
9171 10027
9171 10028
9171 10042
9172 10016
9172 10017
9173 10017
9173 10018
9174 10018
9174 10019
9175 10019
9175 10020
9176 10020
9176 10021
9177 10021
9177 10022
9178 10022
9178 10023
9179 10023
9179 10024
9180 10024
9180 10025
9181 10025
9181 10026
9182 10026
9182 10027
9183 10029
9183 10041
9183 10042
9183 16719
9183 16720
9184 10029
9184 10030
9185 10030
9185 10031
9186 10031
9186 10032
9187 10032
9187 10033
9188 10033
9188 10034
9189 10034
9189 10035
9190 10035
9190 10036
9191 10036
9191 10037
9192 10037
9192 10038
9193 10038
9193 10039
9194 10039
9194 10040
9195 10040
9195 10041
9196 10043
9196 10048
9196 10056
9197 10043
9197 10044
9198 10044
9198 10045
9199 10045
9199 10046
9200 10046
9200 10047
9201 10047
9201 10048
9202 10049
9202 10055
9202 10056
9202 10065
9203 10049
9203 10050
9204 10050
9204 10051
9205 10051
9205 10052
9206 10052
9206 10053
9207 10053
9207 10054
9208 10054
9208 10055
9209 10057
9209 10064
9209 10065
9209 10075
9210 10057
9210 10058
9211 10058
9211 10059
9212 10059
9212 10060
9213 10060
9213 10061
9214 10061
9214 10062
9215 10062
9215 10063
9216 10063
9216 10064
9217 10066
9217 10074
9217 10075
9217 10086
9218 10066
9218 10067
9219 10067
9219 10068
9220 10068
9220 10069
9221 10069
9221 10070
9222 10070
9222 10071
9223 10071
9223 10072
9224 10072
9224 10073
9225 10073
9225 10074
9226 10076
9226 10085
9226 10086
9226 10098
9227 10076
9227 10077
9228 10077
9228 10078
9229 10078
9229 10079
9230 10079
9230 10080
9231 10080
9231 10081
9232 10081
9232 10082
9233 10082
9233 10083
9234 10083
9234 10084
9235 10084
9235 10085
9236 10087
9236 10097
9236 10098
9236 10111
9237 10087
9237 10088
9238 10088
9238 10089
9239 10089
9239 10090
9240 10090
9240 10091
9241 10091
9241 10092
9242 10092
9242 10093
9243 10093
9243 10094
9244 10094
9244 10095
9245 10095
9245 10096
9246 10096
9246 10097
9247 10099
9247 10110
9247 10111
9247 10125
9248 10099
9248 10100
9249 10100
9249 10101
9250 10101
9250 10102
9251 10102
9251 10103
9252 10103
9252 10104
9253 10104
9253 10105
9254 10105
9254 10106
9255 10106
9255 10107
9256 10107
9256 10108
9257 10108
9257 10109
9258 10109
9258 10110
9259 10112
9259 10124
9259 10125
9259 16720
9259 16721
9260 10112
9260 10113
9261 10113
9261 10114
9262 10114
9262 10115
9263 10115
9263 10116
9264 10116
9264 10117
9265 10117
9265 10118
9266 10118
9266 10119
9267 10119
9267 10120
9268 10120
9268 10121
9269 10121
9269 10122
9270 10122
9270 10123
9271 10123
9271 10124
9272 10126
9272 10131
9272 10139
9273 10126
9273 10127
9274 10127
9274 10128
9275 10128
9275 10129
9276 10129
9276 10130
9277 10130
9277 10131
9278 10132
9278 10138
9278 10139
9278 10148
9279 10132
9279 10133
9280 10133
9280 10134
9281 10134
9281 10135
9282 10135
9282 10136
9283 10136
9283 10137
9284 10137
9284 10138
9285 10140
9285 10147
9285 10148
9285 10158
9286 10140
9286 10141
9287 10141
9287 10142
9288 10142
9288 10143
9289 10143
9289 10144
9290 10144
9290 10145
9291 10145
9291 10146
9292 10146
9292 10147
9293 10149
9293 10157
9293 10158
9293 10169
9294 10149
9294 10150
9295 10150
9295 10151
9296 10151
9296 10152
9297 10152
9297 10153
9298 10153
9298 10154
9299 10154
9299 10155
9300 10155
9300 10156
9301 10156
9301 10157
9302 10159
9302 10168
9302 10169
9302 10181
9303 10159
9303 10160
9304 10160
9304 10161
9305 10161
9305 10162
9306 10162
9306 10163
9307 10163
9307 10164
9308 10164
9308 10165
9309 10165
9309 10166
9310 10166
9310 10167
9311 10167
9311 10168
9312 10170
9312 10180
9312 10181
9312 10194
9313 10170
9313 10171
9314 10171
9314 10172
9315 10172
9315 10173
9316 10173
9316 10174
9317 10174
9317 10175
9318 10175
9318 10176
9319 10176
9319 10177
9320 10177
9320 10178
9321 10178
9321 10179
9322 10179
9322 10180
9323 10182
9323 10193
9323 10194
9323 10208
9324 10182
9324 10183
9325 10183
9325 10184
9326 10184
9326 10185
9327 10185
9327 10186
9328 10186
9328 10187
9329 10187
9329 10188
9330 10188
9330 10189
9331 10189
9331 10190
9332 10190
9332 10191
9333 10191
9333 10192
9334 10192
9334 10193
9335 10195
9335 10207
9335 10208
9335 16721
9335 16722
9336 10195
9336 10196
9337 10196
9337 10197
9338 10197
9338 10198
9339 10198
9339 10199
9340 10199
9340 10200
9341 10200
9341 10201
9342 10201
9342 10202
9343 10202
9343 10203
9344 10203
9344 10204
9345 10204
9345 10205
9346 10205
9346 10206
9347 10206
9347 10207
9348 10209
9348 10214
9348 10222
9349 10209
9349 10210
9350 10210
9350 10211
9351 10211
9351 10212
9352 10212
9352 10213
9353 10213
9353 10214
9354 10215
9354 10221
9354 10222
9354 10231
9355 10215
9355 10216
9356 10216
9356 10217
9357 10217
9357 10218
9358 10218
9358 10219
9359 10219
9359 10220
9360 10220
9360 10221
9361 10223
9361 10230
9361 10231
9361 10241
9362 10223
9362 10224
9363 10224
9363 10225
9364 10225
9364 10226
9365 10226
9365 10227
9366 10227
9366 10228
9367 10228
9367 10229
9368 10229
9368 10230
9369 10232
9369 10240
9369 10241
9369 10252
9370 10232
9370 10233
9371 10233
9371 10234
9372 10234
9372 10235
9373 10235
9373 10236
9374 10236
9374 10237
9375 10237
9375 10238
9376 10238
9376 10239
9377 10239
9377 10240
9378 10242
9378 10251
9378 10252
9378 10264
9379 10242
9379 10243
9380 10243
9380 10244
9381 10244
9381 10245
9382 10245
9382 10246
9383 10246
9383 10247
9384 10247
9384 10248
9385 10248
9385 10249
9386 10249
9386 10250
9387 10250
9387 10251
9388 10253
9388 10263
9388 10264
9388 10277
9389 10253
9389 10254
9390 10254
9390 10255
9391 10255
9391 10256
9392 10256
9392 10257
9393 10257
9393 10258
9394 10258
9394 10259
9395 10259
9395 10260
9396 10260
9396 10261
9397 10261
9397 10262
9398 10262
9398 10263
9399 10265
9399 10276
9399 10277
9399 10291
9400 10265
9400 10266
9401 10266
9401 10267
9402 10267
9402 10268
9403 10268
9403 10269
9404 10269
9404 10270
9405 10270
9405 10271
9406 10271
9406 10272
9407 10272
9407 10273
9408 10273
9408 10274
9409 10274
9409 10275
9410 10275
9410 10276
9411 10278
9411 10290
9411 10291
9411 16722
9411 16723
9412 10278
9412 10279
9413 10279
9413 10280
9414 10280
9414 10281
9415 10281
9415 10282
9416 10282
9416 10283
9417 10283
9417 10284
9418 10284
9418 10285
9419 10285
9419 10286
9420 10286
9420 10287
9421 10287
9421 10288
9422 10288
9422 10289
9423 10289
9423 10290
9424 10292
9424 10297
9424 10305
9425 10292
9425 10293
9426 10293
9426 10294
9427 10294
9427 10295
9428 10295
9428 10296
9429 10296
9429 10297
9430 10298
9430 10304
9430 10305
9430 10314
9431 10298
9431 10299
9432 10299
9432 10300
9433 10300
9433 10301
9434 10301
9434 10302
9435 10302
9435 10303
9436 10303
9436 10304
9437 10306
9437 10313
9437 10314
9437 10324
9438 10306
9438 10307
9439 10307
9439 10308
9440 10308
9440 10309
9441 10309
9441 10310
9442 10310
9442 10311
9443 10311
9443 10312
9444 10312
9444 10313
9445 10315
9445 10323
9445 10324
9445 10335
9446 10315
9446 10316
9447 10316
9447 10317
9448 10317
9448 10318
9449 10318
9449 10319
9450 10319
9450 10320
9451 10320
9451 10321
9452 10321
9452 10322
9453 10322
9453 10323
9454 10325
9454 10334
9454 10335
9454 10347
9455 10325
9455 10326
9456 10326
9456 10327
9457 10327
9457 10328
9458 10328
9458 10329
9459 10329
9459 10330
9460 10330
9460 10331
9461 10331
9461 10332
9462 10332
9462 10333
9463 10333
9463 10334
9464 10336
9464 10346
9464 10347
9464 10360
9465 10336
9465 10337
9466 10337
9466 10338
9467 10338
9467 10339
9468 10339
9468 10340
9469 10340
9469 10341
9470 10341
9470 10342
9471 10342
9471 10343
9472 10343
9472 10344
9473 10344
9473 10345
9474 10345
9474 10346
9475 10348
9475 10359
9475 10360
9475 10374
9476 10348
9476 10349
9477 10349
9477 10350
9478 10350
9478 10351
9479 10351
9479 10352
9480 10352
9480 10353
9481 10353
9481 10354
9482 10354
9482 10355
9483 10355
9483 10356
9484 10356
9484 10357
9485 10357
9485 10358
9486 10358
9486 10359
9487 10361
9487 10373
9487 10374
9487 16723
9487 16724
9488 10361
9488 10362
9489 10362
9489 10363
9490 10363
9490 10364
9491 10364
9491 10365
9492 10365
9492 10366
9493 10366
9493 10367
9494 10367
9494 10368
9495 10368
9495 10369
9496 10369
9496 10370
9497 10370
9497 10371
9498 10371
9498 10372
9499 10372
9499 10373
9500 10375
9500 10380
9500 10388
9501 10375
9501 10376
9502 10376
9502 10377
9503 10377
9503 10378
9504 10378
9504 10379
9505 10379
9505 10380
9506 10381
9506 10387
9506 10388
9506 10397
9507 10381
9507 10382
9508 10382
9508 10383
9509 10383
9509 10384
9510 10384
9510 10385
9511 10385
9511 10386
9512 10386
9512 10387
9513 10389
9513 10396
9513 10397
9513 10407
9514 10389
9514 10390
9515 10390
9515 10391
9516 10391
9516 10392
9517 10392
9517 10393
9518 10393
9518 10394
9519 10394
9519 10395
9520 10395
9520 10396
9521 10398
9521 10406
9521 10407
9521 10418
9522 10398
9522 10399
9523 10399
9523 10400
9524 10400
9524 10401
9525 10401
9525 10402
9526 10402
9526 10403
9527 10403
9527 10404
9528 10404
9528 10405
9529 10405
9529 10406
9530 10408
9530 10417
9530 10418
9530 10430
9531 10408
9531 10409
9532 10409
9532 10410
9533 10410
9533 10411
9534 10411
9534 10412
9535 10412
9535 10413
9536 10413
9536 10414
9537 10414
9537 10415
9538 10415
9538 10416
9539 10416
9539 10417
9540 10419
9540 10429
9540 10430
9540 10443
9541 10419
9541 10420
9542 10420
9542 10421
9543 10421
9543 10422
9544 10422
9544 10423
9545 10423
9545 10424
9546 10424
9546 10425
9547 10425
9547 10426
9548 10426
9548 10427
9549 10427
9549 10428
9550 10428
9550 10429
9551 10431
9551 10442
9551 10443
9551 10457
9552 10431
9552 10432
9553 10432
9553 10433
9554 10433
9554 10434
9555 10434
9555 10435
9556 10435
9556 10436
9557 10436
9557 10437
9558 10437
9558 10438
9559 10438
9559 10439
9560 10439
9560 10440
9561 10440
9561 10441
9562 10441
9562 10442
9563 10444
9563 10456
9563 10457
9563 16724
9563 16725
9564 10444
9564 10445
9565 10445
9565 10446
9566 10446
9566 10447
9567 10447
9567 10448
9568 10448
9568 10449
9569 10449
9569 10450
9570 10450
9570 10451
9571 10451
9571 10452
9572 10452
9572 10453
9573 10453
9573 10454
9574 10454
9574 10455
9575 10455
9575 10456
9576 10458
9576 10463
9576 10471
9577 10458
9577 10459
9578 10459
9578 10460
9579 10460
9579 10461
9580 10461
9580 10462
9581 10462
9581 10463
9582 10464
9582 10470
9582 10471
9582 10480
9583 10464
9583 10465
9584 10465
9584 10466
9585 10466
9585 10467
9586 10467
9586 10468
9587 10468
9587 10469
9588 10469
9588 10470
9589 10472
9589 10479
9589 10480
9589 10490
9590 10472
9590 10473
9591 10473
9591 10474
9592 10474
9592 10475
9593 10475
9593 10476
9594 10476
9594 10477
9595 10477
9595 10478
9596 10478
9596 10479
9597 10481
9597 10489
9597 10490
9597 10501
9598 10481
9598 10482
9599 10482
9599 10483
9600 10483
9600 10484
9601 10484
9601 10485
9602 10485
9602 10486
9603 10486
9603 10487
9604 10487
9604 10488
9605 10488
9605 10489
9606 10491
9606 10500
9606 10501
9606 10513
9607 10491
9607 10492
9608 10492
9608 10493
9609 10493
9609 10494
9610 10494
9610 10495
9611 10495
9611 10496
9612 10496
9612 10497
9613 10497
9613 10498
9614 10498
9614 10499
9615 10499
9615 10500
9616 10502
9616 10512
9616 10513
9616 10526
9617 10502
9617 10503
9618 10503
9618 10504
9619 10504
9619 10505
9620 10505
9620 10506
9621 10506
9621 10507
9622 10507
9622 10508
9623 10508
9623 10509
9624 10509
9624 10510
9625 10510
9625 10511
9626 10511
9626 10512
9627 10514
9627 10525
9627 10526
9627 10540
9628 10514
9628 10515
9629 10515
9629 10516
9630 10516
9630 10517
9631 10517
9631 10518
9632 10518
9632 10519
9633 10519
9633 10520
9634 10520
9634 10521
9635 10521
9635 10522
9636 10522
9636 10523
9637 10523
9637 10524
9638 10524
9638 10525
9639 10527
9639 10539
9639 10540
9639 16725
9639 16726
9640 10527
9640 10528
9641 10528
9641 10529
9642 10529
9642 10530
9643 10530
9643 10531
9644 10531
9644 10532
9645 10532
9645 10533
9646 10533
9646 10534
9647 10534
9647 10535
9648 10535
9648 10536
9649 10536
9649 10537
9650 10537
9650 10538
9651 10538
9651 10539
9652 10541
9652 10546
9652 10554
9653 10541
9653 10542
9654 10542
9654 10543
9655 10543
9655 10544
9656 10544
9656 10545
9657 10545
9657 10546
9658 10547
9658 10553
9658 10554
9658 10563
9659 10547
9659 10548
9660 10548
9660 10549
9661 10549
9661 10550
9662 10550
9662 10551
9663 10551
9663 10552
9664 10552
9664 10553
9665 10555
9665 10562
9665 10563
9665 10573
9666 10555
9666 10556
9667 10556
9667 10557
9668 10557
9668 10558
9669 10558
9669 10559
9670 10559
9670 10560
9671 10560
9671 10561
9672 10561
9672 10562
9673 10564
9673 10572
9673 10573
9673 10584
9674 10564
9674 10565
9675 10565
9675 10566
9676 10566
9676 10567
9677 10567
9677 10568
9678 10568
9678 10569
9679 10569
9679 10570
9680 10570
9680 10571
9681 10571
9681 10572
9682 10574
9682 10583
9682 10584
9682 10596
9683 10574
9683 10575
9684 10575
9684 10576
9685 10576
9685 10577
9686 10577
9686 10578
9687 10578
9687 10579
9688 10579
9688 10580
9689 10580
9689 10581
9690 10581
9690 10582
9691 10582
9691 10583
9692 10585
9692 10595
9692 10596
9692 10609
9693 10585
9693 10586
9694 10586
9694 10587
9695 10587
9695 10588
9696 10588
9696 10589
9697 10589
9697 10590
9698 10590
9698 10591
9699 10591
9699 10592
9700 10592
9700 10593
9701 10593
9701 10594
9702 10594
9702 10595
9703 10597
9703 10608
9703 10609
9703 10623
9704 10597
9704 10598
9705 10598
9705 10599
9706 10599
9706 10600
9707 10600
9707 10601
9708 10601
9708 10602
9709 10602
9709 10603
9710 10603
9710 10604
9711 10604
9711 10605
9712 10605
9712 10606
9713 10606
9713 10607
9714 10607
9714 10608
9715 10610
9715 10622
9715 10623
9715 16726
9715 16727
9716 10610
9716 10611
9717 10611
9717 10612
9718 10612
9718 10613
9719 10613
9719 10614
9720 10614
9720 10615
9721 10615
9721 10616
9722 10616
9722 10617
9723 10617
9723 10618
9724 10618
9724 10619
9725 10619
9725 10620
9726 10620
9726 10621
9727 10621
9727 10622
9728 10624
9728 10629
9728 10637
9729 10624
9729 10625
9730 10625
9730 10626
9731 10626
9731 10627
9732 10627
9732 10628
9733 10628
9733 10629
9734 10630
9734 10636
9734 10637
9734 10646
9735 10630
9735 10631
9736 10631
9736 10632
9737 10632
9737 10633
9738 10633
9738 10634
9739 10634
9739 10635
9740 10635
9740 10636
9741 10638
9741 10645
9741 10646
9741 10656
9742 10638
9742 10639
9743 10639
9743 10640
9744 10640
9744 10641
9745 10641
9745 10642
9746 10642
9746 10643
9747 10643
9747 10644
9748 10644
9748 10645
9749 10647
9749 10655
9749 10656
9749 10667
9750 10647
9750 10648
9751 10648
9751 10649
9752 10649
9752 10650
9753 10650
9753 10651
9754 10651
9754 10652
9755 10652
9755 10653
9756 10653
9756 10654
9757 10654
9757 10655
9758 10657
9758 10666
9758 10667
9758 10679
9759 10657
9759 10658
9760 10658
9760 10659
9761 10659
9761 10660
9762 10660
9762 10661
9763 10661
9763 10662
9764 10662
9764 10663
9765 10663
9765 10664
9766 10664
9766 10665
9767 10665
9767 10666
9768 10668
9768 10678
9768 10679
9768 10692
9769 10668
9769 10669
9770 10669
9770 10670
9771 10670
9771 10671
9772 10671
9772 10672
9773 10672
9773 10673
9774 10673
9774 10674
9775 10674
9775 10675
9776 10675
9776 10676
9777 10676
9777 10677
9778 10677
9778 10678
9779 10680
9779 10691
9779 10692
9779 10706
9780 10680
9780 10681
9781 10681
9781 10682
9782 10682
9782 10683
9783 10683
9783 10684
9784 10684
9784 10685
9785 10685
9785 10686
9786 10686
9786 10687
9787 10687
9787 10688
9788 10688
9788 10689
9789 10689
9789 10690
9790 10690
9790 10691
9791 10693
9791 10705
9791 10706
9791 16727
9791 16728
9792 10693
9792 10694
9793 10694
9793 10695
9794 10695
9794 10696
9795 10696
9795 10697
9796 10697
9796 10698
9797 10698
9797 10699
9798 10699
9798 10700
9799 10700
9799 10701
9800 10701
9800 10702
9801 10702
9801 10703
9802 10703
9802 10704
9803 10704
9803 10705
9804 10707
9804 10712
9804 10720
9805 10707
9805 10708
9806 10708
9806 10709
9807 10709
9807 10710
9808 10710
9808 10711
9809 10711
9809 10712
9810 10713
9810 10719
9810 10720
9810 10729
9811 10713
9811 10714
9812 10714
9812 10715
9813 10715
9813 10716
9814 10716
9814 10717
9815 10717
9815 10718
9816 10718
9816 10719
9817 10721
9817 10728
9817 10729
9817 10739
9818 10721
9818 10722
9819 10722
9819 10723
9820 10723
9820 10724
9821 10724
9821 10725
9822 10725
9822 10726
9823 10726
9823 10727
9824 10727
9824 10728
9825 10730
9825 10738
9825 10739
9825 10750
9826 10730
9826 10731
9827 10731
9827 10732
9828 10732
9828 10733
9829 10733
9829 10734
9830 10734
9830 10735
9831 10735
9831 10736
9832 10736
9832 10737
9833 10737
9833 10738
9834 10740
9834 10749
9834 10750
9834 10762
9835 10740
9835 10741
9836 10741
9836 10742
9837 10742
9837 10743
9838 10743
9838 10744
9839 10744
9839 10745
9840 10745
9840 10746
9841 10746
9841 10747
9842 10747
9842 10748
9843 10748
9843 10749
9844 10751
9844 10761
9844 10762
9844 10775
9845 10751
9845 10752
9846 10752
9846 10753
9847 10753
9847 10754
9848 10754
9848 10755
9849 10755
9849 10756
9850 10756
9850 10757
9851 10757
9851 10758
9852 10758
9852 10759
9853 10759
9853 10760
9854 10760
9854 10761
9855 10763
9855 10774
9855 10775
9855 10789
9856 10763
9856 10764
9857 10764
9857 10765
9858 10765
9858 10766
9859 10766
9859 10767
9860 10767
9860 10768
9861 10768
9861 10769
9862 10769
9862 10770
9863 10770
9863 10771
9864 10771
9864 10772
9865 10772
9865 10773
9866 10773
9866 10774
9867 10776
9867 10788
9867 10789
9867 16728
9867 16729
9868 10776
9868 10777
9869 10777
9869 10778
9870 10778
9870 10779
9871 10779
9871 10780
9872 10780
9872 10781
9873 10781
9873 10782
9874 10782
9874 10783
9875 10783
9875 10784
9876 10784
9876 10785
9877 10785
9877 10786
9878 10786
9878 10787
9879 10787
9879 10788
9880 10790
9880 10795
9880 10803
9881 10790
9881 10791
9882 10791
9882 10792
9883 10792
9883 10793
9884 10793
9884 10794
9885 10794
9885 10795
9886 10796
9886 10802
9886 10803
9886 10812
9887 10796
9887 10797
9888 10797
9888 10798
9889 10798
9889 10799
9890 10799
9890 10800
9891 10800
9891 10801
9892 10801
9892 10802
9893 10804
9893 10811
9893 10812
9893 10822
9894 10804
9894 10805
9895 10805
9895 10806
9896 10806
9896 10807
9897 10807
9897 10808
9898 10808
9898 10809
9899 10809
9899 10810
9900 10810
9900 10811
9901 10813
9901 10821
9901 10822
9901 10833
9902 10813
9902 10814
9903 10814
9903 10815
9904 10815
9904 10816
9905 10816
9905 10817
9906 10817
9906 10818
9907 10818
9907 10819
9908 10819
9908 10820
9909 10820
9909 10821
9910 10823
9910 10832
9910 10833
9910 10845
9911 10823
9911 10824
9912 10824
9912 10825
9913 10825
9913 10826
9914 10826
9914 10827
9915 10827
9915 10828
9916 10828
9916 10829
9917 10829
9917 10830
9918 10830
9918 10831
9919 10831
9919 10832
9920 10834
9920 10844
9920 10845
9920 10858
9921 10834
9921 10835
9922 10835
9922 10836
9923 10836
9923 10837
9924 10837
9924 10838
9925 10838
9925 10839
9926 10839
9926 10840
9927 10840
9927 10841
9928 10841
9928 10842
9929 10842
9929 10843
9930 10843
9930 10844
9931 10846
9931 10857
9931 10858
9931 10872
9932 10846
9932 10847
9933 10847
9933 10848
9934 10848
9934 10849
9935 10849
9935 10850
9936 10850
9936 10851
9937 10851
9937 10852
9938 10852
9938 10853
9939 10853
9939 10854
9940 10854
9940 10855
9941 10855
9941 10856
9942 10856
9942 10857
9943 10859
9943 10871
9943 10872
9943 16729
9943 16730
9944 10859
9944 10860
9945 10860
9945 10861
9946 10861
9946 10862
9947 10862
9947 10863
9948 10863
9948 10864
9949 10864
9949 10865
9950 10865
9950 10866
9951 10866
9951 10867
9952 10867
9952 10868
9953 10868
9953 10869
9954 10869
9954 10870
9955 10870
9955 10871
9956 10873
9956 10878
9956 10886
9957 10873
9957 10874
9958 10874
9958 10875
9959 10875
9959 10876
9960 10876
9960 10877
9961 10877
9961 10878
9962 10879
9962 10885
9962 10886
9962 10895
9963 10879
9963 10880
9964 10880
9964 10881
9965 10881
9965 10882
9966 10882
9966 10883
9967 10883
9967 10884
9968 10884
9968 10885
9969 10887
9969 10894
9969 10895
9969 10905
9970 10887
9970 10888
9971 10888
9971 10889
9972 10889
9972 10890
9973 10890
9973 10891
9974 10891
9974 10892
9975 10892
9975 10893
9976 10893
9976 10894
9977 10896
9977 10904
9977 10905
9977 10916
9978 10896
9978 10897
9979 10897
9979 10898
9980 10898
9980 10899
9981 10899
9981 10900
9982 10900
9982 10901
9983 10901
9983 10902
9984 10902
9984 10903
9985 10903
9985 10904
9986 10906
9986 10915
9986 10916
9986 10928
9987 10906
9987 10907
9988 10907
9988 10908
9989 10908
9989 10909
9990 10909
9990 10910
9991 10910
9991 10911
9992 10911
9992 10912
9993 10912
9993 10913
9994 10913
9994 10914
9995 10914
9995 10915
9996 10917
9996 10927
9996 10928
9996 10941
9997 10917
9997 10918
9998 10918
9998 10919
9999 10919
9999 10920
10000 10920
10000 10921
10001 10921
10001 10922
10002 10922
10002 10923
10003 10923
10003 10924
10004 10924
10004 10925
10005 10925
10005 10926
10006 10926
10006 10927
10007 10929
10007 10940
10007 10941
10007 10955
10008 10929
10008 10930
10009 10930
10009 10931
10010 10931
10010 10932
10011 10932
10011 10933
10012 10933
10012 10934
10013 10934
10013 10935
10014 10935
10014 10936
10015 10936
10015 10937
10016 10937
10016 10938
10017 10938
10017 10939
10018 10939
10018 10940
10019 10942
10019 10954
10019 10955
10019 16730
10019 16731
10020 10942
10020 10943
10021 10943
10021 10944
10022 10944
10022 10945
10023 10945
10023 10946
10024 10946
10024 10947
10025 10947
10025 10948
10026 10948
10026 10949
10027 10949
10027 10950
10028 10950
10028 10951
10029 10951
10029 10952
10030 10952
10030 10953
10031 10953
10031 10954
10032 10956
10032 10961
10032 10969
10033 10956
10033 10957
10034 10957
10034 10958
10035 10958
10035 10959
10036 10959
10036 10960
10037 10960
10037 10961
10038 10962
10038 10968
10038 10969
10038 10978
10039 10962
10039 10963
10040 10963
10040 10964
10041 10964
10041 10965
10042 10965
10042 10966
10043 10966
10043 10967
10044 10967
10044 10968
10045 10970
10045 10977
10045 10978
10045 10988
10046 10970
10046 10971
10047 10971
10047 10972
10048 10972
10048 10973
10049 10973
10049 10974
10050 10974
10050 10975
10051 10975
10051 10976
10052 10976
10052 10977
10053 10979
10053 10987
10053 10988
10053 10999
10054 10979
10054 10980
10055 10980
10055 10981
10056 10981
10056 10982
10057 10982
10057 10983
10058 10983
10058 10984
10059 10984
10059 10985
10060 10985
10060 10986
10061 10986
10061 10987
10062 10989
10062 10998
10062 10999
10062 11011
10063 10989
10063 10990
10064 10990
10064 10991
10065 10991
10065 10992
10066 10992
10066 10993
10067 10993
10067 10994
10068 10994
10068 10995
10069 10995
10069 10996
10070 10996
10070 10997
10071 10997
10071 10998
10072 11000
10072 11010
10072 11011
10072 11024
10073 11000
10073 11001
10074 11001
10074 11002
10075 11002
10075 11003
10076 11003
10076 11004
10077 11004
10077 11005
10078 11005
10078 11006
10079 11006
10079 11007
10080 11007
10080 11008
10081 11008
10081 11009
10082 11009
10082 11010
10083 11012
10083 11023
10083 11024
10083 11038
10084 11012
10084 11013
10085 11013
10085 11014
10086 11014
10086 11015
10087 11015
10087 11016
10088 11016
10088 11017
10089 11017
10089 11018
10090 11018
10090 11019
10091 11019
10091 11020
10092 11020
10092 11021
10093 11021
10093 11022
10094 11022
10094 11023
10095 11025
10095 11037
10095 11038
10095 16731
10095 16732
10096 11025
10096 11026
10097 11026
10097 11027
10098 11027
10098 11028
10099 11028
10099 11029
10100 11029
10100 11030
10101 11030
10101 11031
10102 11031
10102 11032
10103 11032
10103 11033
10104 11033
10104 11034
10105 11034
10105 11035
10106 11035
10106 11036
10107 11036
10107 11037
10108 11039
10108 11044
10108 11052
10109 11039
10109 11040
10110 11040
10110 11041
10111 11041
10111 11042
10112 11042
10112 11043
10113 11043
10113 11044
10114 11045
10114 11051
10114 11052
10114 11061
10115 11045
10115 11046
10116 11046
10116 11047
10117 11047
10117 11048
10118 11048
10118 11049
10119 11049
10119 11050
10120 11050
10120 11051
10121 11053
10121 11060
10121 11061
10121 11071
10122 11053
10122 11054
10123 11054
10123 11055
10124 11055
10124 11056
10125 11056
10125 11057
10126 11057
10126 11058
10127 11058
10127 11059
10128 11059
10128 11060
10129 11062
10129 11070
10129 11071
10129 11082
10130 11062
10130 11063
10131 11063
10131 11064
10132 11064
10132 11065
10133 11065
10133 11066
10134 11066
10134 11067
10135 11067
10135 11068
10136 11068
10136 11069
10137 11069
10137 11070
10138 11072
10138 11081
10138 11082
10138 11094
10139 11072
10139 11073
10140 11073
10140 11074
10141 11074
10141 11075
10142 11075
10142 11076
10143 11076
10143 11077
10144 11077
10144 11078
10145 11078
10145 11079
10146 11079
10146 11080
10147 11080
10147 11081
10148 11083
10148 11093
10148 11094
10148 11107
10149 11083
10149 11084
10150 11084
10150 11085
10151 11085
10151 11086
10152 11086
10152 11087
10153 11087
10153 11088
10154 11088
10154 11089
10155 11089
10155 11090
10156 11090
10156 11091
10157 11091
10157 11092
10158 11092
10158 11093
10159 11095
10159 11106
10159 11107
10159 11121
10160 11095
10160 11096
10161 11096
10161 11097
10162 11097
10162 11098
10163 11098
10163 11099
10164 11099
10164 11100
10165 11100
10165 11101
10166 11101
10166 11102
10167 11102
10167 11103
10168 11103
10168 11104
10169 11104
10169 11105
10170 11105
10170 11106
10171 11108
10171 11120
10171 11121
10171 16732
10171 16733
10172 11108
10172 11109
10173 11109
10173 11110
10174 11110
10174 11111
10175 11111
10175 11112
10176 11112
10176 11113
10177 11113
10177 11114
10178 11114
10178 11115
10179 11115
10179 11116
10180 11116
10180 11117
10181 11117
10181 11118
10182 11118
10182 11119
10183 11119
10183 11120
10184 11122
10184 11127
10184 11135
10185 11122
10185 11123
10186 11123
10186 11124
10187 11124
10187 11125
10188 11125
10188 11126
10189 11126
10189 11127
10190 11128
10190 11134
10190 11135
10190 11144
10191 11128
10191 11129
10192 11129
10192 11130
10193 11130
10193 11131
10194 11131
10194 11132
10195 11132
10195 11133
10196 11133
10196 11134
10197 11136
10197 11143
10197 11144
10197 11154
10198 11136
10198 11137
10199 11137
10199 11138
10200 11138
10200 11139
10201 11139
10201 11140
10202 11140
10202 11141
10203 11141
10203 11142
10204 11142
10204 11143
10205 11145
10205 11153
10205 11154
10205 11165
10206 11145
10206 11146
10207 11146
10207 11147
10208 11147
10208 11148
10209 11148
10209 11149
10210 11149
10210 11150
10211 11150
10211 11151
10212 11151
10212 11152
10213 11152
10213 11153
10214 11155
10214 11164
10214 11165
10214 11177
10215 11155
10215 11156
10216 11156
10216 11157
10217 11157
10217 11158
10218 11158
10218 11159
10219 11159
10219 11160
10220 11160
10220 11161
10221 11161
10221 11162
10222 11162
10222 11163
10223 11163
10223 11164
10224 11166
10224 11176
10224 11177
10224 11190
10225 11166
10225 11167
10226 11167
10226 11168
10227 11168
10227 11169
10228 11169
10228 11170
10229 11170
10229 11171
10230 11171
10230 11172
10231 11172
10231 11173
10232 11173
10232 11174
10233 11174
10233 11175
10234 11175
10234 11176
10235 11178
10235 11189
10235 11190
10235 11204
10236 11178
10236 11179
10237 11179
10237 11180
10238 11180
10238 11181
10239 11181
10239 11182
10240 11182
10240 11183
10241 11183
10241 11184
10242 11184
10242 11185
10243 11185
10243 11186
10244 11186
10244 11187
10245 11187
10245 11188
10246 11188
10246 11189
10247 11191
10247 11203
10247 11204
10247 16733
10247 16734
10248 11191
10248 11192
10249 11192
10249 11193
10250 11193
10250 11194
10251 11194
10251 11195
10252 11195
10252 11196
10253 11196
10253 11197
10254 11197
10254 11198
10255 11198
10255 11199
10256 11199
10256 11200
10257 11200
10257 11201
10258 11201
10258 11202
10259 11202
10259 11203
10260 11205
10260 11210
10260 11218
10261 11205
10261 11206
10262 11206
10262 11207
10263 11207
10263 11208
10264 11208
10264 11209
10265 11209
10265 11210
10266 11211
10266 11217
10266 11218
10266 11227
10267 11211
10267 11212
10268 11212
10268 11213
10269 11213
10269 11214
10270 11214
10270 11215
10271 11215
10271 11216
10272 11216
10272 11217
10273 11219
10273 11226
10273 11227
10273 11237
10274 11219
10274 11220
10275 11220
10275 11221
10276 11221
10276 11222
10277 11222
10277 11223
10278 11223
10278 11224
10279 11224
10279 11225
10280 11225
10280 11226
10281 11228
10281 11236
10281 11237
10281 11248
10282 11228
10282 11229
10283 11229
10283 11230
10284 11230
10284 11231
10285 11231
10285 11232
10286 11232
10286 11233
10287 11233
10287 11234
10288 11234
10288 11235
10289 11235
10289 11236
10290 11238
10290 11247
10290 11248
10290 11260
10291 11238
10291 11239
10292 11239
10292 11240
10293 11240
10293 11241
10294 11241
10294 11242
10295 11242
10295 11243
10296 11243
10296 11244
10297 11244
10297 11245
10298 11245
10298 11246
10299 11246
10299 11247
10300 11249
10300 11259
10300 11260
10300 11273
10301 11249
10301 11250
10302 11250
10302 11251
10303 11251
10303 11252
10304 11252
10304 11253
10305 11253
10305 11254
10306 11254
10306 11255
10307 11255
10307 11256
10308 11256
10308 11257
10309 11257
10309 11258
10310 11258
10310 11259
10311 11261
10311 11272
10311 11273
10311 11287
10312 11261
10312 11262
10313 11262
10313 11263
10314 11263
10314 11264
10315 11264
10315 11265
10316 11265
10316 11266
10317 11266
10317 11267
10318 11267
10318 11268
10319 11268
10319 11269
10320 11269
10320 11270
10321 11270
10321 11271
10322 11271
10322 11272
10323 11274
10323 11286
10323 11287
10323 16734
10323 16735
10324 11274
10324 11275
10325 11275
10325 11276
10326 11276
10326 11277
10327 11277
10327 11278
10328 11278
10328 11279
10329 11279
10329 11280
10330 11280
10330 11281
10331 11281
10331 11282
10332 11282
10332 11283
10333 11283
10333 11284
10334 11284
10334 11285
10335 11285
10335 11286
10336 11288
10336 11293
10336 11301
10337 11288
10337 11289
10338 11289
10338 11290
10339 11290
10339 11291
10340 11291
10340 11292
10341 11292
10341 11293
10342 11294
10342 11300
10342 11301
10342 11310
10343 11294
10343 11295
10344 11295
10344 11296
10345 11296
10345 11297
10346 11297
10346 11298
10347 11298
10347 11299
10348 11299
10348 11300
10349 11302
10349 11309
10349 11310
10349 11320
10350 11302
10350 11303
10351 11303
10351 11304
10352 11304
10352 11305
10353 11305
10353 11306
10354 11306
10354 11307
10355 11307
10355 11308
10356 11308
10356 11309
10357 11311
10357 11319
10357 11320
10357 11331
10358 11311
10358 11312
10359 11312
10359 11313
10360 11313
10360 11314
10361 11314
10361 11315
10362 11315
10362 11316
10363 11316
10363 11317
10364 11317
10364 11318
10365 11318
10365 11319
10366 11321
10366 11330
10366 11331
10366 11343
10367 11321
10367 11322
10368 11322
10368 11323
10369 11323
10369 11324
10370 11324
10370 11325
10371 11325
10371 11326
10372 11326
10372 11327
10373 11327
10373 11328
10374 11328
10374 11329
10375 11329
10375 11330
10376 11332
10376 11342
10376 11343
10376 11356
10377 11332
10377 11333
10378 11333
10378 11334
10379 11334
10379 11335
10380 11335
10380 11336
10381 11336
10381 11337
10382 11337
10382 11338
10383 11338
10383 11339
10384 11339
10384 11340
10385 11340
10385 11341
10386 11341
10386 11342
10387 11344
10387 11355
10387 11356
10387 11370
10388 11344
10388 11345
10389 11345
10389 11346
10390 11346
10390 11347
10391 11347
10391 11348
10392 11348
10392 11349
10393 11349
10393 11350
10394 11350
10394 11351
10395 11351
10395 11352
10396 11352
10396 11353
10397 11353
10397 11354
10398 11354
10398 11355
10399 11357
10399 11369
10399 11370
10399 16735
10399 16736
10400 11357
10400 11358
10401 11358
10401 11359
10402 11359
10402 11360
10403 11360
10403 11361
10404 11361
10404 11362
10405 11362
10405 11363
10406 11363
10406 11364
10407 11364
10407 11365
10408 11365
10408 11366
10409 11366
10409 11367
10410 11367
10410 11368
10411 11368
10411 11369
10412 11371
10412 11376
10412 11384
10413 11371
10413 11372
10414 11372
10414 11373
10415 11373
10415 11374
10416 11374
10416 11375
10417 11375
10417 11376
10418 11377
10418 11383
10418 11384
10418 11393
10419 11377
10419 11378
10420 11378
10420 11379
10421 11379
10421 11380
10422 11380
10422 11381
10423 11381
10423 11382
10424 11382
10424 11383
10425 11385
10425 11392
10425 11393
10425 11403
10426 11385
10426 11386
10427 11386
10427 11387
10428 11387
10428 11388
10429 11388
10429 11389
10430 11389
10430 11390
10431 11390
10431 11391
10432 11391
10432 11392
10433 11394
10433 11402
10433 11403
10433 11414
10434 11394
10434 11395
10435 11395
10435 11396
10436 11396
10436 11397
10437 11397
10437 11398
10438 11398
10438 11399
10439 11399
10439 11400
10440 11400
10440 11401
10441 11401
10441 11402
10442 11404
10442 11413
10442 11414
10442 11426
10443 11404
10443 11405
10444 11405
10444 11406
10445 11406
10445 11407
10446 11407
10446 11408
10447 11408
10447 11409
10448 11409
10448 11410
10449 11410
10449 11411
10450 11411
10450 11412
10451 11412
10451 11413
10452 11415
10452 11425
10452 11426
10452 11439
10453 11415
10453 11416
10454 11416
10454 11417
10455 11417
10455 11418
10456 11418
10456 11419
10457 11419
10457 11420
10458 11420
10458 11421
10459 11421
10459 11422
10460 11422
10460 11423
10461 11423
10461 11424
10462 11424
10462 11425
10463 11427
10463 11438
10463 11439
10463 11453
10464 11427
10464 11428
10465 11428
10465 11429
10466 11429
10466 11430
10467 11430
10467 11431
10468 11431
10468 11432
10469 11432
10469 11433
10470 11433
10470 11434
10471 11434
10471 11435
10472 11435
10472 11436
10473 11436
10473 11437
10474 11437
10474 11438
10475 11440
10475 11452
10475 11453
10475 16736
10475 16737
10476 11440
10476 11441
10477 11441
10477 11442
10478 11442
10478 11443
10479 11443
10479 11444
10480 11444
10480 11445
10481 11445
10481 11446
10482 11446
10482 11447
10483 11447
10483 11448
10484 11448
10484 11449
10485 11449
10485 11450
10486 11450
10486 11451
10487 11451
10487 11452
10488 11454
10488 11459
10488 11467
10489 11454
10489 11455
10490 11455
10490 11456
10491 11456
10491 11457
10492 11457
10492 11458
10493 11458
10493 11459
10494 11460
10494 11466
10494 11467
10494 11476
10495 11460
10495 11461
10496 11461
10496 11462
10497 11462
10497 11463
10498 11463
10498 11464
10499 11464
10499 11465
10500 11465
10500 11466
10501 11468
10501 11475
10501 11476
10501 11486
10502 11468
10502 11469
10503 11469
10503 11470
10504 11470
10504 11471
10505 11471
10505 11472
10506 11472
10506 11473
10507 11473
10507 11474
10508 11474
10508 11475
10509 11477
10509 11485
10509 11486
10509 11497
10510 11477
10510 11478
10511 11478
10511 11479
10512 11479
10512 11480
10513 11480
10513 11481
10514 11481
10514 11482
10515 11482
10515 11483
10516 11483
10516 11484
10517 11484
10517 11485
10518 11487
10518 11496
10518 11497
10518 11509
10519 11487
10519 11488
10520 11488
10520 11489
10521 11489
10521 11490
10522 11490
10522 11491
10523 11491
10523 11492
10524 11492
10524 11493
10525 11493
10525 11494
10526 11494
10526 11495
10527 11495
10527 11496
10528 11498
10528 11508
10528 11509
10528 11522
10529 11498
10529 11499
10530 11499
10530 11500
10531 11500
10531 11501
10532 11501
10532 11502
10533 11502
10533 11503
10534 11503
10534 11504
10535 11504
10535 11505
10536 11505
10536 11506
10537 11506
10537 11507
10538 11507
10538 11508
10539 11510
10539 11521
10539 11522
10539 11536
10540 11510
10540 11511
10541 11511
10541 11512
10542 11512
10542 11513
10543 11513
10543 11514
10544 11514
10544 11515
10545 11515
10545 11516
10546 11516
10546 11517
10547 11517
10547 11518
10548 11518
10548 11519
10549 11519
10549 11520
10550 11520
10550 11521
10551 11523
10551 11535
10551 11536
10551 16737
10551 16738
10552 11523
10552 11524
10553 11524
10553 11525
10554 11525
10554 11526
10555 11526
10555 11527
10556 11527
10556 11528
10557 11528
10557 11529
10558 11529
10558 11530
10559 11530
10559 11531
10560 11531
10560 11532
10561 11532
10561 11533
10562 11533
10562 11534
10563 11534
10563 11535
10564 11537
10564 11542
10564 11550
10565 11537
10565 11538
10566 11538
10566 11539
10567 11539
10567 11540
10568 11540
10568 11541
10569 11541
10569 11542
10570 11543
10570 11549
10570 11550
10570 11559
10571 11543
10571 11544
10572 11544
10572 11545
10573 11545
10573 11546
10574 11546
10574 11547
10575 11547
10575 11548
10576 11548
10576 11549
10577 11551
10577 11558
10577 11559
10577 11569
10578 11551
10578 11552
10579 11552
10579 11553
10580 11553
10580 11554
10581 11554
10581 11555
10582 11555
10582 11556
10583 11556
10583 11557
10584 11557
10584 11558
10585 11560
10585 11568
10585 11569
10585 11580
10586 11560
10586 11561
10587 11561
10587 11562
10588 11562
10588 11563
10589 11563
10589 11564
10590 11564
10590 11565
10591 11565
10591 11566
10592 11566
10592 11567
10593 11567
10593 11568
10594 11570
10594 11579
10594 11580
10594 11592
10595 11570
10595 11571
10596 11571
10596 11572
10597 11572
10597 11573
10598 11573
10598 11574
10599 11574
10599 11575
10600 11575
10600 11576
10601 11576
10601 11577
10602 11577
10602 11578
10603 11578
10603 11579
10604 11581
10604 11591
10604 11592
10604 11605
10605 11581
10605 11582
10606 11582
10606 11583
10607 11583
10607 11584
10608 11584
10608 11585
10609 11585
10609 11586
10610 11586
10610 11587
10611 11587
10611 11588
10612 11588
10612 11589
10613 11589
10613 11590
10614 11590
10614 11591
10615 11593
10615 11604
10615 11605
10615 11619
10616 11593
10616 11594
10617 11594
10617 11595
10618 11595
10618 11596
10619 11596
10619 11597
10620 11597
10620 11598
10621 11598
10621 11599
10622 11599
10622 11600
10623 11600
10623 11601
10624 11601
10624 11602
10625 11602
10625 11603
10626 11603
10626 11604
10627 11606
10627 11618
10627 11619
10627 16738
10627 16739
10628 11606
10628 11607
10629 11607
10629 11608
10630 11608
10630 11609
10631 11609
10631 11610
10632 11610
10632 11611
10633 11611
10633 11612
10634 11612
10634 11613
10635 11613
10635 11614
10636 11614
10636 11615
10637 11615
10637 11616
10638 11616
10638 11617
10639 11617
10639 11618
10640 11620
10640 11625
10640 11633
10641 11620
10641 11621
10642 11621
10642 11622
10643 11622
10643 11623
10644 11623
10644 11624
10645 11624
10645 11625
10646 11626
10646 11632
10646 11633
10646 11642
10647 11626
10647 11627
10648 11627
10648 11628
10649 11628
10649 11629
10650 11629
10650 11630
10651 11630
10651 11631
10652 11631
10652 11632
10653 11634
10653 11641
10653 11642
10653 11652
10654 11634
10654 11635
10655 11635
10655 11636
10656 11636
10656 11637
10657 11637
10657 11638
10658 11638
10658 11639
10659 11639
10659 11640
10660 11640
10660 11641
10661 11643
10661 11651
10661 11652
10661 11663
10662 11643
10662 11644
10663 11644
10663 11645
10664 11645
10664 11646
10665 11646
10665 11647
10666 11647
10666 11648
10667 11648
10667 11649
10668 11649
10668 11650
10669 11650
10669 11651
10670 11653
10670 11662
10670 11663
10670 11675
10671 11653
10671 11654
10672 11654
10672 11655
10673 11655
10673 11656
10674 11656
10674 11657
10675 11657
10675 11658
10676 11658
10676 11659
10677 11659
10677 11660
10678 11660
10678 11661
10679 11661
10679 11662
10680 11664
10680 11674
10680 11675
10680 11688
10681 11664
10681 11665
10682 11665
10682 11666
10683 11666
10683 11667
10684 11667
10684 11668
10685 11668
10685 11669
10686 11669
10686 11670
10687 11670
10687 11671
10688 11671
10688 11672
10689 11672
10689 11673
10690 11673
10690 11674
10691 11676
10691 11687
10691 11688
10691 11702
10692 11676
10692 11677
10693 11677
10693 11678
10694 11678
10694 11679
10695 11679
10695 11680
10696 11680
10696 11681
10697 11681
10697 11682
10698 11682
10698 11683
10699 11683
10699 11684
10700 11684
10700 11685
10701 11685
10701 11686
10702 11686
10702 11687
10703 11689
10703 11701
10703 11702
10703 16739
10703 16740
10704 11689
10704 11690
10705 11690
10705 11691
10706 11691
10706 11692
10707 11692
10707 11693
10708 11693
10708 11694
10709 11694
10709 11695
10710 11695
10710 11696
10711 11696
10711 11697
10712 11697
10712 11698
10713 11698
10713 11699
10714 11699
10714 11700
10715 11700
10715 11701
10716 11703
10716 11708
10716 11716
10717 11703
10717 11704
10718 11704
10718 11705
10719 11705
10719 11706
10720 11706
10720 11707
10721 11707
10721 11708
10722 11709
10722 11715
10722 11716
10722 11725
10723 11709
10723 11710
10724 11710
10724 11711
10725 11711
10725 11712
10726 11712
10726 11713
10727 11713
10727 11714
10728 11714
10728 11715
10729 11717
10729 11724
10729 11725
10729 11735
10730 11717
10730 11718
10731 11718
10731 11719
10732 11719
10732 11720
10733 11720
10733 11721
10734 11721
10734 11722
10735 11722
10735 11723
10736 11723
10736 11724
10737 11726
10737 11734
10737 11735
10737 11746
10738 11726
10738 11727
10739 11727
10739 11728
10740 11728
10740 11729
10741 11729
10741 11730
10742 11730
10742 11731
10743 11731
10743 11732
10744 11732
10744 11733
10745 11733
10745 11734
10746 11736
10746 11745
10746 11746
10746 11758
10747 11736
10747 11737
10748 11737
10748 11738
10749 11738
10749 11739
10750 11739
10750 11740
10751 11740
10751 11741
10752 11741
10752 11742
10753 11742
10753 11743
10754 11743
10754 11744
10755 11744
10755 11745
10756 11747
10756 11757
10756 11758
10756 11771
10757 11747
10757 11748
10758 11748
10758 11749
10759 11749
10759 11750
10760 11750
10760 11751
10761 11751
10761 11752
10762 11752
10762 11753
10763 11753
10763 11754
10764 11754
10764 11755
10765 11755
10765 11756
10766 11756
10766 11757
10767 11759
10767 11770
10767 11771
10767 11785
10768 11759
10768 11760
10769 11760
10769 11761
10770 11761
10770 11762
10771 11762
10771 11763
10772 11763
10772 11764
10773 11764
10773 11765
10774 11765
10774 11766
10775 11766
10775 11767
10776 11767
10776 11768
10777 11768
10777 11769
10778 11769
10778 11770
10779 11772
10779 11784
10779 11785
10779 16740
10779 16741
10780 11772
10780 11773
10781 11773
10781 11774
10782 11774
10782 11775
10783 11775
10783 11776
10784 11776
10784 11777
10785 11777
10785 11778
10786 11778
10786 11779
10787 11779
10787 11780
10788 11780
10788 11781
10789 11781
10789 11782
10790 11782
10790 11783
10791 11783
10791 11784
10792 11786
10792 11791
10792 11799
10793 11786
10793 11787
10794 11787
10794 11788
10795 11788
10795 11789
10796 11789
10796 11790
10797 11790
10797 11791
10798 11792
10798 11798
10798 11799
10798 11808
10799 11792
10799 11793
10800 11793
10800 11794
10801 11794
10801 11795
10802 11795
10802 11796
10803 11796
10803 11797
10804 11797
10804 11798
10805 11800
10805 11807
10805 11808
10805 11818
10806 11800
10806 11801
10807 11801
10807 11802
10808 11802
10808 11803
10809 11803
10809 11804
10810 11804
10810 11805
10811 11805
10811 11806
10812 11806
10812 11807
10813 11809
10813 11817
10813 11818
10813 11829
10814 11809
10814 11810
10815 11810
10815 11811
10816 11811
10816 11812
10817 11812
10817 11813
10818 11813
10818 11814
10819 11814
10819 11815
10820 11815
10820 11816
10821 11816
10821 11817
10822 11819
10822 11828
10822 11829
10822 11841
10823 11819
10823 11820
10824 11820
10824 11821
10825 11821
10825 11822
10826 11822
10826 11823
10827 11823
10827 11824
10828 11824
10828 11825
10829 11825
10829 11826
10830 11826
10830 11827
10831 11827
10831 11828
10832 11830
10832 11840
10832 11841
10832 11854
10833 11830
10833 11831
10834 11831
10834 11832
10835 11832
10835 11833
10836 11833
10836 11834
10837 11834
10837 11835
10838 11835
10838 11836
10839 11836
10839 11837
10840 11837
10840 11838
10841 11838
10841 11839
10842 11839
10842 11840
10843 11842
10843 11853
10843 11854
10843 11868
10844 11842
10844 11843
10845 11843
10845 11844
10846 11844
10846 11845
10847 11845
10847 11846
10848 11846
10848 11847
10849 11847
10849 11848
10850 11848
10850 11849
10851 11849
10851 11850
10852 11850
10852 11851
10853 11851
10853 11852
10854 11852
10854 11853
10855 11855
10855 11867
10855 11868
10855 16741
10855 16742
10856 11855
10856 11856
10857 11856
10857 11857
10858 11857
10858 11858
10859 11858
10859 11859
10860 11859
10860 11860
10861 11860
10861 11861
10862 11861
10862 11862
10863 11862
10863 11863
10864 11863
10864 11864
10865 11864
10865 11865
10866 11865
10866 11866
10867 11866
10867 11867
10868 11869
10868 11874
10868 11882
10869 11869
10869 11870
10870 11870
10870 11871
10871 11871
10871 11872
10872 11872
10872 11873
10873 11873
10873 11874
10874 11875
10874 11881
10874 11882
10874 11891
10875 11875
10875 11876
10876 11876
10876 11877
10877 11877
10877 11878
10878 11878
10878 11879
10879 11879
10879 11880
10880 11880
10880 11881
10881 11883
10881 11890
10881 11891
10881 11901
10882 11883
10882 11884
10883 11884
10883 11885
10884 11885
10884 11886
10885 11886
10885 11887
10886 11887
10886 11888
10887 11888
10887 11889
10888 11889
10888 11890
10889 11892
10889 11900
10889 11901
10889 11912
10890 11892
10890 11893
10891 11893
10891 11894
10892 11894
10892 11895
10893 11895
10893 11896
10894 11896
10894 11897
10895 11897
10895 11898
10896 11898
10896 11899
10897 11899
10897 11900
10898 11902
10898 11911
10898 11912
10898 11924
10899 11902
10899 11903
10900 11903
10900 11904
10901 11904
10901 11905
10902 11905
10902 11906
10903 11906
10903 11907
10904 11907
10904 11908
10905 11908
10905 11909
10906 11909
10906 11910
10907 11910
10907 11911
10908 11913
10908 11923
10908 11924
10908 11937
10909 11913
10909 11914
10910 11914
10910 11915
10911 11915
10911 11916
10912 11916
10912 11917
10913 11917
10913 11918
10914 11918
10914 11919
10915 11919
10915 11920
10916 11920
10916 11921
10917 11921
10917 11922
10918 11922
10918 11923
10919 11925
10919 11936
10919 11937
10919 11951
10920 11925
10920 11926
10921 11926
10921 11927
10922 11927
10922 11928
10923 11928
10923 11929
10924 11929
10924 11930
10925 11930
10925 11931
10926 11931
10926 11932
10927 11932
10927 11933
10928 11933
10928 11934
10929 11934
10929 11935
10930 11935
10930 11936
10931 11938
10931 11950
10931 11951
10931 16742
10931 16743
10932 11938
10932 11939
10933 11939
10933 11940
10934 11940
10934 11941
10935 11941
10935 11942
10936 11942
10936 11943
10937 11943
10937 11944
10938 11944
10938 11945
10939 11945
10939 11946
10940 11946
10940 11947
10941 11947
10941 11948
10942 11948
10942 11949
10943 11949
10943 11950
10944 11952
10944 11957
10944 11965
10945 11952
10945 11953
10946 11953
10946 11954
10947 11954
10947 11955
10948 11955
10948 11956
10949 11956
10949 11957
10950 11958
10950 11964
10950 11965
10950 11974
10951 11958
10951 11959
10952 11959
10952 11960
10953 11960
10953 11961
10954 11961
10954 11962
10955 11962
10955 11963
10956 11963
10956 11964
10957 11966
10957 11973
10957 11974
10957 11984
10958 11966
10958 11967
10959 11967
10959 11968
10960 11968
10960 11969
10961 11969
10961 11970
10962 11970
10962 11971
10963 11971
10963 11972
10964 11972
10964 11973
10965 11975
10965 11983
10965 11984
10965 11995
10966 11975
10966 11976
10967 11976
10967 11977
10968 11977
10968 11978
10969 11978
10969 11979
10970 11979
10970 11980
10971 11980
10971 11981
10972 11981
10972 11982
10973 11982
10973 11983
10974 11985
10974 11994
10974 11995
10974 12007
10975 11985
10975 11986
10976 11986
10976 11987
10977 11987
10977 11988
10978 11988
10978 11989
10979 11989
10979 11990
10980 11990
10980 11991
10981 11991
10981 11992
10982 11992
10982 11993
10983 11993
10983 11994
10984 11996
10984 12006
10984 12007
10984 12020
10985 11996
10985 11997
10986 11997
10986 11998
10987 11998
10987 11999
10988 11999
10988 12000
10989 12000
10989 12001
10990 12001
10990 12002
10991 12002
10991 12003
10992 12003
10992 12004
10993 12004
10993 12005
10994 12005
10994 12006
10995 12008
10995 12019
10995 12020
10995 12034
10996 12008
10996 12009
10997 12009
10997 12010
10998 12010
10998 12011
10999 12011
10999 12012
11000 12012
11000 12013
11001 12013
11001 12014
11002 12014
11002 12015
11003 12015
11003 12016
11004 12016
11004 12017
11005 12017
11005 12018
11006 12018
11006 12019
11007 12021
11007 12033
11007 12034
11007 16743
11007 16744
11008 12021
11008 12022
11009 12022
11009 12023
11010 12023
11010 12024
11011 12024
11011 12025
11012 12025
11012 12026
11013 12026
11013 12027
11014 12027
11014 12028
11015 12028
11015 12029
11016 12029
11016 12030
11017 12030
11017 12031
11018 12031
11018 12032
11019 12032
11019 12033
11020 12035
11020 12040
11020 12048
11021 12035
11021 12036
11022 12036
11022 12037
11023 12037
11023 12038
11024 12038
11024 12039
11025 12039
11025 12040
11026 12041
11026 12047
11026 12048
11026 12057
11027 12041
11027 12042
11028 12042
11028 12043
11029 12043
11029 12044
11030 12044
11030 12045
11031 12045
11031 12046
11032 12046
11032 12047
11033 12049
11033 12056
11033 12057
11033 12067
11034 12049
11034 12050
11035 12050
11035 12051
11036 12051
11036 12052
11037 12052
11037 12053
11038 12053
11038 12054
11039 12054
11039 12055
11040 12055
11040 12056
11041 12058
11041 12066
11041 12067
11041 12078
11042 12058
11042 12059
11043 12059
11043 12060
11044 12060
11044 12061
11045 12061
11045 12062
11046 12062
11046 12063
11047 12063
11047 12064
11048 12064
11048 12065
11049 12065
11049 12066
11050 12068
11050 12077
11050 12078
11050 12090
11051 12068
11051 12069
11052 12069
11052 12070
11053 12070
11053 12071
11054 12071
11054 12072
11055 12072
11055 12073
11056 12073
11056 12074
11057 12074
11057 12075
11058 12075
11058 12076
11059 12076
11059 12077
11060 12079
11060 12089
11060 12090
11060 12103
11061 12079
11061 12080
11062 12080
11062 12081
11063 12081
11063 12082
11064 12082
11064 12083
11065 12083
11065 12084
11066 12084
11066 12085
11067 12085
11067 12086
11068 12086
11068 12087
11069 12087
11069 12088
11070 12088
11070 12089
11071 12091
11071 12102
11071 12103
11071 12117
11072 12091
11072 12092
11073 12092
11073 12093
11074 12093
11074 12094
11075 12094
11075 12095
11076 12095
11076 12096
11077 12096
11077 12097
11078 12097
11078 12098
11079 12098
11079 12099
11080 12099
11080 12100
11081 12100
11081 12101
11082 12101
11082 12102
11083 12104
11083 12116
11083 12117
11083 16744
11083 16745
11084 12104
11084 12105
11085 12105
11085 12106
11086 12106
11086 12107
11087 12107
11087 12108
11088 12108
11088 12109
11089 12109
11089 12110
11090 12110
11090 12111
11091 12111
11091 12112
11092 12112
11092 12113
11093 12113
11093 12114
11094 12114
11094 12115
11095 12115
11095 12116
11096 12118
11096 12123
11096 12131
11097 12118
11097 12119
11098 12119
11098 12120
11099 12120
11099 12121
11100 12121
11100 12122
11101 12122
11101 12123
11102 12124
11102 12130
11102 12131
11102 12140
11103 12124
11103 12125
11104 12125
11104 12126
11105 12126
11105 12127
11106 12127
11106 12128
11107 12128
11107 12129
11108 12129
11108 12130
11109 12132
11109 12139
11109 12140
11109 12150
11110 12132
11110 12133
11111 12133
11111 12134
11112 12134
11112 12135
11113 12135
11113 12136
11114 12136
11114 12137
11115 12137
11115 12138
11116 12138
11116 12139
11117 12141
11117 12149
11117 12150
11117 12161
11118 12141
11118 12142
11119 12142
11119 12143
11120 12143
11120 12144
11121 12144
11121 12145
11122 12145
11122 12146
11123 12146
11123 12147
11124 12147
11124 12148
11125 12148
11125 12149
11126 12151
11126 12160
11126 12161
11126 12173
11127 12151
11127 12152
11128 12152
11128 12153
11129 12153
11129 12154
11130 12154
11130 12155
11131 12155
11131 12156
11132 12156
11132 12157
11133 12157
11133 12158
11134 12158
11134 12159
11135 12159
11135 12160
11136 12162
11136 12172
11136 12173
11136 12186
11137 12162
11137 12163
11138 12163
11138 12164
11139 12164
11139 12165
11140 12165
11140 12166
11141 12166
11141 12167
11142 12167
11142 12168
11143 12168
11143 12169
11144 12169
11144 12170
11145 12170
11145 12171
11146 12171
11146 12172
11147 12174
11147 12185
11147 12186
11147 12200
11148 12174
11148 12175
11149 12175
11149 12176
11150 12176
11150 12177
11151 12177
11151 12178
11152 12178
11152 12179
11153 12179
11153 12180
11154 12180
11154 12181
11155 12181
11155 12182
11156 12182
11156 12183
11157 12183
11157 12184
11158 12184
11158 12185
11159 12187
11159 12199
11159 12200
11159 16745
11159 16746
11160 12187
11160 12188
11161 12188
11161 12189
11162 12189
11162 12190
11163 12190
11163 12191
11164 12191
11164 12192
11165 12192
11165 12193
11166 12193
11166 12194
11167 12194
11167 12195
11168 12195
11168 12196
11169 12196
11169 12197
11170 12197
11170 12198
11171 12198
11171 12199
11172 12201
11172 12206
11172 12214
11173 12201
11173 12202
11174 12202
11174 12203
11175 12203
11175 12204
11176 12204
11176 12205
11177 12205
11177 12206
11178 12207
11178 12213
11178 12214
11178 12223
11179 12207
11179 12208
11180 12208
11180 12209
11181 12209
11181 12210
11182 12210
11182 12211
11183 12211
11183 12212
11184 12212
11184 12213
11185 12215
11185 12222
11185 12223
11185 12233
11186 12215
11186 12216
11187 12216
11187 12217
11188 12217
11188 12218
11189 12218
11189 12219
11190 12219
11190 12220
11191 12220
11191 12221
11192 12221
11192 12222
11193 12224
11193 12232
11193 12233
11193 12244
11194 12224
11194 12225
11195 12225
11195 12226
11196 12226
11196 12227
11197 12227
11197 12228
11198 12228
11198 12229
11199 12229
11199 12230
11200 12230
11200 12231
11201 12231
11201 12232
11202 12234
11202 12243
11202 12244
11202 12256
11203 12234
11203 12235
11204 12235
11204 12236
11205 12236
11205 12237
11206 12237
11206 12238
11207 12238
11207 12239
11208 12239
11208 12240
11209 12240
11209 12241
11210 12241
11210 12242
11211 12242
11211 12243
11212 12245
11212 12255
11212 12256
11212 12269
11213 12245
11213 12246
11214 12246
11214 12247
11215 12247
11215 12248
11216 12248
11216 12249
11217 12249
11217 12250
11218 12250
11218 12251
11219 12251
11219 12252
11220 12252
11220 12253
11221 12253
11221 12254
11222 12254
11222 12255
11223 12257
11223 12268
11223 12269
11223 12283
11224 12257
11224 12258
11225 12258
11225 12259
11226 12259
11226 12260
11227 12260
11227 12261
11228 12261
11228 12262
11229 12262
11229 12263
11230 12263
11230 12264
11231 12264
11231 12265
11232 12265
11232 12266
11233 12266
11233 12267
11234 12267
11234 12268
11235 12270
11235 12282
11235 12283
11235 16746
11235 16747
11236 12270
11236 12271
11237 12271
11237 12272
11238 12272
11238 12273
11239 12273
11239 12274
11240 12274
11240 12275
11241 12275
11241 12276
11242 12276
11242 12277
11243 12277
11243 12278
11244 12278
11244 12279
11245 12279
11245 12280
11246 12280
11246 12281
11247 12281
11247 12282
11248 12284
11248 12289
11248 12297
11249 12284
11249 12285
11250 12285
11250 12286
11251 12286
11251 12287
11252 12287
11252 12288
11253 12288
11253 12289
11254 12290
11254 12296
11254 12297
11254 12306
11255 12290
11255 12291
11256 12291
11256 12292
11257 12292
11257 12293
11258 12293
11258 12294
11259 12294
11259 12295
11260 12295
11260 12296
11261 12298
11261 12305
11261 12306
11261 12316
11262 12298
11262 12299
11263 12299
11263 12300
11264 12300
11264 12301
11265 12301
11265 12302
11266 12302
11266 12303
11267 12303
11267 12304
11268 12304
11268 12305
11269 12307
11269 12315
11269 12316
11269 12327
11270 12307
11270 12308
11271 12308
11271 12309
11272 12309
11272 12310
11273 12310
11273 12311
11274 12311
11274 12312
11275 12312
11275 12313
11276 12313
11276 12314
11277 12314
11277 12315
11278 12317
11278 12326
11278 12327
11278 12339
11279 12317
11279 12318
11280 12318
11280 12319
11281 12319
11281 12320
11282 12320
11282 12321
11283 12321
11283 12322
11284 12322
11284 12323
11285 12323
11285 12324
11286 12324
11286 12325
11287 12325
11287 12326
11288 12328
11288 12338
11288 12339
11288 12352
11289 12328
11289 12329
11290 12329
11290 12330
11291 12330
11291 12331
11292 12331
11292 12332
11293 12332
11293 12333
11294 12333
11294 12334
11295 12334
11295 12335
11296 12335
11296 12336
11297 12336
11297 12337
11298 12337
11298 12338
11299 12340
11299 12351
11299 12352
11299 12366
11300 12340
11300 12341
11301 12341
11301 12342
11302 12342
11302 12343
11303 12343
11303 12344
11304 12344
11304 12345
11305 12345
11305 12346
11306 12346
11306 12347
11307 12347
11307 12348
11308 12348
11308 12349
11309 12349
11309 12350
11310 12350
11310 12351
11311 12353
11311 12365
11311 12366
11311 16747
11311 16748
11312 12353
11312 12354
11313 12354
11313 12355
11314 12355
11314 12356
11315 12356
11315 12357
11316 12357
11316 12358
11317 12358
11317 12359
11318 12359
11318 12360
11319 12360
11319 12361
11320 12361
11320 12362
11321 12362
11321 12363
11322 12363
11322 12364
11323 12364
11323 12365
11324 12367
11324 12372
11324 12380
11325 12367
11325 12368
11326 12368
11326 12369
11327 12369
11327 12370
11328 12370
11328 12371
11329 12371
11329 12372
11330 12373
11330 12379
11330 12380
11330 12389
11331 12373
11331 12374
11332 12374
11332 12375
11333 12375
11333 12376
11334 12376
11334 12377
11335 12377
11335 12378
11336 12378
11336 12379
11337 12381
11337 12388
11337 12389
11337 12399
11338 12381
11338 12382
11339 12382
11339 12383
11340 12383
11340 12384
11341 12384
11341 12385
11342 12385
11342 12386
11343 12386
11343 12387
11344 12387
11344 12388
11345 12390
11345 12398
11345 12399
11345 12410
11346 12390
11346 12391
11347 12391
11347 12392
11348 12392
11348 12393
11349 12393
11349 12394
11350 12394
11350 12395
11351 12395
11351 12396
11352 12396
11352 12397
11353 12397
11353 12398
11354 12400
11354 12409
11354 12410
11354 12422
11355 12400
11355 12401
11356 12401
11356 12402
11357 12402
11357 12403
11358 12403
11358 12404
11359 12404
11359 12405
11360 12405
11360 12406
11361 12406
11361 12407
11362 12407
11362 12408
11363 12408
11363 12409
11364 12411
11364 12421
11364 12422
11364 12435
11365 12411
11365 12412
11366 12412
11366 12413
11367 12413
11367 12414
11368 12414
11368 12415
11369 12415
11369 12416
11370 12416
11370 12417
11371 12417
11371 12418
11372 12418
11372 12419
11373 12419
11373 12420
11374 12420
11374 12421
11375 12423
11375 12434
11375 12435
11375 12449
11376 12423
11376 12424
11377 12424
11377 12425
11378 12425
11378 12426
11379 12426
11379 12427
11380 12427
11380 12428
11381 12428
11381 12429
11382 12429
11382 12430
11383 12430
11383 12431
11384 12431
11384 12432
11385 12432
11385 12433
11386 12433
11386 12434
11387 12436
11387 12448
11387 12449
11387 16748
11387 16749
11388 12436
11388 12437
11389 12437
11389 12438
11390 12438
11390 12439
11391 12439
11391 12440
11392 12440
11392 12441
11393 12441
11393 12442
11394 12442
11394 12443
11395 12443
11395 12444
11396 12444
11396 12445
11397 12445
11397 12446
11398 12446
11398 12447
11399 12447
11399 12448
11400 12450
11400 12455
11400 12463
11401 12450
11401 12451
11402 12451
11402 12452
11403 12452
11403 12453
11404 12453
11404 12454
11405 12454
11405 12455
11406 12456
11406 12462
11406 12463
11406 12472
11407 12456
11407 12457
11408 12457
11408 12458
11409 12458
11409 12459
11410 12459
11410 12460
11411 12460
11411 12461
11412 12461
11412 12462
11413 12464
11413 12471
11413 12472
11413 12482
11414 12464
11414 12465
11415 12465
11415 12466
11416 12466
11416 12467
11417 12467
11417 12468
11418 12468
11418 12469
11419 12469
11419 12470
11420 12470
11420 12471
11421 12473
11421 12481
11421 12482
11421 12493
11422 12473
11422 12474
11423 12474
11423 12475
11424 12475
11424 12476
11425 12476
11425 12477
11426 12477
11426 12478
11427 12478
11427 12479
11428 12479
11428 12480
11429 12480
11429 12481
11430 12483
11430 12492
11430 12493
11430 12505
11431 12483
11431 12484
11432 12484
11432 12485
11433 12485
11433 12486
11434 12486
11434 12487
11435 12487
11435 12488
11436 12488
11436 12489
11437 12489
11437 12490
11438 12490
11438 12491
11439 12491
11439 12492
11440 12494
11440 12504
11440 12505
11440 12518
11441 12494
11441 12495
11442 12495
11442 12496
11443 12496
11443 12497
11444 12497
11444 12498
11445 12498
11445 12499
11446 12499
11446 12500
11447 12500
11447 12501
11448 12501
11448 12502
11449 12502
11449 12503
11450 12503
11450 12504
11451 12506
11451 12517
11451 12518
11451 12532
11452 12506
11452 12507
11453 12507
11453 12508
11454 12508
11454 12509
11455 12509
11455 12510
11456 12510
11456 12511
11457 12511
11457 12512
11458 12512
11458 12513
11459 12513
11459 12514
11460 12514
11460 12515
11461 12515
11461 12516
11462 12516
11462 12517
11463 12519
11463 12531
11463 12532
11463 16749
11463 16750
11464 12519
11464 12520
11465 12520
11465 12521
11466 12521
11466 12522
11467 12522
11467 12523
11468 12523
11468 12524
11469 12524
11469 12525
11470 12525
11470 12526
11471 12526
11471 12527
11472 12527
11472 12528
11473 12528
11473 12529
11474 12529
11474 12530
11475 12530
11475 12531
11476 12533
11476 12538
11476 12546
11477 12533
11477 12534
11478 12534
11478 12535
11479 12535
11479 12536
11480 12536
11480 12537
11481 12537
11481 12538
11482 12539
11482 12545
11482 12546
11482 12555
11483 12539
11483 12540
11484 12540
11484 12541
11485 12541
11485 12542
11486 12542
11486 12543
11487 12543
11487 12544
11488 12544
11488 12545
11489 12547
11489 12554
11489 12555
11489 12565
11490 12547
11490 12548
11491 12548
11491 12549
11492 12549
11492 12550
11493 12550
11493 12551
11494 12551
11494 12552
11495 12552
11495 12553
11496 12553
11496 12554
11497 12556
11497 12564
11497 12565
11497 12576
11498 12556
11498 12557
11499 12557
11499 12558
11500 12558
11500 12559
11501 12559
11501 12560
11502 12560
11502 12561
11503 12561
11503 12562
11504 12562
11504 12563
11505 12563
11505 12564
11506 12566
11506 12575
11506 12576
11506 12588
11507 12566
11507 12567
11508 12567
11508 12568
11509 12568
11509 12569
11510 12569
11510 12570
11511 12570
11511 12571
11512 12571
11512 12572
11513 12572
11513 12573
11514 12573
11514 12574
11515 12574
11515 12575
11516 12577
11516 12587
11516 12588
11516 12601
11517 12577
11517 12578
11518 12578
11518 12579
11519 12579
11519 12580
11520 12580
11520 12581
11521 12581
11521 12582
11522 12582
11522 12583
11523 12583
11523 12584
11524 12584
11524 12585
11525 12585
11525 12586
11526 12586
11526 12587
11527 12589
11527 12600
11527 12601
11527 12615
11528 12589
11528 12590
11529 12590
11529 12591
11530 12591
11530 12592
11531 12592
11531 12593
11532 12593
11532 12594
11533 12594
11533 12595
11534 12595
11534 12596
11535 12596
11535 12597
11536 12597
11536 12598
11537 12598
11537 12599
11538 12599
11538 12600
11539 12602
11539 12614
11539 12615
11539 16750
11539 16751
11540 12602
11540 12603
11541 12603
11541 12604
11542 12604
11542 12605
11543 12605
11543 12606
11544 12606
11544 12607
11545 12607
11545 12608
11546 12608
11546 12609
11547 12609
11547 12610
11548 12610
11548 12611
11549 12611
11549 12612
11550 12612
11550 12613
11551 12613
11551 12614
11552 12616
11552 12621
11552 12629
11553 12616
11553 12617
11554 12617
11554 12618
11555 12618
11555 12619
11556 12619
11556 12620
11557 12620
11557 12621
11558 12622
11558 12628
11558 12629
11558 12638
11559 12622
11559 12623
11560 12623
11560 12624
11561 12624
11561 12625
11562 12625
11562 12626
11563 12626
11563 12627
11564 12627
11564 12628
11565 12630
11565 12637
11565 12638
11565 12648
11566 12630
11566 12631
11567 12631
11567 12632
11568 12632
11568 12633
11569 12633
11569 12634
11570 12634
11570 12635
11571 12635
11571 12636
11572 12636
11572 12637
11573 12639
11573 12647
11573 12648
11573 12659
11574 12639
11574 12640
11575 12640
11575 12641
11576 12641
11576 12642
11577 12642
11577 12643
11578 12643
11578 12644
11579 12644
11579 12645
11580 12645
11580 12646
11581 12646
11581 12647
11582 12649
11582 12658
11582 12659
11582 12671
11583 12649
11583 12650
11584 12650
11584 12651
11585 12651
11585 12652
11586 12652
11586 12653
11587 12653
11587 12654
11588 12654
11588 12655
11589 12655
11589 12656
11590 12656
11590 12657
11591 12657
11591 12658
11592 12660
11592 12670
11592 12671
11592 12684
11593 12660
11593 12661
11594 12661
11594 12662
11595 12662
11595 12663
11596 12663
11596 12664
11597 12664
11597 12665
11598 12665
11598 12666
11599 12666
11599 12667
11600 12667
11600 12668
11601 12668
11601 12669
11602 12669
11602 12670
11603 12672
11603 12683
11603 12684
11603 12698
11604 12672
11604 12673
11605 12673
11605 12674
11606 12674
11606 12675
11607 12675
11607 12676
11608 12676
11608 12677
11609 12677
11609 12678
11610 12678
11610 12679
11611 12679
11611 12680
11612 12680
11612 12681
11613 12681
11613 12682
11614 12682
11614 12683
11615 12685
11615 12697
11615 12698
11615 16751
11615 16752
11616 12685
11616 12686
11617 12686
11617 12687
11618 12687
11618 12688
11619 12688
11619 12689
11620 12689
11620 12690
11621 12690
11621 12691
11622 12691
11622 12692
11623 12692
11623 12693
11624 12693
11624 12694
11625 12694
11625 12695
11626 12695
11626 12696
11627 12696
11627 12697
11628 12699
11628 12704
11628 12712
11629 12699
11629 12700
11630 12700
11630 12701
11631 12701
11631 12702
11632 12702
11632 12703
11633 12703
11633 12704
11634 12705
11634 12711
11634 12712
11634 12721
11635 12705
11635 12706
11636 12706
11636 12707
11637 12707
11637 12708
11638 12708
11638 12709
11639 12709
11639 12710
11640 12710
11640 12711
11641 12713
11641 12720
11641 12721
11641 12731
11642 12713
11642 12714
11643 12714
11643 12715
11644 12715
11644 12716
11645 12716
11645 12717
11646 12717
11646 12718
11647 12718
11647 12719
11648 12719
11648 12720
11649 12722
11649 12730
11649 12731
11649 12742
11650 12722
11650 12723
11651 12723
11651 12724
11652 12724
11652 12725
11653 12725
11653 12726
11654 12726
11654 12727
11655 12727
11655 12728
11656 12728
11656 12729
11657 12729
11657 12730
11658 12732
11658 12741
11658 12742
11658 12754
11659 12732
11659 12733
11660 12733
11660 12734
11661 12734
11661 12735
11662 12735
11662 12736
11663 12736
11663 12737
11664 12737
11664 12738
11665 12738
11665 12739
11666 12739
11666 12740
11667 12740
11667 12741
11668 12743
11668 12753
11668 12754
11668 12767
11669 12743
11669 12744
11670 12744
11670 12745
11671 12745
11671 12746
11672 12746
11672 12747
11673 12747
11673 12748
11674 12748
11674 12749
11675 12749
11675 12750
11676 12750
11676 12751
11677 12751
11677 12752
11678 12752
11678 12753
11679 12755
11679 12766
11679 12767
11679 12781
11680 12755
11680 12756
11681 12756
11681 12757
11682 12757
11682 12758
11683 12758
11683 12759
11684 12759
11684 12760
11685 12760
11685 12761
11686 12761
11686 12762
11687 12762
11687 12763
11688 12763
11688 12764
11689 12764
11689 12765
11690 12765
11690 12766
11691 12768
11691 12780
11691 12781
11691 16752
11691 16753
11692 12768
11692 12769
11693 12769
11693 12770
11694 12770
11694 12771
11695 12771
11695 12772
11696 12772
11696 12773
11697 12773
11697 12774
11698 12774
11698 12775
11699 12775
11699 12776
11700 12776
11700 12777
11701 12777
11701 12778
11702 12778
11702 12779
11703 12779
11703 12780
11704 12782
11704 12787
11704 12795
11705 12782
11705 12783
11706 12783
11706 12784
11707 12784
11707 12785
11708 12785
11708 12786
11709 12786
11709 12787
11710 12788
11710 12794
11710 12795
11710 12804
11711 12788
11711 12789
11712 12789
11712 12790
11713 12790
11713 12791
11714 12791
11714 12792
11715 12792
11715 12793
11716 12793
11716 12794
11717 12796
11717 12803
11717 12804
11717 12814
11718 12796
11718 12797
11719 12797
11719 12798
11720 12798
11720 12799
11721 12799
11721 12800
11722 12800
11722 12801
11723 12801
11723 12802
11724 12802
11724 12803
11725 12805
11725 12813
11725 12814
11725 12825
11726 12805
11726 12806
11727 12806
11727 12807
11728 12807
11728 12808
11729 12808
11729 12809
11730 12809
11730 12810
11731 12810
11731 12811
11732 12811
11732 12812
11733 12812
11733 12813
11734 12815
11734 12824
11734 12825
11734 12837
11735 12815
11735 12816
11736 12816
11736 12817
11737 12817
11737 12818
11738 12818
11738 12819
11739 12819
11739 12820
11740 12820
11740 12821
11741 12821
11741 12822
11742 12822
11742 12823
11743 12823
11743 12824
11744 12826
11744 12836
11744 12837
11744 12850
11745 12826
11745 12827
11746 12827
11746 12828
11747 12828
11747 12829
11748 12829
11748 12830
11749 12830
11749 12831
11750 12831
11750 12832
11751 12832
11751 12833
11752 12833
11752 12834
11753 12834
11753 12835
11754 12835
11754 12836
11755 12838
11755 12849
11755 12850
11755 12864
11756 12838
11756 12839
11757 12839
11757 12840
11758 12840
11758 12841
11759 12841
11759 12842
11760 12842
11760 12843
11761 12843
11761 12844
11762 12844
11762 12845
11763 12845
11763 12846
11764 12846
11764 12847
11765 12847
11765 12848
11766 12848
11766 12849
11767 12851
11767 12863
11767 12864
11767 16753
11767 16754
11768 12851
11768 12852
11769 12852
11769 12853
11770 12853
11770 12854
11771 12854
11771 12855
11772 12855
11772 12856
11773 12856
11773 12857
11774 12857
11774 12858
11775 12858
11775 12859
11776 12859
11776 12860
11777 12860
11777 12861
11778 12861
11778 12862
11779 12862
11779 12863
11780 12865
11780 12870
11780 12878
11781 12865
11781 12866
11782 12866
11782 12867
11783 12867
11783 12868
11784 12868
11784 12869
11785 12869
11785 12870
11786 12871
11786 12877
11786 12878
11786 12887
11787 12871
11787 12872
11788 12872
11788 12873
11789 12873
11789 12874
11790 12874
11790 12875
11791 12875
11791 12876
11792 12876
11792 12877
11793 12879
11793 12886
11793 12887
11793 12897
11794 12879
11794 12880
11795 12880
11795 12881
11796 12881
11796 12882
11797 12882
11797 12883
11798 12883
11798 12884
11799 12884
11799 12885
11800 12885
11800 12886
11801 12888
11801 12896
11801 12897
11801 12908
11802 12888
11802 12889
11803 12889
11803 12890
11804 12890
11804 12891
11805 12891
11805 12892
11806 12892
11806 12893
11807 12893
11807 12894
11808 12894
11808 12895
11809 12895
11809 12896
11810 12898
11810 12907
11810 12908
11810 12920
11811 12898
11811 12899
11812 12899
11812 12900
11813 12900
11813 12901
11814 12901
11814 12902
11815 12902
11815 12903
11816 12903
11816 12904
11817 12904
11817 12905
11818 12905
11818 12906
11819 12906
11819 12907
11820 12909
11820 12919
11820 12920
11820 12933
11821 12909
11821 12910
11822 12910
11822 12911
11823 12911
11823 12912
11824 12912
11824 12913
11825 12913
11825 12914
11826 12914
11826 12915
11827 12915
11827 12916
11828 12916
11828 12917
11829 12917
11829 12918
11830 12918
11830 12919
11831 12921
11831 12932
11831 12933
11831 12947
11832 12921
11832 12922
11833 12922
11833 12923
11834 12923
11834 12924
11835 12924
11835 12925
11836 12925
11836 12926
11837 12926
11837 12927
11838 12927
11838 12928
11839 12928
11839 12929
11840 12929
11840 12930
11841 12930
11841 12931
11842 12931
11842 12932
11843 12934
11843 12946
11843 12947
11843 16754
11843 16755
11844 12934
11844 12935
11845 12935
11845 12936
11846 12936
11846 12937
11847 12937
11847 12938
11848 12938
11848 12939
11849 12939
11849 12940
11850 12940
11850 12941
11851 12941
11851 12942
11852 12942
11852 12943
11853 12943
11853 12944
11854 12944
11854 12945
11855 12945
11855 12946
11856 12948
11856 12953
11856 12961
11857 12948
11857 12949
11858 12949
11858 12950
11859 12950
11859 12951
11860 12951
11860 12952
11861 12952
11861 12953
11862 12954
11862 12960
11862 12961
11862 12970
11863 12954
11863 12955
11864 12955
11864 12956
11865 12956
11865 12957
11866 12957
11866 12958
11867 12958
11867 12959
11868 12959
11868 12960
11869 12962
11869 12969
11869 12970
11869 12980
11870 12962
11870 12963
11871 12963
11871 12964
11872 12964
11872 12965
11873 12965
11873 12966
11874 12966
11874 12967
11875 12967
11875 12968
11876 12968
11876 12969
11877 12971
11877 12979
11877 12980
11877 12991
11878 12971
11878 12972
11879 12972
11879 12973
11880 12973
11880 12974
11881 12974
11881 12975
11882 12975
11882 12976
11883 12976
11883 12977
11884 12977
11884 12978
11885 12978
11885 12979
11886 12981
11886 12990
11886 12991
11886 13003
11887 12981
11887 12982
11888 12982
11888 12983
11889 12983
11889 12984
11890 12984
11890 12985
11891 12985
11891 12986
11892 12986
11892 12987
11893 12987
11893 12988
11894 12988
11894 12989
11895 12989
11895 12990
11896 12992
11896 13002
11896 13003
11896 13016
11897 12992
11897 12993
11898 12993
11898 12994
11899 12994
11899 12995
11900 12995
11900 12996
11901 12996
11901 12997
11902 12997
11902 12998
11903 12998
11903 12999
11904 12999
11904 13000
11905 13000
11905 13001
11906 13001
11906 13002
11907 13004
11907 13015
11907 13016
11907 13030
11908 13004
11908 13005
11909 13005
11909 13006
11910 13006
11910 13007
11911 13007
11911 13008
11912 13008
11912 13009
11913 13009
11913 13010
11914 13010
11914 13011
11915 13011
11915 13012
11916 13012
11916 13013
11917 13013
11917 13014
11918 13014
11918 13015
11919 13017
11919 13029
11919 13030
11919 16755
11919 16756
11920 13017
11920 13018
11921 13018
11921 13019
11922 13019
11922 13020
11923 13020
11923 13021
11924 13021
11924 13022
11925 13022
11925 13023
11926 13023
11926 13024
11927 13024
11927 13025
11928 13025
11928 13026
11929 13026
11929 13027
11930 13027
11930 13028
11931 13028
11931 13029
11932 13031
11932 13036
11932 13044
11933 13031
11933 13032
11934 13032
11934 13033
11935 13033
11935 13034
11936 13034
11936 13035
11937 13035
11937 13036
11938 13037
11938 13043
11938 13044
11938 13053
11939 13037
11939 13038
11940 13038
11940 13039
11941 13039
11941 13040
11942 13040
11942 13041
11943 13041
11943 13042
11944 13042
11944 13043
11945 13045
11945 13052
11945 13053
11945 13063
11946 13045
11946 13046
11947 13046
11947 13047
11948 13047
11948 13048
11949 13048
11949 13049
11950 13049
11950 13050
11951 13050
11951 13051
11952 13051
11952 13052
11953 13054
11953 13062
11953 13063
11953 13074
11954 13054
11954 13055
11955 13055
11955 13056
11956 13056
11956 13057
11957 13057
11957 13058
11958 13058
11958 13059
11959 13059
11959 13060
11960 13060
11960 13061
11961 13061
11961 13062
11962 13064
11962 13073
11962 13074
11962 13086
11963 13064
11963 13065
11964 13065
11964 13066
11965 13066
11965 13067
11966 13067
11966 13068
11967 13068
11967 13069
11968 13069
11968 13070
11969 13070
11969 13071
11970 13071
11970 13072
11971 13072
11971 13073
11972 13075
11972 13085
11972 13086
11972 13099
11973 13075
11973 13076
11974 13076
11974 13077
11975 13077
11975 13078
11976 13078
11976 13079
11977 13079
11977 13080
11978 13080
11978 13081
11979 13081
11979 13082
11980 13082
11980 13083
11981 13083
11981 13084
11982 13084
11982 13085
11983 13087
11983 13098
11983 13099
11983 13113
11984 13087
11984 13088
11985 13088
11985 13089
11986 13089
11986 13090
11987 13090
11987 13091
11988 13091
11988 13092
11989 13092
11989 13093
11990 13093
11990 13094
11991 13094
11991 13095
11992 13095
11992 13096
11993 13096
11993 13097
11994 13097
11994 13098
11995 13100
11995 13112
11995 13113
11995 16756
11995 16757
11996 13100
11996 13101
11997 13101
11997 13102
11998 13102
11998 13103
11999 13103
11999 13104
12000 13104
12000 13105
12001 13105
12001 13106
12002 13106
12002 13107
12003 13107
12003 13108
12004 13108
12004 13109
12005 13109
12005 13110
12006 13110
12006 13111
12007 13111
12007 13112
12008 13114
12008 13119
12008 13127
12009 13114
12009 13115
12010 13115
12010 13116
12011 13116
12011 13117
12012 13117
12012 13118
12013 13118
12013 13119
12014 13120
12014 13126
12014 13127
12014 13136
12015 13120
12015 13121
12016 13121
12016 13122
12017 13122
12017 13123
12018 13123
12018 13124
12019 13124
12019 13125
12020 13125
12020 13126
12021 13128
12021 13135
12021 13136
12021 13146
12022 13128
12022 13129
12023 13129
12023 13130
12024 13130
12024 13131
12025 13131
12025 13132
12026 13132
12026 13133
12027 13133
12027 13134
12028 13134
12028 13135
12029 13137
12029 13145
12029 13146
12029 13157
12030 13137
12030 13138
12031 13138
12031 13139
12032 13139
12032 13140
12033 13140
12033 13141
12034 13141
12034 13142
12035 13142
12035 13143
12036 13143
12036 13144
12037 13144
12037 13145
12038 13147
12038 13156
12038 13157
12038 13169
12039 13147
12039 13148
12040 13148
12040 13149
12041 13149
12041 13150
12042 13150
12042 13151
12043 13151
12043 13152
12044 13152
12044 13153
12045 13153
12045 13154
12046 13154
12046 13155
12047 13155
12047 13156
12048 13158
12048 13168
12048 13169
12048 13182
12049 13158
12049 13159
12050 13159
12050 13160
12051 13160
12051 13161
12052 13161
12052 13162
12053 13162
12053 13163
12054 13163
12054 13164
12055 13164
12055 13165
12056 13165
12056 13166
12057 13166
12057 13167
12058 13167
12058 13168
12059 13170
12059 13181
12059 13182
12059 13196
12060 13170
12060 13171
12061 13171
12061 13172
12062 13172
12062 13173
12063 13173
12063 13174
12064 13174
12064 13175
12065 13175
12065 13176
12066 13176
12066 13177
12067 13177
12067 13178
12068 13178
12068 13179
12069 13179
12069 13180
12070 13180
12070 13181
12071 13183
12071 13195
12071 13196
12071 16757
12071 16758
12072 13183
12072 13184
12073 13184
12073 13185
12074 13185
12074 13186
12075 13186
12075 13187
12076 13187
12076 13188
12077 13188
12077 13189
12078 13189
12078 13190
12079 13190
12079 13191
12080 13191
12080 13192
12081 13192
12081 13193
12082 13193
12082 13194
12083 13194
12083 13195
12084 13197
12084 13202
12084 13210
12085 13197
12085 13198
12086 13198
12086 13199
12087 13199
12087 13200
12088 13200
12088 13201
12089 13201
12089 13202
12090 13203
12090 13209
12090 13210
12090 13219
12091 13203
12091 13204
12092 13204
12092 13205
12093 13205
12093 13206
12094 13206
12094 13207
12095 13207
12095 13208
12096 13208
12096 13209
12097 13211
12097 13218
12097 13219
12097 13229
12098 13211
12098 13212
12099 13212
12099 13213
12100 13213
12100 13214
12101 13214
12101 13215
12102 13215
12102 13216
12103 13216
12103 13217
12104 13217
12104 13218
12105 13220
12105 13228
12105 13229
12105 13240
12106 13220
12106 13221
12107 13221
12107 13222
12108 13222
12108 13223
12109 13223
12109 13224
12110 13224
12110 13225
12111 13225
12111 13226
12112 13226
12112 13227
12113 13227
12113 13228
12114 13230
12114 13239
12114 13240
12114 13252
12115 13230
12115 13231
12116 13231
12116 13232
12117 13232
12117 13233
12118 13233
12118 13234
12119 13234
12119 13235
12120 13235
12120 13236
12121 13236
12121 13237
12122 13237
12122 13238
12123 13238
12123 13239
12124 13241
12124 13251
12124 13252
12124 13265
12125 13241
12125 13242
12126 13242
12126 13243
12127 13243
12127 13244
12128 13244
12128 13245
12129 13245
12129 13246
12130 13246
12130 13247
12131 13247
12131 13248
12132 13248
12132 13249
12133 13249
12133 13250
12134 13250
12134 13251
12135 13253
12135 13264
12135 13265
12135 13279
12136 13253
12136 13254
12137 13254
12137 13255
12138 13255
12138 13256
12139 13256
12139 13257
12140 13257
12140 13258
12141 13258
12141 13259
12142 13259
12142 13260
12143 13260
12143 13261
12144 13261
12144 13262
12145 13262
12145 13263
12146 13263
12146 13264
12147 13266
12147 13278
12147 13279
12147 16758
12147 16759
12148 13266
12148 13267
12149 13267
12149 13268
12150 13268
12150 13269
12151 13269
12151 13270
12152 13270
12152 13271
12153 13271
12153 13272
12154 13272
12154 13273
12155 13273
12155 13274
12156 13274
12156 13275
12157 13275
12157 13276
12158 13276
12158 13277
12159 13277
12159 13278
12160 13280
12160 13285
12160 13293
12161 13280
12161 13281
12162 13281
12162 13282
12163 13282
12163 13283
12164 13283
12164 13284
12165 13284
12165 13285
12166 13286
12166 13292
12166 13293
12166 13302
12167 13286
12167 13287
12168 13287
12168 13288
12169 13288
12169 13289
12170 13289
12170 13290
12171 13290
12171 13291
12172 13291
12172 13292
12173 13294
12173 13301
12173 13302
12173 13312
12174 13294
12174 13295
12175 13295
12175 13296
12176 13296
12176 13297
12177 13297
12177 13298
12178 13298
12178 13299
12179 13299
12179 13300
12180 13300
12180 13301
12181 13303
12181 13311
12181 13312
12181 13323
12182 13303
12182 13304
12183 13304
12183 13305
12184 13305
12184 13306
12185 13306
12185 13307
12186 13307
12186 13308
12187 13308
12187 13309
12188 13309
12188 13310
12189 13310
12189 13311
12190 13313
12190 13322
12190 13323
12190 13335
12191 13313
12191 13314
12192 13314
12192 13315
12193 13315
12193 13316
12194 13316
12194 13317
12195 13317
12195 13318
12196 13318
12196 13319
12197 13319
12197 13320
12198 13320
12198 13321
12199 13321
12199 13322
12200 13324
12200 13334
12200 13335
12200 13348
12201 13324
12201 13325
12202 13325
12202 13326
12203 13326
12203 13327
12204 13327
12204 13328
12205 13328
12205 13329
12206 13329
12206 13330
12207 13330
12207 13331
12208 13331
12208 13332
12209 13332
12209 13333
12210 13333
12210 13334
12211 13336
12211 13347
12211 13348
12211 13362
12212 13336
12212 13337
12213 13337
12213 13338
12214 13338
12214 13339
12215 13339
12215 13340
12216 13340
12216 13341
12217 13341
12217 13342
12218 13342
12218 13343
12219 13343
12219 13344
12220 13344
12220 13345
12221 13345
12221 13346
12222 13346
12222 13347
12223 13349
12223 13361
12223 13362
12223 16759
12223 16760
12224 13349
12224 13350
12225 13350
12225 13351
12226 13351
12226 13352
12227 13352
12227 13353
12228 13353
12228 13354
12229 13354
12229 13355
12230 13355
12230 13356
12231 13356
12231 13357
12232 13357
12232 13358
12233 13358
12233 13359
12234 13359
12234 13360
12235 13360
12235 13361
12236 13363
12236 13368
12236 13376
12237 13363
12237 13364
12238 13364
12238 13365
12239 13365
12239 13366
12240 13366
12240 13367
12241 13367
12241 13368
12242 13369
12242 13375
12242 13376
12242 13385
12243 13369
12243 13370
12244 13370
12244 13371
12245 13371
12245 13372
12246 13372
12246 13373
12247 13373
12247 13374
12248 13374
12248 13375
12249 13377
12249 13384
12249 13385
12249 13395
12250 13377
12250 13378
12251 13378
12251 13379
12252 13379
12252 13380
12253 13380
12253 13381
12254 13381
12254 13382
12255 13382
12255 13383
12256 13383
12256 13384
12257 13386
12257 13394
12257 13395
12257 13406
12258 13386
12258 13387
12259 13387
12259 13388
12260 13388
12260 13389
12261 13389
12261 13390
12262 13390
12262 13391
12263 13391
12263 13392
12264 13392
12264 13393
12265 13393
12265 13394
12266 13396
12266 13405
12266 13406
12266 13418
12267 13396
12267 13397
12268 13397
12268 13398
12269 13398
12269 13399
12270 13399
12270 13400
12271 13400
12271 13401
12272 13401
12272 13402
12273 13402
12273 13403
12274 13403
12274 13404
12275 13404
12275 13405
12276 13407
12276 13417
12276 13418
12276 13431
12277 13407
12277 13408
12278 13408
12278 13409
12279 13409
12279 13410
12280 13410
12280 13411
12281 13411
12281 13412
12282 13412
12282 13413
12283 13413
12283 13414
12284 13414
12284 13415
12285 13415
12285 13416
12286 13416
12286 13417
12287 13419
12287 13430
12287 13431
12287 13445
12288 13419
12288 13420
12289 13420
12289 13421
12290 13421
12290 13422
12291 13422
12291 13423
12292 13423
12292 13424
12293 13424
12293 13425
12294 13425
12294 13426
12295 13426
12295 13427
12296 13427
12296 13428
12297 13428
12297 13429
12298 13429
12298 13430
12299 13432
12299 13444
12299 13445
12299 16760
12299 16761
12300 13432
12300 13433
12301 13433
12301 13434
12302 13434
12302 13435
12303 13435
12303 13436
12304 13436
12304 13437
12305 13437
12305 13438
12306 13438
12306 13439
12307 13439
12307 13440
12308 13440
12308 13441
12309 13441
12309 13442
12310 13442
12310 13443
12311 13443
12311 13444
12312 13446
12312 13451
12312 13459
12313 13446
12313 13447
12314 13447
12314 13448
12315 13448
12315 13449
12316 13449
12316 13450
12317 13450
12317 13451
12318 13452
12318 13458
12318 13459
12318 13468
12319 13452
12319 13453
12320 13453
12320 13454
12321 13454
12321 13455
12322 13455
12322 13456
12323 13456
12323 13457
12324 13457
12324 13458
12325 13460
12325 13467
12325 13468
12325 13478
12326 13460
12326 13461
12327 13461
12327 13462
12328 13462
12328 13463
12329 13463
12329 13464
12330 13464
12330 13465
12331 13465
12331 13466
12332 13466
12332 13467
12333 13469
12333 13477
12333 13478
12333 13489
12334 13469
12334 13470
12335 13470
12335 13471
12336 13471
12336 13472
12337 13472
12337 13473
12338 13473
12338 13474
12339 13474
12339 13475
12340 13475
12340 13476
12341 13476
12341 13477
12342 13479
12342 13488
12342 13489
12342 13501
12343 13479
12343 13480
12344 13480
12344 13481
12345 13481
12345 13482
12346 13482
12346 13483
12347 13483
12347 13484
12348 13484
12348 13485
12349 13485
12349 13486
12350 13486
12350 13487
12351 13487
12351 13488
12352 13490
12352 13500
12352 13501
12352 13514
12353 13490
12353 13491
12354 13491
12354 13492
12355 13492
12355 13493
12356 13493
12356 13494
12357 13494
12357 13495
12358 13495
12358 13496
12359 13496
12359 13497
12360 13497
12360 13498
12361 13498
12361 13499
12362 13499
12362 13500
12363 13502
12363 13513
12363 13514
12363 13528
12364 13502
12364 13503
12365 13503
12365 13504
12366 13504
12366 13505
12367 13505
12367 13506
12368 13506
12368 13507
12369 13507
12369 13508
12370 13508
12370 13509
12371 13509
12371 13510
12372 13510
12372 13511
12373 13511
12373 13512
12374 13512
12374 13513
12375 13515
12375 13527
12375 13528
12375 16761
12375 16762
12376 13515
12376 13516
12377 13516
12377 13517
12378 13517
12378 13518
12379 13518
12379 13519
12380 13519
12380 13520
12381 13520
12381 13521
12382 13521
12382 13522
12383 13522
12383 13523
12384 13523
12384 13524
12385 13524
12385 13525
12386 13525
12386 13526
12387 13526
12387 13527
12388 13529
12388 13534
12388 13542
12389 13529
12389 13530
12390 13530
12390 13531
12391 13531
12391 13532
12392 13532
12392 13533
12393 13533
12393 13534
12394 13535
12394 13541
12394 13542
12394 13551
12395 13535
12395 13536
12396 13536
12396 13537
12397 13537
12397 13538
12398 13538
12398 13539
12399 13539
12399 13540
12400 13540
12400 13541
12401 13543
12401 13550
12401 13551
12401 13561
12402 13543
12402 13544
12403 13544
12403 13545
12404 13545
12404 13546
12405 13546
12405 13547
12406 13547
12406 13548
12407 13548
12407 13549
12408 13549
12408 13550
12409 13552
12409 13560
12409 13561
12409 13572
12410 13552
12410 13553
12411 13553
12411 13554
12412 13554
12412 13555
12413 13555
12413 13556
12414 13556
12414 13557
12415 13557
12415 13558
12416 13558
12416 13559
12417 13559
12417 13560
12418 13562
12418 13571
12418 13572
12418 13584
12419 13562
12419 13563
12420 13563
12420 13564
12421 13564
12421 13565
12422 13565
12422 13566
12423 13566
12423 13567
12424 13567
12424 13568
12425 13568
12425 13569
12426 13569
12426 13570
12427 13570
12427 13571
12428 13573
12428 13583
12428 13584
12428 13597
12429 13573
12429 13574
12430 13574
12430 13575
12431 13575
12431 13576
12432 13576
12432 13577
12433 13577
12433 13578
12434 13578
12434 13579
12435 13579
12435 13580
12436 13580
12436 13581
12437 13581
12437 13582
12438 13582
12438 13583
12439 13585
12439 13596
12439 13597
12439 13611
12440 13585
12440 13586
12441 13586
12441 13587
12442 13587
12442 13588
12443 13588
12443 13589
12444 13589
12444 13590
12445 13590
12445 13591
12446 13591
12446 13592
12447 13592
12447 13593
12448 13593
12448 13594
12449 13594
12449 13595
12450 13595
12450 13596
12451 13598
12451 13610
12451 13611
12451 16762
12451 16763
12452 13598
12452 13599
12453 13599
12453 13600
12454 13600
12454 13601
12455 13601
12455 13602
12456 13602
12456 13603
12457 13603
12457 13604
12458 13604
12458 13605
12459 13605
12459 13606
12460 13606
12460 13607
12461 13607
12461 13608
12462 13608
12462 13609
12463 13609
12463 13610
12464 13612
12464 13617
12464 13625
12465 13612
12465 13613
12466 13613
12466 13614
12467 13614
12467 13615
12468 13615
12468 13616
12469 13616
12469 13617
12470 13618
12470 13624
12470 13625
12470 13634
12471 13618
12471 13619
12472 13619
12472 13620
12473 13620
12473 13621
12474 13621
12474 13622
12475 13622
12475 13623
12476 13623
12476 13624
12477 13626
12477 13633
12477 13634
12477 13644
12478 13626
12478 13627
12479 13627
12479 13628
12480 13628
12480 13629
12481 13629
12481 13630
12482 13630
12482 13631
12483 13631
12483 13632
12484 13632
12484 13633
12485 13635
12485 13643
12485 13644
12485 13655
12486 13635
12486 13636
12487 13636
12487 13637
12488 13637
12488 13638
12489 13638
12489 13639
12490 13639
12490 13640
12491 13640
12491 13641
12492 13641
12492 13642
12493 13642
12493 13643
12494 13645
12494 13654
12494 13655
12494 13667
12495 13645
12495 13646
12496 13646
12496 13647
12497 13647
12497 13648
12498 13648
12498 13649
12499 13649
12499 13650
12500 13650
12500 13651
12501 13651
12501 13652
12502 13652
12502 13653
12503 13653
12503 13654
12504 13656
12504 13666
12504 13667
12504 13680
12505 13656
12505 13657
12506 13657
12506 13658
12507 13658
12507 13659
12508 13659
12508 13660
12509 13660
12509 13661
12510 13661
12510 13662
12511 13662
12511 13663
12512 13663
12512 13664
12513 13664
12513 13665
12514 13665
12514 13666
12515 13668
12515 13679
12515 13680
12515 13694
12516 13668
12516 13669
12517 13669
12517 13670
12518 13670
12518 13671
12519 13671
12519 13672
12520 13672
12520 13673
12521 13673
12521 13674
12522 13674
12522 13675
12523 13675
12523 13676
12524 13676
12524 13677
12525 13677
12525 13678
12526 13678
12526 13679
12527 13681
12527 13693
12527 13694
12527 16763
12527 16764
12528 13681
12528 13682
12529 13682
12529 13683
12530 13683
12530 13684
12531 13684
12531 13685
12532 13685
12532 13686
12533 13686
12533 13687
12534 13687
12534 13688
12535 13688
12535 13689
12536 13689
12536 13690
12537 13690
12537 13691
12538 13691
12538 13692
12539 13692
12539 13693
12540 13695
12540 13700
12540 13708
12541 13695
12541 13696
12542 13696
12542 13697
12543 13697
12543 13698
12544 13698
12544 13699
12545 13699
12545 13700
12546 13701
12546 13707
12546 13708
12546 13717
12547 13701
12547 13702
12548 13702
12548 13703
12549 13703
12549 13704
12550 13704
12550 13705
12551 13705
12551 13706
12552 13706
12552 13707
12553 13709
12553 13716
12553 13717
12553 13727
12554 13709
12554 13710
12555 13710
12555 13711
12556 13711
12556 13712
12557 13712
12557 13713
12558 13713
12558 13714
12559 13714
12559 13715
12560 13715
12560 13716
12561 13718
12561 13726
12561 13727
12561 13738
12562 13718
12562 13719
12563 13719
12563 13720
12564 13720
12564 13721
12565 13721
12565 13722
12566 13722
12566 13723
12567 13723
12567 13724
12568 13724
12568 13725
12569 13725
12569 13726
12570 13728
12570 13737
12570 13738
12570 13750
12571 13728
12571 13729
12572 13729
12572 13730
12573 13730
12573 13731
12574 13731
12574 13732
12575 13732
12575 13733
12576 13733
12576 13734
12577 13734
12577 13735
12578 13735
12578 13736
12579 13736
12579 13737
12580 13739
12580 13749
12580 13750
12580 13763
12581 13739
12581 13740
12582 13740
12582 13741
12583 13741
12583 13742
12584 13742
12584 13743
12585 13743
12585 13744
12586 13744
12586 13745
12587 13745
12587 13746
12588 13746
12588 13747
12589 13747
12589 13748
12590 13748
12590 13749
12591 13751
12591 13762
12591 13763
12591 13777
12592 13751
12592 13752
12593 13752
12593 13753
12594 13753
12594 13754
12595 13754
12595 13755
12596 13755
12596 13756
12597 13756
12597 13757
12598 13757
12598 13758
12599 13758
12599 13759
12600 13759
12600 13760
12601 13760
12601 13761
12602 13761
12602 13762
12603 13764
12603 13776
12603 13777
12603 16764
12603 16765
12604 13764
12604 13765
12605 13765
12605 13766
12606 13766
12606 13767
12607 13767
12607 13768
12608 13768
12608 13769
12609 13769
12609 13770
12610 13770
12610 13771
12611 13771
12611 13772
12612 13772
12612 13773
12613 13773
12613 13774
12614 13774
12614 13775
12615 13775
12615 13776
12616 13778
12616 13783
12616 13791
12617 13778
12617 13779
12618 13779
12618 13780
12619 13780
12619 13781
12620 13781
12620 13782
12621 13782
12621 13783
12622 13784
12622 13790
12622 13791
12622 13800
12623 13784
12623 13785
12624 13785
12624 13786
12625 13786
12625 13787
12626 13787
12626 13788
12627 13788
12627 13789
12628 13789
12628 13790
12629 13792
12629 13799
12629 13800
12629 13810
12630 13792
12630 13793
12631 13793
12631 13794
12632 13794
12632 13795
12633 13795
12633 13796
12634 13796
12634 13797
12635 13797
12635 13798
12636 13798
12636 13799
12637 13801
12637 13809
12637 13810
12637 13821
12638 13801
12638 13802
12639 13802
12639 13803
12640 13803
12640 13804
12641 13804
12641 13805
12642 13805
12642 13806
12643 13806
12643 13807
12644 13807
12644 13808
12645 13808
12645 13809
12646 13811
12646 13820
12646 13821
12646 13833
12647 13811
12647 13812
12648 13812
12648 13813
12649 13813
12649 13814
12650 13814
12650 13815
12651 13815
12651 13816
12652 13816
12652 13817
12653 13817
12653 13818
12654 13818
12654 13819
12655 13819
12655 13820
12656 13822
12656 13832
12656 13833
12656 13846
12657 13822
12657 13823
12658 13823
12658 13824
12659 13824
12659 13825
12660 13825
12660 13826
12661 13826
12661 13827
12662 13827
12662 13828
12663 13828
12663 13829
12664 13829
12664 13830
12665 13830
12665 13831
12666 13831
12666 13832
12667 13834
12667 13845
12667 13846
12667 13860
12668 13834
12668 13835
12669 13835
12669 13836
12670 13836
12670 13837
12671 13837
12671 13838
12672 13838
12672 13839
12673 13839
12673 13840
12674 13840
12674 13841
12675 13841
12675 13842
12676 13842
12676 13843
12677 13843
12677 13844
12678 13844
12678 13845
12679 13847
12679 13859
12679 13860
12679 16765
12679 16766
12680 13847
12680 13848
12681 13848
12681 13849
12682 13849
12682 13850
12683 13850
12683 13851
12684 13851
12684 13852
12685 13852
12685 13853
12686 13853
12686 13854
12687 13854
12687 13855
12688 13855
12688 13856
12689 13856
12689 13857
12690 13857
12690 13858
12691 13858
12691 13859
12692 13861
12692 13866
12692 13874
12693 13861
12693 13862
12694 13862
12694 13863
12695 13863
12695 13864
12696 13864
12696 13865
12697 13865
12697 13866
12698 13867
12698 13873
12698 13874
12698 13883
12699 13867
12699 13868
12700 13868
12700 13869
12701 13869
12701 13870
12702 13870
12702 13871
12703 13871
12703 13872
12704 13872
12704 13873
12705 13875
12705 13882
12705 13883
12705 13893
12706 13875
12706 13876
12707 13876
12707 13877
12708 13877
12708 13878
12709 13878
12709 13879
12710 13879
12710 13880
12711 13880
12711 13881
12712 13881
12712 13882
12713 13884
12713 13892
12713 13893
12713 13904
12714 13884
12714 13885
12715 13885
12715 13886
12716 13886
12716 13887
12717 13887
12717 13888
12718 13888
12718 13889
12719 13889
12719 13890
12720 13890
12720 13891
12721 13891
12721 13892
12722 13894
12722 13903
12722 13904
12722 13916
12723 13894
12723 13895
12724 13895
12724 13896
12725 13896
12725 13897
12726 13897
12726 13898
12727 13898
12727 13899
12728 13899
12728 13900
12729 13900
12729 13901
12730 13901
12730 13902
12731 13902
12731 13903
12732 13905
12732 13915
12732 13916
12732 13929
12733 13905
12733 13906
12734 13906
12734 13907
12735 13907
12735 13908
12736 13908
12736 13909
12737 13909
12737 13910
12738 13910
12738 13911
12739 13911
12739 13912
12740 13912
12740 13913
12741 13913
12741 13914
12742 13914
12742 13915
12743 13917
12743 13928
12743 13929
12743 13943
12744 13917
12744 13918
12745 13918
12745 13919
12746 13919
12746 13920
12747 13920
12747 13921
12748 13921
12748 13922
12749 13922
12749 13923
12750 13923
12750 13924
12751 13924
12751 13925
12752 13925
12752 13926
12753 13926
12753 13927
12754 13927
12754 13928
12755 13930
12755 13942
12755 13943
12755 16766
12755 16767
12756 13930
12756 13931
12757 13931
12757 13932
12758 13932
12758 13933
12759 13933
12759 13934
12760 13934
12760 13935
12761 13935
12761 13936
12762 13936
12762 13937
12763 13937
12763 13938
12764 13938
12764 13939
12765 13939
12765 13940
12766 13940
12766 13941
12767 13941
12767 13942
12768 13944
12768 13949
12768 13957
12769 13944
12769 13945
12770 13945
12770 13946
12771 13946
12771 13947
12772 13947
12772 13948
12773 13948
12773 13949
12774 13950
12774 13956
12774 13957
12774 13966
12775 13950
12775 13951
12776 13951
12776 13952
12777 13952
12777 13953
12778 13953
12778 13954
12779 13954
12779 13955
12780 13955
12780 13956
12781 13958
12781 13965
12781 13966
12781 13976
12782 13958
12782 13959
12783 13959
12783 13960
12784 13960
12784 13961
12785 13961
12785 13962
12786 13962
12786 13963
12787 13963
12787 13964
12788 13964
12788 13965
12789 13967
12789 13975
12789 13976
12789 13987
12790 13967
12790 13968
12791 13968
12791 13969
12792 13969
12792 13970
12793 13970
12793 13971
12794 13971
12794 13972
12795 13972
12795 13973
12796 13973
12796 13974
12797 13974
12797 13975
12798 13977
12798 13986
12798 13987
12798 13999
12799 13977
12799 13978
12800 13978
12800 13979
12801 13979
12801 13980
12802 13980
12802 13981
12803 13981
12803 13982
12804 13982
12804 13983
12805 13983
12805 13984
12806 13984
12806 13985
12807 13985
12807 13986
12808 13988
12808 13998
12808 13999
12808 14012
12809 13988
12809 13989
12810 13989
12810 13990
12811 13990
12811 13991
12812 13991
12812 13992
12813 13992
12813 13993
12814 13993
12814 13994
12815 13994
12815 13995
12816 13995
12816 13996
12817 13996
12817 13997
12818 13997
12818 13998
12819 14000
12819 14011
12819 14012
12819 14026
12820 14000
12820 14001
12821 14001
12821 14002
12822 14002
12822 14003
12823 14003
12823 14004
12824 14004
12824 14005
12825 14005
12825 14006
12826 14006
12826 14007
12827 14007
12827 14008
12828 14008
12828 14009
12829 14009
12829 14010
12830 14010
12830 14011
12831 14013
12831 14025
12831 14026
12831 16767
12831 16768
12832 14013
12832 14014
12833 14014
12833 14015
12834 14015
12834 14016
12835 14016
12835 14017
12836 14017
12836 14018
12837 14018
12837 14019
12838 14019
12838 14020
12839 14020
12839 14021
12840 14021
12840 14022
12841 14022
12841 14023
12842 14023
12842 14024
12843 14024
12843 14025
12844 14027
12844 14032
12844 14040
12845 14027
12845 14028
12846 14028
12846 14029
12847 14029
12847 14030
12848 14030
12848 14031
12849 14031
12849 14032
12850 14033
12850 14039
12850 14040
12850 14049
12851 14033
12851 14034
12852 14034
12852 14035
12853 14035
12853 14036
12854 14036
12854 14037
12855 14037
12855 14038
12856 14038
12856 14039
12857 14041
12857 14048
12857 14049
12857 14059
12858 14041
12858 14042
12859 14042
12859 14043
12860 14043
12860 14044
12861 14044
12861 14045
12862 14045
12862 14046
12863 14046
12863 14047
12864 14047
12864 14048
12865 14050
12865 14058
12865 14059
12865 14070
12866 14050
12866 14051
12867 14051
12867 14052
12868 14052
12868 14053
12869 14053
12869 14054
12870 14054
12870 14055
12871 14055
12871 14056
12872 14056
12872 14057
12873 14057
12873 14058
12874 14060
12874 14069
12874 14070
12874 14082
12875 14060
12875 14061
12876 14061
12876 14062
12877 14062
12877 14063
12878 14063
12878 14064
12879 14064
12879 14065
12880 14065
12880 14066
12881 14066
12881 14067
12882 14067
12882 14068
12883 14068
12883 14069
12884 14071
12884 14081
12884 14082
12884 14095
12885 14071
12885 14072
12886 14072
12886 14073
12887 14073
12887 14074
12888 14074
12888 14075
12889 14075
12889 14076
12890 14076
12890 14077
12891 14077
12891 14078
12892 14078
12892 14079
12893 14079
12893 14080
12894 14080
12894 14081
12895 14083
12895 14094
12895 14095
12895 14109
12896 14083
12896 14084
12897 14084
12897 14085
12898 14085
12898 14086
12899 14086
12899 14087
12900 14087
12900 14088
12901 14088
12901 14089
12902 14089
12902 14090
12903 14090
12903 14091
12904 14091
12904 14092
12905 14092
12905 14093
12906 14093
12906 14094
12907 14096
12907 14108
12907 14109
12907 16768
12907 16769
12908 14096
12908 14097
12909 14097
12909 14098
12910 14098
12910 14099
12911 14099
12911 14100
12912 14100
12912 14101
12913 14101
12913 14102
12914 14102
12914 14103
12915 14103
12915 14104
12916 14104
12916 14105
12917 14105
12917 14106
12918 14106
12918 14107
12919 14107
12919 14108
12920 14110
12920 14115
12920 14123
12921 14110
12921 14111
12922 14111
12922 14112
12923 14112
12923 14113
12924 14113
12924 14114
12925 14114
12925 14115
12926 14116
12926 14122
12926 14123
12926 14132
12927 14116
12927 14117
12928 14117
12928 14118
12929 14118
12929 14119
12930 14119
12930 14120
12931 14120
12931 14121
12932 14121
12932 14122
12933 14124
12933 14131
12933 14132
12933 14142
12934 14124
12934 14125
12935 14125
12935 14126
12936 14126
12936 14127
12937 14127
12937 14128
12938 14128
12938 14129
12939 14129
12939 14130
12940 14130
12940 14131
12941 14133
12941 14141
12941 14142
12941 14153
12942 14133
12942 14134
12943 14134
12943 14135
12944 14135
12944 14136
12945 14136
12945 14137
12946 14137
12946 14138
12947 14138
12947 14139
12948 14139
12948 14140
12949 14140
12949 14141
12950 14143
12950 14152
12950 14153
12950 14165
12951 14143
12951 14144
12952 14144
12952 14145
12953 14145
12953 14146
12954 14146
12954 14147
12955 14147
12955 14148
12956 14148
12956 14149
12957 14149
12957 14150
12958 14150
12958 14151
12959 14151
12959 14152
12960 14154
12960 14164
12960 14165
12960 14178
12961 14154
12961 14155
12962 14155
12962 14156
12963 14156
12963 14157
12964 14157
12964 14158
12965 14158
12965 14159
12966 14159
12966 14160
12967 14160
12967 14161
12968 14161
12968 14162
12969 14162
12969 14163
12970 14163
12970 14164
12971 14166
12971 14177
12971 14178
12971 14192
12972 14166
12972 14167
12973 14167
12973 14168
12974 14168
12974 14169
12975 14169
12975 14170
12976 14170
12976 14171
12977 14171
12977 14172
12978 14172
12978 14173
12979 14173
12979 14174
12980 14174
12980 14175
12981 14175
12981 14176
12982 14176
12982 14177
12983 14179
12983 14191
12983 14192
12983 16769
12983 16770
12984 14179
12984 14180
12985 14180
12985 14181
12986 14181
12986 14182
12987 14182
12987 14183
12988 14183
12988 14184
12989 14184
12989 14185
12990 14185
12990 14186
12991 14186
12991 14187
12992 14187
12992 14188
12993 14188
12993 14189
12994 14189
12994 14190
12995 14190
12995 14191
12996 14193
12996 14198
12996 14206
12997 14193
12997 14194
12998 14194
12998 14195
12999 14195
12999 14196
13000 14196
13000 14197
13001 14197
13001 14198
13002 14199
13002 14205
13002 14206
13002 14215
13003 14199
13003 14200
13004 14200
13004 14201
13005 14201
13005 14202
13006 14202
13006 14203
13007 14203
13007 14204
13008 14204
13008 14205
13009 14207
13009 14214
13009 14215
13009 14225
13010 14207
13010 14208
13011 14208
13011 14209
13012 14209
13012 14210
13013 14210
13013 14211
13014 14211
13014 14212
13015 14212
13015 14213
13016 14213
13016 14214
13017 14216
13017 14224
13017 14225
13017 14236
13018 14216
13018 14217
13019 14217
13019 14218
13020 14218
13020 14219
13021 14219
13021 14220
13022 14220
13022 14221
13023 14221
13023 14222
13024 14222
13024 14223
13025 14223
13025 14224
13026 14226
13026 14235
13026 14236
13026 14248
13027 14226
13027 14227
13028 14227
13028 14228
13029 14228
13029 14229
13030 14229
13030 14230
13031 14230
13031 14231
13032 14231
13032 14232
13033 14232
13033 14233
13034 14233
13034 14234
13035 14234
13035 14235
13036 14237
13036 14247
13036 14248
13036 14261
13037 14237
13037 14238
13038 14238
13038 14239
13039 14239
13039 14240
13040 14240
13040 14241
13041 14241
13041 14242
13042 14242
13042 14243
13043 14243
13043 14244
13044 14244
13044 14245
13045 14245
13045 14246
13046 14246
13046 14247
13047 14249
13047 14260
13047 14261
13047 14275
13048 14249
13048 14250
13049 14250
13049 14251
13050 14251
13050 14252
13051 14252
13051 14253
13052 14253
13052 14254
13053 14254
13053 14255
13054 14255
13054 14256
13055 14256
13055 14257
13056 14257
13056 14258
13057 14258
13057 14259
13058 14259
13058 14260
13059 14262
13059 14274
13059 14275
13059 16770
13059 16771
13060 14262
13060 14263
13061 14263
13061 14264
13062 14264
13062 14265
13063 14265
13063 14266
13064 14266
13064 14267
13065 14267
13065 14268
13066 14268
13066 14269
13067 14269
13067 14270
13068 14270
13068 14271
13069 14271
13069 14272
13070 14272
13070 14273
13071 14273
13071 14274
13072 14276
13072 14281
13072 14289
13073 14276
13073 14277
13074 14277
13074 14278
13075 14278
13075 14279
13076 14279
13076 14280
13077 14280
13077 14281
13078 14282
13078 14288
13078 14289
13078 14298
13079 14282
13079 14283
13080 14283
13080 14284
13081 14284
13081 14285
13082 14285
13082 14286
13083 14286
13083 14287
13084 14287
13084 14288
13085 14290
13085 14297
13085 14298
13085 14308
13086 14290
13086 14291
13087 14291
13087 14292
13088 14292
13088 14293
13089 14293
13089 14294
13090 14294
13090 14295
13091 14295
13091 14296
13092 14296
13092 14297
13093 14299
13093 14307
13093 14308
13093 14319
13094 14299
13094 14300
13095 14300
13095 14301
13096 14301
13096 14302
13097 14302
13097 14303
13098 14303
13098 14304
13099 14304
13099 14305
13100 14305
13100 14306
13101 14306
13101 14307
13102 14309
13102 14318
13102 14319
13102 14331
13103 14309
13103 14310
13104 14310
13104 14311
13105 14311
13105 14312
13106 14312
13106 14313
13107 14313
13107 14314
13108 14314
13108 14315
13109 14315
13109 14316
13110 14316
13110 14317
13111 14317
13111 14318
13112 14320
13112 14330
13112 14331
13112 14344
13113 14320
13113 14321
13114 14321
13114 14322
13115 14322
13115 14323
13116 14323
13116 14324
13117 14324
13117 14325
13118 14325
13118 14326
13119 14326
13119 14327
13120 14327
13120 14328
13121 14328
13121 14329
13122 14329
13122 14330
13123 14332
13123 14343
13123 14344
13123 14358
13124 14332
13124 14333
13125 14333
13125 14334
13126 14334
13126 14335
13127 14335
13127 14336
13128 14336
13128 14337
13129 14337
13129 14338
13130 14338
13130 14339
13131 14339
13131 14340
13132 14340
13132 14341
13133 14341
13133 14342
13134 14342
13134 14343
13135 14345
13135 14357
13135 14358
13135 16771
13135 16772
13136 14345
13136 14346
13137 14346
13137 14347
13138 14347
13138 14348
13139 14348
13139 14349
13140 14349
13140 14350
13141 14350
13141 14351
13142 14351
13142 14352
13143 14352
13143 14353
13144 14353
13144 14354
13145 14354
13145 14355
13146 14355
13146 14356
13147 14356
13147 14357
13148 14359
13148 14364
13148 14372
13149 14359
13149 14360
13150 14360
13150 14361
13151 14361
13151 14362
13152 14362
13152 14363
13153 14363
13153 14364
13154 14365
13154 14371
13154 14372
13154 14381
13155 14365
13155 14366
13156 14366
13156 14367
13157 14367
13157 14368
13158 14368
13158 14369
13159 14369
13159 14370
13160 14370
13160 14371
13161 14373
13161 14380
13161 14381
13161 14391
13162 14373
13162 14374
13163 14374
13163 14375
13164 14375
13164 14376
13165 14376
13165 14377
13166 14377
13166 14378
13167 14378
13167 14379
13168 14379
13168 14380
13169 14382
13169 14390
13169 14391
13169 14402
13170 14382
13170 14383
13171 14383
13171 14384
13172 14384
13172 14385
13173 14385
13173 14386
13174 14386
13174 14387
13175 14387
13175 14388
13176 14388
13176 14389
13177 14389
13177 14390
13178 14392
13178 14401
13178 14402
13178 14414
13179 14392
13179 14393
13180 14393
13180 14394
13181 14394
13181 14395
13182 14395
13182 14396
13183 14396
13183 14397
13184 14397
13184 14398
13185 14398
13185 14399
13186 14399
13186 14400
13187 14400
13187 14401
13188 14403
13188 14413
13188 14414
13188 14427
13189 14403
13189 14404
13190 14404
13190 14405
13191 14405
13191 14406
13192 14406
13192 14407
13193 14407
13193 14408
13194 14408
13194 14409
13195 14409
13195 14410
13196 14410
13196 14411
13197 14411
13197 14412
13198 14412
13198 14413
13199 14415
13199 14426
13199 14427
13199 14441
13200 14415
13200 14416
13201 14416
13201 14417
13202 14417
13202 14418
13203 14418
13203 14419
13204 14419
13204 14420
13205 14420
13205 14421
13206 14421
13206 14422
13207 14422
13207 14423
13208 14423
13208 14424
13209 14424
13209 14425
13210 14425
13210 14426
13211 14428
13211 14440
13211 14441
13211 16772
13211 16773
13212 14428
13212 14429
13213 14429
13213 14430
13214 14430
13214 14431
13215 14431
13215 14432
13216 14432
13216 14433
13217 14433
13217 14434
13218 14434
13218 14435
13219 14435
13219 14436
13220 14436
13220 14437
13221 14437
13221 14438
13222 14438
13222 14439
13223 14439
13223 14440
13224 14442
13224 14447
13224 14455
13225 14442
13225 14443
13226 14443
13226 14444
13227 14444
13227 14445
13228 14445
13228 14446
13229 14446
13229 14447
13230 14448
13230 14454
13230 14455
13230 14464
13231 14448
13231 14449
13232 14449
13232 14450
13233 14450
13233 14451
13234 14451
13234 14452
13235 14452
13235 14453
13236 14453
13236 14454
13237 14456
13237 14463
13237 14464
13237 14474
13238 14456
13238 14457
13239 14457
13239 14458
13240 14458
13240 14459
13241 14459
13241 14460
13242 14460
13242 14461
13243 14461
13243 14462
13244 14462
13244 14463
13245 14465
13245 14473
13245 14474
13245 14485
13246 14465
13246 14466
13247 14466
13247 14467
13248 14467
13248 14468
13249 14468
13249 14469
13250 14469
13250 14470
13251 14470
13251 14471
13252 14471
13252 14472
13253 14472
13253 14473
13254 14475
13254 14484
13254 14485
13254 14497
13255 14475
13255 14476
13256 14476
13256 14477
13257 14477
13257 14478
13258 14478
13258 14479
13259 14479
13259 14480
13260 14480
13260 14481
13261 14481
13261 14482
13262 14482
13262 14483
13263 14483
13263 14484
13264 14486
13264 14496
13264 14497
13264 14510
13265 14486
13265 14487
13266 14487
13266 14488
13267 14488
13267 14489
13268 14489
13268 14490
13269 14490
13269 14491
13270 14491
13270 14492
13271 14492
13271 14493
13272 14493
13272 14494
13273 14494
13273 14495
13274 14495
13274 14496
13275 14498
13275 14509
13275 14510
13275 14524
13276 14498
13276 14499
13277 14499
13277 14500
13278 14500
13278 14501
13279 14501
13279 14502
13280 14502
13280 14503
13281 14503
13281 14504
13282 14504
13282 14505
13283 14505
13283 14506
13284 14506
13284 14507
13285 14507
13285 14508
13286 14508
13286 14509
13287 14511
13287 14523
13287 14524
13287 16773
13287 16774
13288 14511
13288 14512
13289 14512
13289 14513
13290 14513
13290 14514
13291 14514
13291 14515
13292 14515
13292 14516
13293 14516
13293 14517
13294 14517
13294 14518
13295 14518
13295 14519
13296 14519
13296 14520
13297 14520
13297 14521
13298 14521
13298 14522
13299 14522
13299 14523
13300 14525
13300 14530
13300 14538
13301 14525
13301 14526
13302 14526
13302 14527
13303 14527
13303 14528
13304 14528
13304 14529
13305 14529
13305 14530
13306 14531
13306 14537
13306 14538
13306 14547
13307 14531
13307 14532
13308 14532
13308 14533
13309 14533
13309 14534
13310 14534
13310 14535
13311 14535
13311 14536
13312 14536
13312 14537
13313 14539
13313 14546
13313 14547
13313 14557
13314 14539
13314 14540
13315 14540
13315 14541
13316 14541
13316 14542
13317 14542
13317 14543
13318 14543
13318 14544
13319 14544
13319 14545
13320 14545
13320 14546
13321 14548
13321 14556
13321 14557
13321 14568
13322 14548
13322 14549
13323 14549
13323 14550
13324 14550
13324 14551
13325 14551
13325 14552
13326 14552
13326 14553
13327 14553
13327 14554
13328 14554
13328 14555
13329 14555
13329 14556
13330 14558
13330 14567
13330 14568
13330 14580
13331 14558
13331 14559
13332 14559
13332 14560
13333 14560
13333 14561
13334 14561
13334 14562
13335 14562
13335 14563
13336 14563
13336 14564
13337 14564
13337 14565
13338 14565
13338 14566
13339 14566
13339 14567
13340 14569
13340 14579
13340 14580
13340 14593
13341 14569
13341 14570
13342 14570
13342 14571
13343 14571
13343 14572
13344 14572
13344 14573
13345 14573
13345 14574
13346 14574
13346 14575
13347 14575
13347 14576
13348 14576
13348 14577
13349 14577
13349 14578
13350 14578
13350 14579
13351 14581
13351 14592
13351 14593
13351 14607
13352 14581
13352 14582
13353 14582
13353 14583
13354 14583
13354 14584
13355 14584
13355 14585
13356 14585
13356 14586
13357 14586
13357 14587
13358 14587
13358 14588
13359 14588
13359 14589
13360 14589
13360 14590
13361 14590
13361 14591
13362 14591
13362 14592
13363 14594
13363 14606
13363 14607
13363 16774
13363 16775
13364 14594
13364 14595
13365 14595
13365 14596
13366 14596
13366 14597
13367 14597
13367 14598
13368 14598
13368 14599
13369 14599
13369 14600
13370 14600
13370 14601
13371 14601
13371 14602
13372 14602
13372 14603
13373 14603
13373 14604
13374 14604
13374 14605
13375 14605
13375 14606
13376 14608
13376 14613
13376 14621
13377 14608
13377 14609
13378 14609
13378 14610
13379 14610
13379 14611
13380 14611
13380 14612
13381 14612
13381 14613
13382 14614
13382 14620
13382 14621
13382 14630
13383 14614
13383 14615
13384 14615
13384 14616
13385 14616
13385 14617
13386 14617
13386 14618
13387 14618
13387 14619
13388 14619
13388 14620
13389 14622
13389 14629
13389 14630
13389 14640
13390 14622
13390 14623
13391 14623
13391 14624
13392 14624
13392 14625
13393 14625
13393 14626
13394 14626
13394 14627
13395 14627
13395 14628
13396 14628
13396 14629
13397 14631
13397 14639
13397 14640
13397 14651
13398 14631
13398 14632
13399 14632
13399 14633
13400 14633
13400 14634
13401 14634
13401 14635
13402 14635
13402 14636
13403 14636
13403 14637
13404 14637
13404 14638
13405 14638
13405 14639
13406 14641
13406 14650
13406 14651
13406 14663
13407 14641
13407 14642
13408 14642
13408 14643
13409 14643
13409 14644
13410 14644
13410 14645
13411 14645
13411 14646
13412 14646
13412 14647
13413 14647
13413 14648
13414 14648
13414 14649
13415 14649
13415 14650
13416 14652
13416 14662
13416 14663
13416 14676
13417 14652
13417 14653
13418 14653
13418 14654
13419 14654
13419 14655
13420 14655
13420 14656
13421 14656
13421 14657
13422 14657
13422 14658
13423 14658
13423 14659
13424 14659
13424 14660
13425 14660
13425 14661
13426 14661
13426 14662
13427 14664
13427 14675
13427 14676
13427 14690
13428 14664
13428 14665
13429 14665
13429 14666
13430 14666
13430 14667
13431 14667
13431 14668
13432 14668
13432 14669
13433 14669
13433 14670
13434 14670
13434 14671
13435 14671
13435 14672
13436 14672
13436 14673
13437 14673
13437 14674
13438 14674
13438 14675
13439 14677
13439 14689
13439 14690
13439 16775
13439 16776
13440 14677
13440 14678
13441 14678
13441 14679
13442 14679
13442 14680
13443 14680
13443 14681
13444 14681
13444 14682
13445 14682
13445 14683
13446 14683
13446 14684
13447 14684
13447 14685
13448 14685
13448 14686
13449 14686
13449 14687
13450 14687
13450 14688
13451 14688
13451 14689
13452 14691
13452 14696
13452 14704
13453 14691
13453 14692
13454 14692
13454 14693
13455 14693
13455 14694
13456 14694
13456 14695
13457 14695
13457 14696
13458 14697
13458 14703
13458 14704
13458 14713
13459 14697
13459 14698
13460 14698
13460 14699
13461 14699
13461 14700
13462 14700
13462 14701
13463 14701
13463 14702
13464 14702
13464 14703
13465 14705
13465 14712
13465 14713
13465 14723
13466 14705
13466 14706
13467 14706
13467 14707
13468 14707
13468 14708
13469 14708
13469 14709
13470 14709
13470 14710
13471 14710
13471 14711
13472 14711
13472 14712
13473 14714
13473 14722
13473 14723
13473 14734
13474 14714
13474 14715
13475 14715
13475 14716
13476 14716
13476 14717
13477 14717
13477 14718
13478 14718
13478 14719
13479 14719
13479 14720
13480 14720
13480 14721
13481 14721
13481 14722
13482 14724
13482 14733
13482 14734
13482 14746
13483 14724
13483 14725
13484 14725
13484 14726
13485 14726
13485 14727
13486 14727
13486 14728
13487 14728
13487 14729
13488 14729
13488 14730
13489 14730
13489 14731
13490 14731
13490 14732
13491 14732
13491 14733
13492 14735
13492 14745
13492 14746
13492 14759
13493 14735
13493 14736
13494 14736
13494 14737
13495 14737
13495 14738
13496 14738
13496 14739
13497 14739
13497 14740
13498 14740
13498 14741
13499 14741
13499 14742
13500 14742
13500 14743
13501 14743
13501 14744
13502 14744
13502 14745
13503 14747
13503 14758
13503 14759
13503 14773
13504 14747
13504 14748
13505 14748
13505 14749
13506 14749
13506 14750
13507 14750
13507 14751
13508 14751
13508 14752
13509 14752
13509 14753
13510 14753
13510 14754
13511 14754
13511 14755
13512 14755
13512 14756
13513 14756
13513 14757
13514 14757
13514 14758
13515 14760
13515 14772
13515 14773
13515 16776
13515 16777
13516 14760
13516 14761
13517 14761
13517 14762
13518 14762
13518 14763
13519 14763
13519 14764
13520 14764
13520 14765
13521 14765
13521 14766
13522 14766
13522 14767
13523 14767
13523 14768
13524 14768
13524 14769
13525 14769
13525 14770
13526 14770
13526 14771
13527 14771
13527 14772
13528 14774
13528 14779
13528 14787
13529 14774
13529 14775
13530 14775
13530 14776
13531 14776
13531 14777
13532 14777
13532 14778
13533 14778
13533 14779
13534 14780
13534 14786
13534 14787
13534 14796
13535 14780
13535 14781
13536 14781
13536 14782
13537 14782
13537 14783
13538 14783
13538 14784
13539 14784
13539 14785
13540 14785
13540 14786
13541 14788
13541 14795
13541 14796
13541 14806
13542 14788
13542 14789
13543 14789
13543 14790
13544 14790
13544 14791
13545 14791
13545 14792
13546 14792
13546 14793
13547 14793
13547 14794
13548 14794
13548 14795
13549 14797
13549 14805
13549 14806
13549 14817
13550 14797
13550 14798
13551 14798
13551 14799
13552 14799
13552 14800
13553 14800
13553 14801
13554 14801
13554 14802
13555 14802
13555 14803
13556 14803
13556 14804
13557 14804
13557 14805
13558 14807
13558 14816
13558 14817
13558 14829
13559 14807
13559 14808
13560 14808
13560 14809
13561 14809
13561 14810
13562 14810
13562 14811
13563 14811
13563 14812
13564 14812
13564 14813
13565 14813
13565 14814
13566 14814
13566 14815
13567 14815
13567 14816
13568 14818
13568 14828
13568 14829
13568 14842
13569 14818
13569 14819
13570 14819
13570 14820
13571 14820
13571 14821
13572 14821
13572 14822
13573 14822
13573 14823
13574 14823
13574 14824
13575 14824
13575 14825
13576 14825
13576 14826
13577 14826
13577 14827
13578 14827
13578 14828
13579 14830
13579 14841
13579 14842
13579 14856
13580 14830
13580 14831
13581 14831
13581 14832
13582 14832
13582 14833
13583 14833
13583 14834
13584 14834
13584 14835
13585 14835
13585 14836
13586 14836
13586 14837
13587 14837
13587 14838
13588 14838
13588 14839
13589 14839
13589 14840
13590 14840
13590 14841
13591 14843
13591 14855
13591 14856
13591 16777
13591 16778
13592 14843
13592 14844
13593 14844
13593 14845
13594 14845
13594 14846
13595 14846
13595 14847
13596 14847
13596 14848
13597 14848
13597 14849
13598 14849
13598 14850
13599 14850
13599 14851
13600 14851
13600 14852
13601 14852
13601 14853
13602 14853
13602 14854
13603 14854
13603 14855
13604 14857
13604 14862
13604 14870
13605 14857
13605 14858
13606 14858
13606 14859
13607 14859
13607 14860
13608 14860
13608 14861
13609 14861
13609 14862
13610 14863
13610 14869
13610 14870
13610 14879
13611 14863
13611 14864
13612 14864
13612 14865
13613 14865
13613 14866
13614 14866
13614 14867
13615 14867
13615 14868
13616 14868
13616 14869
13617 14871
13617 14878
13617 14879
13617 14889
13618 14871
13618 14872
13619 14872
13619 14873
13620 14873
13620 14874
13621 14874
13621 14875
13622 14875
13622 14876
13623 14876
13623 14877
13624 14877
13624 14878
13625 14880
13625 14888
13625 14889
13625 14900
13626 14880
13626 14881
13627 14881
13627 14882
13628 14882
13628 14883
13629 14883
13629 14884
13630 14884
13630 14885
13631 14885
13631 14886
13632 14886
13632 14887
13633 14887
13633 14888
13634 14890
13634 14899
13634 14900
13634 14912
13635 14890
13635 14891
13636 14891
13636 14892
13637 14892
13637 14893
13638 14893
13638 14894
13639 14894
13639 14895
13640 14895
13640 14896
13641 14896
13641 14897
13642 14897
13642 14898
13643 14898
13643 14899
13644 14901
13644 14911
13644 14912
13644 14925
13645 14901
13645 14902
13646 14902
13646 14903
13647 14903
13647 14904
13648 14904
13648 14905
13649 14905
13649 14906
13650 14906
13650 14907
13651 14907
13651 14908
13652 14908
13652 14909
13653 14909
13653 14910
13654 14910
13654 14911
13655 14913
13655 14924
13655 14925
13655 14939
13656 14913
13656 14914
13657 14914
13657 14915
13658 14915
13658 14916
13659 14916
13659 14917
13660 14917
13660 14918
13661 14918
13661 14919
13662 14919
13662 14920
13663 14920
13663 14921
13664 14921
13664 14922
13665 14922
13665 14923
13666 14923
13666 14924
13667 14926
13667 14938
13667 14939
13667 16778
13667 16779
13668 14926
13668 14927
13669 14927
13669 14928
13670 14928
13670 14929
13671 14929
13671 14930
13672 14930
13672 14931
13673 14931
13673 14932
13674 14932
13674 14933
13675 14933
13675 14934
13676 14934
13676 14935
13677 14935
13677 14936
13678 14936
13678 14937
13679 14937
13679 14938
13680 14940
13680 14945
13680 14953
13681 14940
13681 14941
13682 14941
13682 14942
13683 14942
13683 14943
13684 14943
13684 14944
13685 14944
13685 14945
13686 14946
13686 14952
13686 14953
13686 14962
13687 14946
13687 14947
13688 14947
13688 14948
13689 14948
13689 14949
13690 14949
13690 14950
13691 14950
13691 14951
13692 14951
13692 14952
13693 14954
13693 14961
13693 14962
13693 14972
13694 14954
13694 14955
13695 14955
13695 14956
13696 14956
13696 14957
13697 14957
13697 14958
13698 14958
13698 14959
13699 14959
13699 14960
13700 14960
13700 14961
13701 14963
13701 14971
13701 14972
13701 14983
13702 14963
13702 14964
13703 14964
13703 14965
13704 14965
13704 14966
13705 14966
13705 14967
13706 14967
13706 14968
13707 14968
13707 14969
13708 14969
13708 14970
13709 14970
13709 14971
13710 14973
13710 14982
13710 14983
13710 14995
13711 14973
13711 14974
13712 14974
13712 14975
13713 14975
13713 14976
13714 14976
13714 14977
13715 14977
13715 14978
13716 14978
13716 14979
13717 14979
13717 14980
13718 14980
13718 14981
13719 14981
13719 14982
13720 14984
13720 14994
13720 14995
13720 15008
13721 14984
13721 14985
13722 14985
13722 14986
13723 14986
13723 14987
13724 14987
13724 14988
13725 14988
13725 14989
13726 14989
13726 14990
13727 14990
13727 14991
13728 14991
13728 14992
13729 14992
13729 14993
13730 14993
13730 14994
13731 14996
13731 15007
13731 15008
13731 15022
13732 14996
13732 14997
13733 14997
13733 14998
13734 14998
13734 14999
13735 14999
13735 15000
13736 15000
13736 15001
13737 15001
13737 15002
13738 15002
13738 15003
13739 15003
13739 15004
13740 15004
13740 15005
13741 15005
13741 15006
13742 15006
13742 15007
13743 15009
13743 15021
13743 15022
13743 16779
13743 16780
13744 15009
13744 15010
13745 15010
13745 15011
13746 15011
13746 15012
13747 15012
13747 15013
13748 15013
13748 15014
13749 15014
13749 15015
13750 15015
13750 15016
13751 15016
13751 15017
13752 15017
13752 15018
13753 15018
13753 15019
13754 15019
13754 15020
13755 15020
13755 15021
13756 15023
13756 15028
13756 15036
13757 15023
13757 15024
13758 15024
13758 15025
13759 15025
13759 15026
13760 15026
13760 15027
13761 15027
13761 15028
13762 15029
13762 15035
13762 15036
13762 15045
13763 15029
13763 15030
13764 15030
13764 15031
13765 15031
13765 15032
13766 15032
13766 15033
13767 15033
13767 15034
13768 15034
13768 15035
13769 15037
13769 15044
13769 15045
13769 15055
13770 15037
13770 15038
13771 15038
13771 15039
13772 15039
13772 15040
13773 15040
13773 15041
13774 15041
13774 15042
13775 15042
13775 15043
13776 15043
13776 15044
13777 15046
13777 15054
13777 15055
13777 15066
13778 15046
13778 15047
13779 15047
13779 15048
13780 15048
13780 15049
13781 15049
13781 15050
13782 15050
13782 15051
13783 15051
13783 15052
13784 15052
13784 15053
13785 15053
13785 15054
13786 15056
13786 15065
13786 15066
13786 15078
13787 15056
13787 15057
13788 15057
13788 15058
13789 15058
13789 15059
13790 15059
13790 15060
13791 15060
13791 15061
13792 15061
13792 15062
13793 15062
13793 15063
13794 15063
13794 15064
13795 15064
13795 15065
13796 15067
13796 15077
13796 15078
13796 15091
13797 15067
13797 15068
13798 15068
13798 15069
13799 15069
13799 15070
13800 15070
13800 15071
13801 15071
13801 15072
13802 15072
13802 15073
13803 15073
13803 15074
13804 15074
13804 15075
13805 15075
13805 15076
13806 15076
13806 15077
13807 15079
13807 15090
13807 15091
13807 15105
13808 15079
13808 15080
13809 15080
13809 15081
13810 15081
13810 15082
13811 15082
13811 15083
13812 15083
13812 15084
13813 15084
13813 15085
13814 15085
13814 15086
13815 15086
13815 15087
13816 15087
13816 15088
13817 15088
13817 15089
13818 15089
13818 15090
13819 15092
13819 15104
13819 15105
13819 16780
13819 16781
13820 15092
13820 15093
13821 15093
13821 15094
13822 15094
13822 15095
13823 15095
13823 15096
13824 15096
13824 15097
13825 15097
13825 15098
13826 15098
13826 15099
13827 15099
13827 15100
13828 15100
13828 15101
13829 15101
13829 15102
13830 15102
13830 15103
13831 15103
13831 15104
13832 15106
13832 15111
13832 15119
13833 15106
13833 15107
13834 15107
13834 15108
13835 15108
13835 15109
13836 15109
13836 15110
13837 15110
13837 15111
13838 15112
13838 15118
13838 15119
13838 15128
13839 15112
13839 15113
13840 15113
13840 15114
13841 15114
13841 15115
13842 15115
13842 15116
13843 15116
13843 15117
13844 15117
13844 15118
13845 15120
13845 15127
13845 15128
13845 15138
13846 15120
13846 15121
13847 15121
13847 15122
13848 15122
13848 15123
13849 15123
13849 15124
13850 15124
13850 15125
13851 15125
13851 15126
13852 15126
13852 15127
13853 15129
13853 15137
13853 15138
13853 15149
13854 15129
13854 15130
13855 15130
13855 15131
13856 15131
13856 15132
13857 15132
13857 15133
13858 15133
13858 15134
13859 15134
13859 15135
13860 15135
13860 15136
13861 15136
13861 15137
13862 15139
13862 15148
13862 15149
13862 15161
13863 15139
13863 15140
13864 15140
13864 15141
13865 15141
13865 15142
13866 15142
13866 15143
13867 15143
13867 15144
13868 15144
13868 15145
13869 15145
13869 15146
13870 15146
13870 15147
13871 15147
13871 15148
13872 15150
13872 15160
13872 15161
13872 15174
13873 15150
13873 15151
13874 15151
13874 15152
13875 15152
13875 15153
13876 15153
13876 15154
13877 15154
13877 15155
13878 15155
13878 15156
13879 15156
13879 15157
13880 15157
13880 15158
13881 15158
13881 15159
13882 15159
13882 15160
13883 15162
13883 15173
13883 15174
13883 15188
13884 15162
13884 15163
13885 15163
13885 15164
13886 15164
13886 15165
13887 15165
13887 15166
13888 15166
13888 15167
13889 15167
13889 15168
13890 15168
13890 15169
13891 15169
13891 15170
13892 15170
13892 15171
13893 15171
13893 15172
13894 15172
13894 15173
13895 15175
13895 15187
13895 15188
13895 16781
13895 16782
13896 15175
13896 15176
13897 15176
13897 15177
13898 15177
13898 15178
13899 15178
13899 15179
13900 15179
13900 15180
13901 15180
13901 15181
13902 15181
13902 15182
13903 15182
13903 15183
13904 15183
13904 15184
13905 15184
13905 15185
13906 15185
13906 15186
13907 15186
13907 15187
13908 15189
13908 15194
13908 15202
13909 15189
13909 15190
13910 15190
13910 15191
13911 15191
13911 15192
13912 15192
13912 15193
13913 15193
13913 15194
13914 15195
13914 15201
13914 15202
13914 15211
13915 15195
13915 15196
13916 15196
13916 15197
13917 15197
13917 15198
13918 15198
13918 15199
13919 15199
13919 15200
13920 15200
13920 15201
13921 15203
13921 15210
13921 15211
13921 15221
13922 15203
13922 15204
13923 15204
13923 15205
13924 15205
13924 15206
13925 15206
13925 15207
13926 15207
13926 15208
13927 15208
13927 15209
13928 15209
13928 15210
13929 15212
13929 15220
13929 15221
13929 15232
13930 15212
13930 15213
13931 15213
13931 15214
13932 15214
13932 15215
13933 15215
13933 15216
13934 15216
13934 15217
13935 15217
13935 15218
13936 15218
13936 15219
13937 15219
13937 15220
13938 15222
13938 15231
13938 15232
13938 15244
13939 15222
13939 15223
13940 15223
13940 15224
13941 15224
13941 15225
13942 15225
13942 15226
13943 15226
13943 15227
13944 15227
13944 15228
13945 15228
13945 15229
13946 15229
13946 15230
13947 15230
13947 15231
13948 15233
13948 15243
13948 15244
13948 15257
13949 15233
13949 15234
13950 15234
13950 15235
13951 15235
13951 15236
13952 15236
13952 15237
13953 15237
13953 15238
13954 15238
13954 15239
13955 15239
13955 15240
13956 15240
13956 15241
13957 15241
13957 15242
13958 15242
13958 15243
13959 15245
13959 15256
13959 15257
13959 15271
13960 15245
13960 15246
13961 15246
13961 15247
13962 15247
13962 15248
13963 15248
13963 15249
13964 15249
13964 15250
13965 15250
13965 15251
13966 15251
13966 15252
13967 15252
13967 15253
13968 15253
13968 15254
13969 15254
13969 15255
13970 15255
13970 15256
13971 15258
13971 15270
13971 15271
13971 16782
13971 16783
13972 15258
13972 15259
13973 15259
13973 15260
13974 15260
13974 15261
13975 15261
13975 15262
13976 15262
13976 15263
13977 15263
13977 15264
13978 15264
13978 15265
13979 15265
13979 15266
13980 15266
13980 15267
13981 15267
13981 15268
13982 15268
13982 15269
13983 15269
13983 15270
13984 15272
13984 15277
13984 15285
13985 15272
13985 15273
13986 15273
13986 15274
13987 15274
13987 15275
13988 15275
13988 15276
13989 15276
13989 15277
13990 15278
13990 15284
13990 15285
13990 15294
13991 15278
13991 15279
13992 15279
13992 15280
13993 15280
13993 15281
13994 15281
13994 15282
13995 15282
13995 15283
13996 15283
13996 15284
13997 15286
13997 15293
13997 15294
13997 15304
13998 15286
13998 15287
13999 15287
13999 15288
14000 15288
14000 15289
14001 15289
14001 15290
14002 15290
14002 15291
14003 15291
14003 15292
14004 15292
14004 15293
14005 15295
14005 15303
14005 15304
14005 15315
14006 15295
14006 15296
14007 15296
14007 15297
14008 15297
14008 15298
14009 15298
14009 15299
14010 15299
14010 15300
14011 15300
14011 15301
14012 15301
14012 15302
14013 15302
14013 15303
14014 15305
14014 15314
14014 15315
14014 15327
14015 15305
14015 15306
14016 15306
14016 15307
14017 15307
14017 15308
14018 15308
14018 15309
14019 15309
14019 15310
14020 15310
14020 15311
14021 15311
14021 15312
14022 15312
14022 15313
14023 15313
14023 15314
14024 15316
14024 15326
14024 15327
14024 15340
14025 15316
14025 15317
14026 15317
14026 15318
14027 15318
14027 15319
14028 15319
14028 15320
14029 15320
14029 15321
14030 15321
14030 15322
14031 15322
14031 15323
14032 15323
14032 15324
14033 15324
14033 15325
14034 15325
14034 15326
14035 15328
14035 15339
14035 15340
14035 15354
14036 15328
14036 15329
14037 15329
14037 15330
14038 15330
14038 15331
14039 15331
14039 15332
14040 15332
14040 15333
14041 15333
14041 15334
14042 15334
14042 15335
14043 15335
14043 15336
14044 15336
14044 15337
14045 15337
14045 15338
14046 15338
14046 15339
14047 15341
14047 15353
14047 15354
14047 16783
14047 16784
14048 15341
14048 15342
14049 15342
14049 15343
14050 15343
14050 15344
14051 15344
14051 15345
14052 15345
14052 15346
14053 15346
14053 15347
14054 15347
14054 15348
14055 15348
14055 15349
14056 15349
14056 15350
14057 15350
14057 15351
14058 15351
14058 15352
14059 15352
14059 15353
14060 15355
14060 15360
14060 15368
14061 15355
14061 15356
14062 15356
14062 15357
14063 15357
14063 15358
14064 15358
14064 15359
14065 15359
14065 15360
14066 15361
14066 15367
14066 15368
14066 15377
14067 15361
14067 15362
14068 15362
14068 15363
14069 15363
14069 15364
14070 15364
14070 15365
14071 15365
14071 15366
14072 15366
14072 15367
14073 15369
14073 15376
14073 15377
14073 15387
14074 15369
14074 15370
14075 15370
14075 15371
14076 15371
14076 15372
14077 15372
14077 15373
14078 15373
14078 15374
14079 15374
14079 15375
14080 15375
14080 15376
14081 15378
14081 15386
14081 15387
14081 15398
14082 15378
14082 15379
14083 15379
14083 15380
14084 15380
14084 15381
14085 15381
14085 15382
14086 15382
14086 15383
14087 15383
14087 15384
14088 15384
14088 15385
14089 15385
14089 15386
14090 15388
14090 15397
14090 15398
14090 15410
14091 15388
14091 15389
14092 15389
14092 15390
14093 15390
14093 15391
14094 15391
14094 15392
14095 15392
14095 15393
14096 15393
14096 15394
14097 15394
14097 15395
14098 15395
14098 15396
14099 15396
14099 15397
14100 15399
14100 15409
14100 15410
14100 15423
14101 15399
14101 15400
14102 15400
14102 15401
14103 15401
14103 15402
14104 15402
14104 15403
14105 15403
14105 15404
14106 15404
14106 15405
14107 15405
14107 15406
14108 15406
14108 15407
14109 15407
14109 15408
14110 15408
14110 15409
14111 15411
14111 15422
14111 15423
14111 15437
14112 15411
14112 15412
14113 15412
14113 15413
14114 15413
14114 15414
14115 15414
14115 15415
14116 15415
14116 15416
14117 15416
14117 15417
14118 15417
14118 15418
14119 15418
14119 15419
14120 15419
14120 15420
14121 15420
14121 15421
14122 15421
14122 15422
14123 15424
14123 15436
14123 15437
14123 16784
14123 16785
14124 15424
14124 15425
14125 15425
14125 15426
14126 15426
14126 15427
14127 15427
14127 15428
14128 15428
14128 15429
14129 15429
14129 15430
14130 15430
14130 15431
14131 15431
14131 15432
14132 15432
14132 15433
14133 15433
14133 15434
14134 15434
14134 15435
14135 15435
14135 15436
14136 15438
14136 15443
14136 15451
14137 15438
14137 15439
14138 15439
14138 15440
14139 15440
14139 15441
14140 15441
14140 15442
14141 15442
14141 15443
14142 15444
14142 15450
14142 15451
14142 15460
14143 15444
14143 15445
14144 15445
14144 15446
14145 15446
14145 15447
14146 15447
14146 15448
14147 15448
14147 15449
14148 15449
14148 15450
14149 15452
14149 15459
14149 15460
14149 15470
14150 15452
14150 15453
14151 15453
14151 15454
14152 15454
14152 15455
14153 15455
14153 15456
14154 15456
14154 15457
14155 15457
14155 15458
14156 15458
14156 15459
14157 15461
14157 15469
14157 15470
14157 15481
14158 15461
14158 15462
14159 15462
14159 15463
14160 15463
14160 15464
14161 15464
14161 15465
14162 15465
14162 15466
14163 15466
14163 15467
14164 15467
14164 15468
14165 15468
14165 15469
14166 15471
14166 15480
14166 15481
14166 15493
14167 15471
14167 15472
14168 15472
14168 15473
14169 15473
14169 15474
14170 15474
14170 15475
14171 15475
14171 15476
14172 15476
14172 15477
14173 15477
14173 15478
14174 15478
14174 15479
14175 15479
14175 15480
14176 15482
14176 15492
14176 15493
14176 15506
14177 15482
14177 15483
14178 15483
14178 15484
14179 15484
14179 15485
14180 15485
14180 15486
14181 15486
14181 15487
14182 15487
14182 15488
14183 15488
14183 15489
14184 15489
14184 15490
14185 15490
14185 15491
14186 15491
14186 15492
14187 15494
14187 15505
14187 15506
14187 15520
14188 15494
14188 15495
14189 15495
14189 15496
14190 15496
14190 15497
14191 15497
14191 15498
14192 15498
14192 15499
14193 15499
14193 15500
14194 15500
14194 15501
14195 15501
14195 15502
14196 15502
14196 15503
14197 15503
14197 15504
14198 15504
14198 15505
14199 15507
14199 15519
14199 15520
14199 16785
14199 16786
14200 15507
14200 15508
14201 15508
14201 15509
14202 15509
14202 15510
14203 15510
14203 15511
14204 15511
14204 15512
14205 15512
14205 15513
14206 15513
14206 15514
14207 15514
14207 15515
14208 15515
14208 15516
14209 15516
14209 15517
14210 15517
14210 15518
14211 15518
14211 15519
14212 15521
14212 15526
14212 15534
14213 15521
14213 15522
14214 15522
14214 15523
14215 15523
14215 15524
14216 15524
14216 15525
14217 15525
14217 15526
14218 15527
14218 15533
14218 15534
14218 15543
14219 15527
14219 15528
14220 15528
14220 15529
14221 15529
14221 15530
14222 15530
14222 15531
14223 15531
14223 15532
14224 15532
14224 15533
14225 15535
14225 15542
14225 15543
14225 15553
14226 15535
14226 15536
14227 15536
14227 15537
14228 15537
14228 15538
14229 15538
14229 15539
14230 15539
14230 15540
14231 15540
14231 15541
14232 15541
14232 15542
14233 15544
14233 15552
14233 15553
14233 15564
14234 15544
14234 15545
14235 15545
14235 15546
14236 15546
14236 15547
14237 15547
14237 15548
14238 15548
14238 15549
14239 15549
14239 15550
14240 15550
14240 15551
14241 15551
14241 15552
14242 15554
14242 15563
14242 15564
14242 15576
14243 15554
14243 15555
14244 15555
14244 15556
14245 15556
14245 15557
14246 15557
14246 15558
14247 15558
14247 15559
14248 15559
14248 15560
14249 15560
14249 15561
14250 15561
14250 15562
14251 15562
14251 15563
14252 15565
14252 15575
14252 15576
14252 15589
14253 15565
14253 15566
14254 15566
14254 15567
14255 15567
14255 15568
14256 15568
14256 15569
14257 15569
14257 15570
14258 15570
14258 15571
14259 15571
14259 15572
14260 15572
14260 15573
14261 15573
14261 15574
14262 15574
14262 15575
14263 15577
14263 15588
14263 15589
14263 15603
14264 15577
14264 15578
14265 15578
14265 15579
14266 15579
14266 15580
14267 15580
14267 15581
14268 15581
14268 15582
14269 15582
14269 15583
14270 15583
14270 15584
14271 15584
14271 15585
14272 15585
14272 15586
14273 15586
14273 15587
14274 15587
14274 15588
14275 15590
14275 15602
14275 15603
14275 16786
14275 16787
14276 15590
14276 15591
14277 15591
14277 15592
14278 15592
14278 15593
14279 15593
14279 15594
14280 15594
14280 15595
14281 15595
14281 15596
14282 15596
14282 15597
14283 15597
14283 15598
14284 15598
14284 15599
14285 15599
14285 15600
14286 15600
14286 15601
14287 15601
14287 15602
14288 15604
14288 15609
14288 15617
14289 15604
14289 15605
14290 15605
14290 15606
14291 15606
14291 15607
14292 15607
14292 15608
14293 15608
14293 15609
14294 15610
14294 15616
14294 15617
14294 15626
14295 15610
14295 15611
14296 15611
14296 15612
14297 15612
14297 15613
14298 15613
14298 15614
14299 15614
14299 15615
14300 15615
14300 15616
14301 15618
14301 15625
14301 15626
14301 15636
14302 15618
14302 15619
14303 15619
14303 15620
14304 15620
14304 15621
14305 15621
14305 15622
14306 15622
14306 15623
14307 15623
14307 15624
14308 15624
14308 15625
14309 15627
14309 15635
14309 15636
14309 15647
14310 15627
14310 15628
14311 15628
14311 15629
14312 15629
14312 15630
14313 15630
14313 15631
14314 15631
14314 15632
14315 15632
14315 15633
14316 15633
14316 15634
14317 15634
14317 15635
14318 15637
14318 15646
14318 15647
14318 15659
14319 15637
14319 15638
14320 15638
14320 15639
14321 15639
14321 15640
14322 15640
14322 15641
14323 15641
14323 15642
14324 15642
14324 15643
14325 15643
14325 15644
14326 15644
14326 15645
14327 15645
14327 15646
14328 15648
14328 15658
14328 15659
14328 15672
14329 15648
14329 15649
14330 15649
14330 15650
14331 15650
14331 15651
14332 15651
14332 15652
14333 15652
14333 15653
14334 15653
14334 15654
14335 15654
14335 15655
14336 15655
14336 15656
14337 15656
14337 15657
14338 15657
14338 15658
14339 15660
14339 15671
14339 15672
14339 15686
14340 15660
14340 15661
14341 15661
14341 15662
14342 15662
14342 15663
14343 15663
14343 15664
14344 15664
14344 15665
14345 15665
14345 15666
14346 15666
14346 15667
14347 15667
14347 15668
14348 15668
14348 15669
14349 15669
14349 15670
14350 15670
14350 15671
14351 15673
14351 15685
14351 15686
14351 16787
14351 16788
14352 15673
14352 15674
14353 15674
14353 15675
14354 15675
14354 15676
14355 15676
14355 15677
14356 15677
14356 15678
14357 15678
14357 15679
14358 15679
14358 15680
14359 15680
14359 15681
14360 15681
14360 15682
14361 15682
14361 15683
14362 15683
14362 15684
14363 15684
14363 15685
14364 15687
14364 15692
14364 15700
14365 15687
14365 15688
14366 15688
14366 15689
14367 15689
14367 15690
14368 15690
14368 15691
14369 15691
14369 15692
14370 15693
14370 15699
14370 15700
14370 15709
14371 15693
14371 15694
14372 15694
14372 15695
14373 15695
14373 15696
14374 15696
14374 15697
14375 15697
14375 15698
14376 15698
14376 15699
14377 15701
14377 15708
14377 15709
14377 15719
14378 15701
14378 15702
14379 15702
14379 15703
14380 15703
14380 15704
14381 15704
14381 15705
14382 15705
14382 15706
14383 15706
14383 15707
14384 15707
14384 15708
14385 15710
14385 15718
14385 15719
14385 15730
14386 15710
14386 15711
14387 15711
14387 15712
14388 15712
14388 15713
14389 15713
14389 15714
14390 15714
14390 15715
14391 15715
14391 15716
14392 15716
14392 15717
14393 15717
14393 15718
14394 15720
14394 15729
14394 15730
14394 15742
14395 15720
14395 15721
14396 15721
14396 15722
14397 15722
14397 15723
14398 15723
14398 15724
14399 15724
14399 15725
14400 15725
14400 15726
14401 15726
14401 15727
14402 15727
14402 15728
14403 15728
14403 15729
14404 15731
14404 15741
14404 15742
14404 15755
14405 15731
14405 15732
14406 15732
14406 15733
14407 15733
14407 15734
14408 15734
14408 15735
14409 15735
14409 15736
14410 15736
14410 15737
14411 15737
14411 15738
14412 15738
14412 15739
14413 15739
14413 15740
14414 15740
14414 15741
14415 15743
14415 15754
14415 15755
14415 15769
14416 15743
14416 15744
14417 15744
14417 15745
14418 15745
14418 15746
14419 15746
14419 15747
14420 15747
14420 15748
14421 15748
14421 15749
14422 15749
14422 15750
14423 15750
14423 15751
14424 15751
14424 15752
14425 15752
14425 15753
14426 15753
14426 15754
14427 15756
14427 15768
14427 15769
14427 16788
14427 16789
14428 15756
14428 15757
14429 15757
14429 15758
14430 15758
14430 15759
14431 15759
14431 15760
14432 15760
14432 15761
14433 15761
14433 15762
14434 15762
14434 15763
14435 15763
14435 15764
14436 15764
14436 15765
14437 15765
14437 15766
14438 15766
14438 15767
14439 15767
14439 15768
14440 15770
14440 15775
14440 15783
14441 15770
14441 15771
14442 15771
14442 15772
14443 15772
14443 15773
14444 15773
14444 15774
14445 15774
14445 15775
14446 15776
14446 15782
14446 15783
14446 15792
14447 15776
14447 15777
14448 15777
14448 15778
14449 15778
14449 15779
14450 15779
14450 15780
14451 15780
14451 15781
14452 15781
14452 15782
14453 15784
14453 15791
14453 15792
14453 15802
14454 15784
14454 15785
14455 15785
14455 15786
14456 15786
14456 15787
14457 15787
14457 15788
14458 15788
14458 15789
14459 15789
14459 15790
14460 15790
14460 15791
14461 15793
14461 15801
14461 15802
14461 15813
14462 15793
14462 15794
14463 15794
14463 15795
14464 15795
14464 15796
14465 15796
14465 15797
14466 15797
14466 15798
14467 15798
14467 15799
14468 15799
14468 15800
14469 15800
14469 15801
14470 15803
14470 15812
14470 15813
14470 15825
14471 15803
14471 15804
14472 15804
14472 15805
14473 15805
14473 15806
14474 15806
14474 15807
14475 15807
14475 15808
14476 15808
14476 15809
14477 15809
14477 15810
14478 15810
14478 15811
14479 15811
14479 15812
14480 15814
14480 15824
14480 15825
14480 15838
14481 15814
14481 15815
14482 15815
14482 15816
14483 15816
14483 15817
14484 15817
14484 15818
14485 15818
14485 15819
14486 15819
14486 15820
14487 15820
14487 15821
14488 15821
14488 15822
14489 15822
14489 15823
14490 15823
14490 15824
14491 15826
14491 15837
14491 15838
14491 15852
14492 15826
14492 15827
14493 15827
14493 15828
14494 15828
14494 15829
14495 15829
14495 15830
14496 15830
14496 15831
14497 15831
14497 15832
14498 15832
14498 15833
14499 15833
14499 15834
14500 15834
14500 15835
14501 15835
14501 15836
14502 15836
14502 15837
14503 15839
14503 15851
14503 15852
14503 16789
14503 16790
14504 15839
14504 15840
14505 15840
14505 15841
14506 15841
14506 15842
14507 15842
14507 15843
14508 15843
14508 15844
14509 15844
14509 15845
14510 15845
14510 15846
14511 15846
14511 15847
14512 15847
14512 15848
14513 15848
14513 15849
14514 15849
14514 15850
14515 15850
14515 15851
14516 15853
14516 15858
14516 15866
14517 15853
14517 15854
14518 15854
14518 15855
14519 15855
14519 15856
14520 15856
14520 15857
14521 15857
14521 15858
14522 15859
14522 15865
14522 15866
14522 15875
14523 15859
14523 15860
14524 15860
14524 15861
14525 15861
14525 15862
14526 15862
14526 15863
14527 15863
14527 15864
14528 15864
14528 15865
14529 15867
14529 15874
14529 15875
14529 15885
14530 15867
14530 15868
14531 15868
14531 15869
14532 15869
14532 15870
14533 15870
14533 15871
14534 15871
14534 15872
14535 15872
14535 15873
14536 15873
14536 15874
14537 15876
14537 15884
14537 15885
14537 15896
14538 15876
14538 15877
14539 15877
14539 15878
14540 15878
14540 15879
14541 15879
14541 15880
14542 15880
14542 15881
14543 15881
14543 15882
14544 15882
14544 15883
14545 15883
14545 15884
14546 15886
14546 15895
14546 15896
14546 15908
14547 15886
14547 15887
14548 15887
14548 15888
14549 15888
14549 15889
14550 15889
14550 15890
14551 15890
14551 15891
14552 15891
14552 15892
14553 15892
14553 15893
14554 15893
14554 15894
14555 15894
14555 15895
14556 15897
14556 15907
14556 15908
14556 15921
14557 15897
14557 15898
14558 15898
14558 15899
14559 15899
14559 15900
14560 15900
14560 15901
14561 15901
14561 15902
14562 15902
14562 15903
14563 15903
14563 15904
14564 15904
14564 15905
14565 15905
14565 15906
14566 15906
14566 15907
14567 15909
14567 15920
14567 15921
14567 15935
14568 15909
14568 15910
14569 15910
14569 15911
14570 15911
14570 15912
14571 15912
14571 15913
14572 15913
14572 15914
14573 15914
14573 15915
14574 15915
14574 15916
14575 15916
14575 15917
14576 15917
14576 15918
14577 15918
14577 15919
14578 15919
14578 15920
14579 15922
14579 15934
14579 15935
14579 16790
14579 16791
14580 15922
14580 15923
14581 15923
14581 15924
14582 15924
14582 15925
14583 15925
14583 15926
14584 15926
14584 15927
14585 15927
14585 15928
14586 15928
14586 15929
14587 15929
14587 15930
14588 15930
14588 15931
14589 15931
14589 15932
14590 15932
14590 15933
14591 15933
14591 15934
14592 15936
14592 15941
14592 15949
14593 15936
14593 15937
14594 15937
14594 15938
14595 15938
14595 15939
14596 15939
14596 15940
14597 15940
14597 15941
14598 15942
14598 15948
14598 15949
14598 15958
14599 15942
14599 15943
14600 15943
14600 15944
14601 15944
14601 15945
14602 15945
14602 15946
14603 15946
14603 15947
14604 15947
14604 15948
14605 15950
14605 15957
14605 15958
14605 15968
14606 15950
14606 15951
14607 15951
14607 15952
14608 15952
14608 15953
14609 15953
14609 15954
14610 15954
14610 15955
14611 15955
14611 15956
14612 15956
14612 15957
14613 15959
14613 15967
14613 15968
14613 15979
14614 15959
14614 15960
14615 15960
14615 15961
14616 15961
14616 15962
14617 15962
14617 15963
14618 15963
14618 15964
14619 15964
14619 15965
14620 15965
14620 15966
14621 15966
14621 15967
14622 15969
14622 15978
14622 15979
14622 15991
14623 15969
14623 15970
14624 15970
14624 15971
14625 15971
14625 15972
14626 15972
14626 15973
14627 15973
14627 15974
14628 15974
14628 15975
14629 15975
14629 15976
14630 15976
14630 15977
14631 15977
14631 15978
14632 15980
14632 15990
14632 15991
14632 16004
14633 15980
14633 15981
14634 15981
14634 15982
14635 15982
14635 15983
14636 15983
14636 15984
14637 15984
14637 15985
14638 15985
14638 15986
14639 15986
14639 15987
14640 15987
14640 15988
14641 15988
14641 15989
14642 15989
14642 15990
14643 15992
14643 16003
14643 16004
14643 16018
14644 15992
14644 15993
14645 15993
14645 15994
14646 15994
14646 15995
14647 15995
14647 15996
14648 15996
14648 15997
14649 15997
14649 15998
14650 15998
14650 15999
14651 15999
14651 16000
14652 16000
14652 16001
14653 16001
14653 16002
14654 16002
14654 16003
14655 16005
14655 16017
14655 16018
14655 16791
14655 16792
14656 16005
14656 16006
14657 16006
14657 16007
14658 16007
14658 16008
14659 16008
14659 16009
14660 16009
14660 16010
14661 16010
14661 16011
14662 16011
14662 16012
14663 16012
14663 16013
14664 16013
14664 16014
14665 16014
14665 16015
14666 16015
14666 16016
14667 16016
14667 16017
14668 16019
14668 16024
14668 16032
14669 16019
14669 16020
14670 16020
14670 16021
14671 16021
14671 16022
14672 16022
14672 16023
14673 16023
14673 16024
14674 16025
14674 16031
14674 16032
14674 16041
14675 16025
14675 16026
14676 16026
14676 16027
14677 16027
14677 16028
14678 16028
14678 16029
14679 16029
14679 16030
14680 16030
14680 16031
14681 16033
14681 16040
14681 16041
14681 16051
14682 16033
14682 16034
14683 16034
14683 16035
14684 16035
14684 16036
14685 16036
14685 16037
14686 16037
14686 16038
14687 16038
14687 16039
14688 16039
14688 16040
14689 16042
14689 16050
14689 16051
14689 16062
14690 16042
14690 16043
14691 16043
14691 16044
14692 16044
14692 16045
14693 16045
14693 16046
14694 16046
14694 16047
14695 16047
14695 16048
14696 16048
14696 16049
14697 16049
14697 16050
14698 16052
14698 16061
14698 16062
14698 16074
14699 16052
14699 16053
14700 16053
14700 16054
14701 16054
14701 16055
14702 16055
14702 16056
14703 16056
14703 16057
14704 16057
14704 16058
14705 16058
14705 16059
14706 16059
14706 16060
14707 16060
14707 16061
14708 16063
14708 16073
14708 16074
14708 16087
14709 16063
14709 16064
14710 16064
14710 16065
14711 16065
14711 16066
14712 16066
14712 16067
14713 16067
14713 16068
14714 16068
14714 16069
14715 16069
14715 16070
14716 16070
14716 16071
14717 16071
14717 16072
14718 16072
14718 16073
14719 16075
14719 16086
14719 16087
14719 16101
14720 16075
14720 16076
14721 16076
14721 16077
14722 16077
14722 16078
14723 16078
14723 16079
14724 16079
14724 16080
14725 16080
14725 16081
14726 16081
14726 16082
14727 16082
14727 16083
14728 16083
14728 16084
14729 16084
14729 16085
14730 16085
14730 16086
14731 16088
14731 16100
14731 16101
14731 16792
14731 16793
14732 16088
14732 16089
14733 16089
14733 16090
14734 16090
14734 16091
14735 16091
14735 16092
14736 16092
14736 16093
14737 16093
14737 16094
14738 16094
14738 16095
14739 16095
14739 16096
14740 16096
14740 16097
14741 16097
14741 16098
14742 16098
14742 16099
14743 16099
14743 16100
14744 16102
14744 16107
14744 16115
14745 16102
14745 16103
14746 16103
14746 16104
14747 16104
14747 16105
14748 16105
14748 16106
14749 16106
14749 16107
14750 16108
14750 16114
14750 16115
14750 16124
14751 16108
14751 16109
14752 16109
14752 16110
14753 16110
14753 16111
14754 16111
14754 16112
14755 16112
14755 16113
14756 16113
14756 16114
14757 16116
14757 16123
14757 16124
14757 16134
14758 16116
14758 16117
14759 16117
14759 16118
14760 16118
14760 16119
14761 16119
14761 16120
14762 16120
14762 16121
14763 16121
14763 16122
14764 16122
14764 16123
14765 16125
14765 16133
14765 16134
14765 16145
14766 16125
14766 16126
14767 16126
14767 16127
14768 16127
14768 16128
14769 16128
14769 16129
14770 16129
14770 16130
14771 16130
14771 16131
14772 16131
14772 16132
14773 16132
14773 16133
14774 16135
14774 16144
14774 16145
14774 16157
14775 16135
14775 16136
14776 16136
14776 16137
14777 16137
14777 16138
14778 16138
14778 16139
14779 16139
14779 16140
14780 16140
14780 16141
14781 16141
14781 16142
14782 16142
14782 16143
14783 16143
14783 16144
14784 16146
14784 16156
14784 16157
14784 16170
14785 16146
14785 16147
14786 16147
14786 16148
14787 16148
14787 16149
14788 16149
14788 16150
14789 16150
14789 16151
14790 16151
14790 16152
14791 16152
14791 16153
14792 16153
14792 16154
14793 16154
14793 16155
14794 16155
14794 16156
14795 16158
14795 16169
14795 16170
14795 16184
14796 16158
14796 16159
14797 16159
14797 16160
14798 16160
14798 16161
14799 16161
14799 16162
14800 16162
14800 16163
14801 16163
14801 16164
14802 16164
14802 16165
14803 16165
14803 16166
14804 16166
14804 16167
14805 16167
14805 16168
14806 16168
14806 16169
14807 16171
14807 16183
14807 16184
14807 16793
14807 16794
14808 16171
14808 16172
14809 16172
14809 16173
14810 16173
14810 16174
14811 16174
14811 16175
14812 16175
14812 16176
14813 16176
14813 16177
14814 16177
14814 16178
14815 16178
14815 16179
14816 16179
14816 16180
14817 16180
14817 16181
14818 16181
14818 16182
14819 16182
14819 16183
14820 16185
14820 16190
14820 16198
14821 16185
14821 16186
14822 16186
14822 16187
14823 16187
14823 16188
14824 16188
14824 16189
14825 16189
14825 16190
14826 16191
14826 16197
14826 16198
14826 16207
14827 16191
14827 16192
14828 16192
14828 16193
14829 16193
14829 16194
14830 16194
14830 16195
14831 16195
14831 16196
14832 16196
14832 16197
14833 16199
14833 16206
14833 16207
14833 16217
14834 16199
14834 16200
14835 16200
14835 16201
14836 16201
14836 16202
14837 16202
14837 16203
14838 16203
14838 16204
14839 16204
14839 16205
14840 16205
14840 16206
14841 16208
14841 16216
14841 16217
14841 16228
14842 16208
14842 16209
14843 16209
14843 16210
14844 16210
14844 16211
14845 16211
14845 16212
14846 16212
14846 16213
14847 16213
14847 16214
14848 16214
14848 16215
14849 16215
14849 16216
14850 16218
14850 16227
14850 16228
14850 16240
14851 16218
14851 16219
14852 16219
14852 16220
14853 16220
14853 16221
14854 16221
14854 16222
14855 16222
14855 16223
14856 16223
14856 16224
14857 16224
14857 16225
14858 16225
14858 16226
14859 16226
14859 16227
14860 16229
14860 16239
14860 16240
14860 16253
14861 16229
14861 16230
14862 16230
14862 16231
14863 16231
14863 16232
14864 16232
14864 16233
14865 16233
14865 16234
14866 16234
14866 16235
14867 16235
14867 16236
14868 16236
14868 16237
14869 16237
14869 16238
14870 16238
14870 16239
14871 16241
14871 16252
14871 16253
14871 16267
14872 16241
14872 16242
14873 16242
14873 16243
14874 16243
14874 16244
14875 16244
14875 16245
14876 16245
14876 16246
14877 16246
14877 16247
14878 16247
14878 16248
14879 16248
14879 16249
14880 16249
14880 16250
14881 16250
14881 16251
14882 16251
14882 16252
14883 16254
14883 16266
14883 16267
14883 16794
14883 16795
14884 16254
14884 16255
14885 16255
14885 16256
14886 16256
14886 16257
14887 16257
14887 16258
14888 16258
14888 16259
14889 16259
14889 16260
14890 16260
14890 16261
14891 16261
14891 16262
14892 16262
14892 16263
14893 16263
14893 16264
14894 16264
14894 16265
14895 16265
14895 16266
14896 16268
14896 16273
14896 16281
14897 16268
14897 16269
14898 16269
14898 16270
14899 16270
14899 16271
14900 16271
14900 16272
14901 16272
14901 16273
14902 16274
14902 16280
14902 16281
14902 16290
14903 16274
14903 16275
14904 16275
14904 16276
14905 16276
14905 16277
14906 16277
14906 16278
14907 16278
14907 16279
14908 16279
14908 16280
14909 16282
14909 16289
14909 16290
14909 16300
14910 16282
14910 16283
14911 16283
14911 16284
14912 16284
14912 16285
14913 16285
14913 16286
14914 16286
14914 16287
14915 16287
14915 16288
14916 16288
14916 16289
14917 16291
14917 16299
14917 16300
14917 16311
14918 16291
14918 16292
14919 16292
14919 16293
14920 16293
14920 16294
14921 16294
14921 16295
14922 16295
14922 16296
14923 16296
14923 16297
14924 16297
14924 16298
14925 16298
14925 16299
14926 16301
14926 16310
14926 16311
14926 16323
14927 16301
14927 16302
14928 16302
14928 16303
14929 16303
14929 16304
14930 16304
14930 16305
14931 16305
14931 16306
14932 16306
14932 16307
14933 16307
14933 16308
14934 16308
14934 16309
14935 16309
14935 16310
14936 16312
14936 16322
14936 16323
14936 16336
14937 16312
14937 16313
14938 16313
14938 16314
14939 16314
14939 16315
14940 16315
14940 16316
14941 16316
14941 16317
14942 16317
14942 16318
14943 16318
14943 16319
14944 16319
14944 16320
14945 16320
14945 16321
14946 16321
14946 16322
14947 16324
14947 16335
14947 16336
14947 16350
14948 16324
14948 16325
14949 16325
14949 16326
14950 16326
14950 16327
14951 16327
14951 16328
14952 16328
14952 16329
14953 16329
14953 16330
14954 16330
14954 16331
14955 16331
14955 16332
14956 16332
14956 16333
14957 16333
14957 16334
14958 16334
14958 16335
14959 16337
14959 16349
14959 16350
14959 16795
14959 16796
14960 16337
14960 16338
14961 16338
14961 16339
14962 16339
14962 16340
14963 16340
14963 16341
14964 16341
14964 16342
14965 16342
14965 16343
14966 16343
14966 16344
14967 16344
14967 16345
14968 16345
14968 16346
14969 16346
14969 16347
14970 16347
14970 16348
14971 16348
14971 16349
14972 16351
14972 16356
14972 16364
14973 16351
14973 16352
14974 16352
14974 16353
14975 16353
14975 16354
14976 16354
14976 16355
14977 16355
14977 16356
14978 16357
14978 16363
14978 16364
14978 16373
14979 16357
14979 16358
14980 16358
14980 16359
14981 16359
14981 16360
14982 16360
14982 16361
14983 16361
14983 16362
14984 16362
14984 16363
14985 16365
14985 16372
14985 16373
14985 16383
14986 16365
14986 16366
14987 16366
14987 16367
14988 16367
14988 16368
14989 16368
14989 16369
14990 16369
14990 16370
14991 16370
14991 16371
14992 16371
14992 16372
14993 16374
14993 16382
14993 16383
14993 16394
14994 16374
14994 16375
14995 16375
14995 16376
14996 16376
14996 16377
14997 16377
14997 16378
14998 16378
14998 16379
14999 16379
14999 16380
15000 16380
15000 16381
15001 16381
15001 16382
15002 16384
15002 16393
15002 16394
15002 16406
15003 16384
15003 16385
15004 16385
15004 16386
15005 16386
15005 16387
15006 16387
15006 16388
15007 16388
15007 16389
15008 16389
15008 16390
15009 16390
15009 16391
15010 16391
15010 16392
15011 16392
15011 16393
15012 16395
15012 16405
15012 16406
15012 16419
15013 16395
15013 16396
15014 16396
15014 16397
15015 16397
15015 16398
15016 16398
15016 16399
15017 16399
15017 16400
15018 16400
15018 16401
15019 16401
15019 16402
15020 16402
15020 16403
15021 16403
15021 16404
15022 16404
15022 16405
15023 16407
15023 16418
15023 16419
15023 16433
15024 16407
15024 16408
15025 16408
15025 16409
15026 16409
15026 16410
15027 16410
15027 16411
15028 16411
15028 16412
15029 16412
15029 16413
15030 16413
15030 16414
15031 16414
15031 16415
15032 16415
15032 16416
15033 16416
15033 16417
15034 16417
15034 16418
15035 16420
15035 16432
15035 16433
15035 16796
15035 16797
15036 16420
15036 16421
15037 16421
15037 16422
15038 16422
15038 16423
15039 16423
15039 16424
15040 16424
15040 16425
15041 16425
15041 16426
15042 16426
15042 16427
15043 16427
15043 16428
15044 16428
15044 16429
15045 16429
15045 16430
15046 16430
15046 16431
15047 16431
15047 16432
15048 16434
15048 16439
15048 16447
15049 16434
15049 16435
15050 16435
15050 16436
15051 16436
15051 16437
15052 16437
15052 16438
15053 16438
15053 16439
15054 16440
15054 16446
15054 16447
15054 16456
15055 16440
15055 16441
15056 16441
15056 16442
15057 16442
15057 16443
15058 16443
15058 16444
15059 16444
15059 16445
15060 16445
15060 16446
15061 16448
15061 16455
15061 16456
15061 16466
15062 16448
15062 16449
15063 16449
15063 16450
15064 16450
15064 16451
15065 16451
15065 16452
15066 16452
15066 16453
15067 16453
15067 16454
15068 16454
15068 16455
15069 16457
15069 16465
15069 16466
15069 16477
15070 16457
15070 16458
15071 16458
15071 16459
15072 16459
15072 16460
15073 16460
15073 16461
15074 16461
15074 16462
15075 16462
15075 16463
15076 16463
15076 16464
15077 16464
15077 16465
15078 16467
15078 16476
15078 16477
15078 16489
15079 16467
15079 16468
15080 16468
15080 16469
15081 16469
15081 16470
15082 16470
15082 16471
15083 16471
15083 16472
15084 16472
15084 16473
15085 16473
15085 16474
15086 16474
15086 16475
15087 16475
15087 16476
15088 16478
15088 16488
15088 16489
15088 16502
15089 16478
15089 16479
15090 16479
15090 16480
15091 16480
15091 16481
15092 16481
15092 16482
15093 16482
15093 16483
15094 16483
15094 16484
15095 16484
15095 16485
15096 16485
15096 16486
15097 16486
15097 16487
15098 16487
15098 16488
15099 16490
15099 16501
15099 16502
15099 16516
15100 16490
15100 16491
15101 16491
15101 16492
15102 16492
15102 16493
15103 16493
15103 16494
15104 16494
15104 16495
15105 16495
15105 16496
15106 16496
15106 16497
15107 16497
15107 16498
15108 16498
15108 16499
15109 16499
15109 16500
15110 16500
15110 16501
15111 16503
15111 16515
15111 16516
15111 16797
15111 16798
15112 16503
15112 16504
15113 16504
15113 16505
15114 16505
15114 16506
15115 16506
15115 16507
15116 16507
15116 16508
15117 16508
15117 16509
15118 16509
15118 16510
15119 16510
15119 16511
15120 16511
15120 16512
15121 16512
15121 16513
15122 16513
15122 16514
15123 16514
15123 16515
15124 16517
15124 16522
15124 16530
15125 16517
15125 16518
15126 16518
15126 16519
15127 16519
15127 16520
15128 16520
15128 16521
15129 16521
15129 16522
15130 16523
15130 16529
15130 16530
15130 16539
15131 16523
15131 16524
15132 16524
15132 16525
15133 16525
15133 16526
15134 16526
15134 16527
15135 16527
15135 16528
15136 16528
15136 16529
15137 16531
15137 16538
15137 16539
15137 16549
15138 16531
15138 16532
15139 16532
15139 16533
15140 16533
15140 16534
15141 16534
15141 16535
15142 16535
15142 16536
15143 16536
15143 16537
15144 16537
15144 16538
15145 16540
15145 16548
15145 16549
15145 16560
15146 16540
15146 16541
15147 16541
15147 16542
15148 16542
15148 16543
15149 16543
15149 16544
15150 16544
15150 16545
15151 16545
15151 16546
15152 16546
15152 16547
15153 16547
15153 16548
15154 16550
15154 16559
15154 16560
15154 16572
15155 16550
15155 16551
15156 16551
15156 16552
15157 16552
15157 16553
15158 16553
15158 16554
15159 16554
15159 16555
15160 16555
15160 16556
15161 16556
15161 16557
15162 16557
15162 16558
15163 16558
15163 16559
15164 16561
15164 16571
15164 16572
15164 16585
15165 16561
15165 16562
15166 16562
15166 16563
15167 16563
15167 16564
15168 16564
15168 16565
15169 16565
15169 16566
15170 16566
15170 16567
15171 16567
15171 16568
15172 16568
15172 16569
15173 16569
15173 16570
15174 16570
15174 16571
15175 16573
15175 16584
15175 16585
15175 16599
15176 16573
15176 16574
15177 16574
15177 16575
15178 16575
15178 16576
15179 16576
15179 16577
15180 16577
15180 16578
15181 16578
15181 16579
15182 16579
15182 16580
15183 16580
15183 16581
15184 16581
15184 16582
15185 16582
15185 16583
15186 16583
15186 16584
15187 16586
15187 16598
15187 16599
15187 16798
15188 16586
15188 16587
15189 16587
15189 16588
15190 16588
15190 16589
15191 16589
15191 16590
15192 16590
15192 16591
15193 16591
15193 16592
15194 16592
15194 16593
15195 16593
15195 16594
15196 16594
15196 16595
15197 16595
15197 16596
15198 16596
15198 16597
15199 16597
15199 16598
