4992 2496 14976
0 1
0 16
0 32
1 2
1 17
1 33
2 3
2 18
2 34
3 4
3 19
3 35
4 5
4 20
4 36
5 6
5 21
5 37
6 7
6 22
6 38
7 8
7 23
7 39
8 9
8 24
8 40
9 10
9 25
9 41
10 11
10 26
10 42
11 12
11 27
11 43
12 13
12 28
12 44
13 14
13 29
13 45
14 15
14 30
14 46
15 0
15 31
15 47
16 48
16 64
16 80
17 49
17 65
17 81
18 50
18 66
18 82
19 51
19 67
19 83
20 52
20 68
20 84
21 53
21 69
21 85
22 54
22 70
22 86
23 55
23 71
23 87
24 56
24 72
24 88
25 57
25 73
25 89
26 58
26 74
26 90
27 59
27 75
27 91
28 60
28 76
28 92
29 61
29 77
29 93
30 62
30 78
30 94
31 63
31 79
31 95
32 0
32 96
32 112
33 1
33 97
33 113
34 2
34 98
34 114
35 3
35 99
35 115
36 4
36 100
36 116
37 5
37 101
37 117
38 6
38 102
38 118
39 7
39 103
39 119
40 8
40 104
40 120
41 9
41 105
41 121
42 10
42 106
42 122
43 11
43 107
43 123
44 12
44 108
44 124
45 13
45 109
45 125
46 14
46 110
46 126
47 15
47 111
47 127
48 128
48 144
48 160
49 129
49 145
49 161
50 130
50 146
50 162
51 131
51 147
51 163
52 132
52 148
52 164
53 133
53 149
53 165
54 134
54 150
54 166
55 135
55 151
55 167
56 136
56 152
56 168
57 137
57 153
57 169
58 138
58 154
58 170
59 139
59 155
59 171
60 140
60 156
60 172
61 141
61 157
61 173
62 142
62 158
62 174
63 143
63 159
63 175
64 0
64 176
64 192
65 1
65 177
65 193
66 2
66 178
66 194
67 3
67 179
67 195
68 4
68 180
68 196
69 5
69 181
69 197
70 6
70 182
70 198
71 7
71 183
71 199
72 8
72 184
72 200
73 9
73 185
73 201
74 10
74 186
74 202
75 11
75 187
75 203
76 12
76 188
76 204
77 13
77 189
77 205
78 14
78 190
78 206
79 15
79 191
79 207
80 208
80 224
80 240
81 209
81 225
81 241
82 210
82 226
82 242
83 211
83 227
83 243
84 212
84 228
84 244
85 213
85 229
85 245
86 214
86 230
86 246
87 215
87 231
87 247
88 216
88 232
88 248
89 217
89 233
89 249
90 218
90 234
90 250
91 219
91 235
91 251
92 220
92 236
92 252
93 221
93 237
93 253
94 222
94 238
94 254
95 223
95 239
95 255
96 0
96 256
96 272
97 1
97 257
97 273
98 2
98 258
98 274
99 3
99 259
99 275
100 4
100 260
100 276
101 5
101 261
101 277
102 6
102 262
102 278
103 7
103 263
103 279
104 8
104 264
104 280
105 9
105 265
105 281
106 10
106 266
106 282
107 11
107 267
107 283
108 12
108 268
108 284
109 13
109 269
109 285
110 14
110 270
110 286
111 15
111 271
111 287
112 288
112 304
112 320
113 289
113 305
113 321
114 290
114 306
114 322
115 291
115 307
115 323
116 292
116 308
116 324
117 293
117 309
117 325
118 294
118 310
118 326
119 295
119 311
119 327
120 296
120 312
120 328
121 297
121 313
121 329
122 298
122 314
122 330
123 299
123 315
123 331
124 300
124 316
124 332
125 301
125 317
125 333
126 302
126 318
126 334
127 303
127 319
127 335
128 0
128 336
128 352
129 1
129 337
129 353
130 2
130 338
130 354
131 3
131 339
131 355
132 4
132 340
132 356
133 5
133 341
133 357
134 6
134 342
134 358
135 7
135 343
135 359
136 8
136 344
136 360
137 9
137 345
137 361
138 10
138 346
138 362
139 11
139 347
139 363
140 12
140 348
140 364
141 13
141 349
141 365
142 14
142 350
142 366
143 15
143 351
143 367
144 368
144 384
144 400
145 369
145 385
145 401
146 370
146 386
146 402
147 371
147 387
147 403
148 372
148 388
148 404
149 373
149 389
149 405
150 374
150 390
150 406
151 375
151 391
151 407
152 376
152 392
152 408
153 377
153 393
153 409
154 378
154 394
154 410
155 379
155 395
155 411
156 380
156 396
156 412
157 381
157 397
157 413
158 382
158 398
158 414
159 383
159 399
159 415
160 0
160 416
160 432
161 1
161 417
161 433
162 2
162 418
162 434
163 3
163 419
163 435
164 4
164 420
164 436
165 5
165 421
165 437
166 6
166 422
166 438
167 7
167 423
167 439
168 8
168 424
168 440
169 9
169 425
169 441
170 10
170 426
170 442
171 11
171 427
171 443
172 12
172 428
172 444
173 13
173 429
173 445
174 14
174 430
174 446
175 15
175 431
175 447
176 448
176 464
176 480
177 449
177 465
177 481
178 450
178 466
178 482
179 451
179 467
179 483
180 452
180 468
180 484
181 453
181 469
181 485
182 454
182 470
182 486
183 455
183 471
183 487
184 456
184 472
184 488
185 457
185 473
185 489
186 458
186 474
186 490
187 459
187 475
187 491
188 460
188 476
188 492
189 461
189 477
189 493
190 462
190 478
190 494
191 463
191 479
191 495
192 96
192 496
192 512
193 97
193 497
193 513
194 98
194 498
194 514
195 99
195 499
195 515
196 100
196 500
196 516
197 101
197 501
197 517
198 102
198 502
198 518
199 103
199 503
199 519
200 104
200 504
200 520
201 105
201 505
201 521
202 106
202 506
202 522
203 107
203 507
203 523
204 108
204 508
204 524
205 109
205 509
205 525
206 110
206 510
206 526
207 111
207 511
207 527
208 528
208 544
208 560
209 529
209 545
209 561
210 530
210 546
210 562
211 531
211 547
211 563
212 532
212 548
212 564
213 533
213 549
213 565
214 534
214 550
214 566
215 535
215 551
215 567
216 536
216 552
216 568
217 537
217 553
217 569
218 538
218 554
218 570
219 539
219 555
219 571
220 540
220 556
220 572
221 541
221 557
221 573
222 542
222 558
222 574
223 543
223 559
223 575
224 112
224 576
224 592
225 113
225 577
225 593
226 114
226 578
226 594
227 115
227 579
227 595
228 116
228 580
228 596
229 117
229 581
229 597
230 118
230 582
230 598
231 119
231 583
231 599
232 120
232 584
232 600
233 121
233 585
233 601
234 122
234 586
234 602
235 123
235 587
235 603
236 124
236 588
236 604
237 125
237 589
237 605
238 126
238 590
238 606
239 127
239 591
239 607
240 608
240 624
240 640
241 609
241 625
241 641
242 610
242 626
242 642
243 611
243 627
243 643
244 612
244 628
244 644
245 613
245 629
245 645
246 614
246 630
246 646
247 615
247 631
247 647
248 616
248 632
248 648
249 617
249 633
249 649
250 618
250 634
250 650
251 619
251 635
251 651
252 620
252 636
252 652
253 621
253 637
253 653
254 622
254 638
254 654
255 623
255 639
255 655
256 128
256 656
256 672
257 129
257 657
257 673
258 130
258 658
258 674
259 131
259 659
259 675
260 132
260 660
260 676
261 133
261 661
261 677
262 134
262 662
262 678
263 135
263 663
263 679
264 136
264 664
264 680
265 137
265 665
265 681
266 138
266 666
266 682
267 139
267 667
267 683
268 140
268 668
268 684
269 141
269 669
269 685
270 142
270 670
270 686
271 143
271 671
271 687
272 688
272 704
272 720
273 689
273 705
273 721
274 690
274 706
274 722
275 691
275 707
275 723
276 692
276 708
276 724
277 693
277 709
277 725
278 694
278 710
278 726
279 695
279 711
279 727
280 696
280 712
280 728
281 697
281 713
281 729
282 698
282 714
282 730
283 699
283 715
283 731
284 700
284 716
284 732
285 701
285 717
285 733
286 702
286 718
286 734
287 703
287 719
287 735
288 144
288 736
288 752
289 145
289 737
289 753
290 146
290 738
290 754
291 147
291 739
291 755
292 148
292 740
292 756
293 149
293 741
293 757
294 150
294 742
294 758
295 151
295 743
295 759
296 152
296 744
296 760
297 153
297 745
297 761
298 154
298 746
298 762
299 155
299 747
299 763
300 156
300 748
300 764
301 157
301 749
301 765
302 158
302 750
302 766
303 159
303 751
303 767
304 768
304 784
304 800
305 769
305 785
305 801
306 770
306 786
306 802
307 771
307 787
307 803
308 772
308 788
308 804
309 773
309 789
309 805
310 774
310 790
310 806
311 775
311 791
311 807
312 776
312 792
312 808
313 777
313 793
313 809
314 778
314 794
314 810
315 779
315 795
315 811
316 780
316 796
316 812
317 781
317 797
317 813
318 782
318 798
318 814
319 783
319 799
319 815
320 160
320 816
320 832
321 161
321 817
321 833
322 162
322 818
322 834
323 163
323 819
323 835
324 164
324 820
324 836
325 165
325 821
325 837
326 166
326 822
326 838
327 167
327 823
327 839
328 168
328 824
328 840
329 169
329 825
329 841
330 170
330 826
330 842
331 171
331 827
331 843
332 172
332 828
332 844
333 173
333 829
333 845
334 174
334 830
334 846
335 175
335 831
335 847
336 848
336 864
336 880
337 849
337 865
337 881
338 850
338 866
338 882
339 851
339 867
339 883
340 852
340 868
340 884
341 853
341 869
341 885
342 854
342 870
342 886
343 855
343 871
343 887
344 856
344 872
344 888
345 857
345 873
345 889
346 858
346 874
346 890
347 859
347 875
347 891
348 860
348 876
348 892
349 861
349 877
349 893
350 862
350 878
350 894
351 863
351 879
351 895
352 96
352 896
352 912
353 97
353 897
353 913
354 98
354 898
354 914
355 99
355 899
355 915
356 100
356 900
356 916
357 101
357 901
357 917
358 102
358 902
358 918
359 103
359 903
359 919
360 104
360 904
360 920
361 105
361 905
361 921
362 106
362 906
362 922
363 107
363 907
363 923
364 108
364 908
364 924
365 109
365 909
365 925
366 110
366 910
366 926
367 111
367 911
367 927
368 928
368 944
368 960
369 929
369 945
369 961
370 930
370 946
370 962
371 931
371 947
371 963
372 932
372 948
372 964
373 933
373 949
373 965
374 934
374 950
374 966
375 935
375 951
375 967
376 936
376 952
376 968
377 937
377 953
377 969
378 938
378 954
378 970
379 939
379 955
379 971
380 940
380 956
380 972
381 941
381 957
381 973
382 942
382 958
382 974
383 943
383 959
383 975
384 112
384 976
384 992
385 113
385 977
385 993
386 114
386 978
386 994
387 115
387 979
387 995
388 116
388 980
388 996
389 117
389 981
389 997
390 118
390 982
390 998
391 119
391 983
391 999
392 120
392 984
392 1000
393 121
393 985
393 1001
394 122
394 986
394 1002
395 123
395 987
395 1003
396 124
396 988
396 1004
397 125
397 989
397 1005
398 126
398 990
398 1006
399 127
399 991
399 1007
400 1008
400 1024
400 1040
401 1009
401 1025
401 1041
402 1010
402 1026
402 1042
403 1011
403 1027
403 1043
404 1012
404 1028
404 1044
405 1013
405 1029
405 1045
406 1014
406 1030
406 1046
407 1015
407 1031
407 1047
408 1016
408 1032
408 1048
409 1017
409 1033
409 1049
410 1018
410 1034
410 1050
411 1019
411 1035
411 1051
412 1020
412 1036
412 1052
413 1021
413 1037
413 1053
414 1022
414 1038
414 1054
415 1023
415 1039
415 1055
416 128
416 1056
416 1072
417 129
417 1057
417 1073
418 130
418 1058
418 1074
419 131
419 1059
419 1075
420 132
420 1060
420 1076
421 133
421 1061
421 1077
422 134
422 1062
422 1078
423 135
423 1063
423 1079
424 136
424 1064
424 1080
425 137
425 1065
425 1081
426 138
426 1066
426 1082
427 139
427 1067
427 1083
428 140
428 1068
428 1084
429 141
429 1069
429 1085
430 142
430 1070
430 1086
431 143
431 1071
431 1087
432 1088
432 1104
432 1120
433 1089
433 1105
433 1121
434 1090
434 1106
434 1122
435 1091
435 1107
435 1123
436 1092
436 1108
436 1124
437 1093
437 1109
437 1125
438 1094
438 1110
438 1126
439 1095
439 1111
439 1127
440 1096
440 1112
440 1128
441 1097
441 1113
441 1129
442 1098
442 1114
442 1130
443 1099
443 1115
443 1131
444 1100
444 1116
444 1132
445 1101
445 1117
445 1133
446 1102
446 1118
446 1134
447 1103
447 1119
447 1135
448 144
448 1136
448 1152
449 145
449 1137
449 1153
450 146
450 1138
450 1154
451 147
451 1139
451 1155
452 148
452 1140
452 1156
453 149
453 1141
453 1157
454 150
454 1142
454 1158
455 151
455 1143
455 1159
456 152
456 1144
456 1160
457 153
457 1145
457 1161
458 154
458 1146
458 1162
459 155
459 1147
459 1163
460 156
460 1148
460 1164
461 157
461 1149
461 1165
462 158
462 1150
462 1166
463 159
463 1151
463 1167
464 1168
464 1184
464 1200
465 1169
465 1185
465 1201
466 1170
466 1186
466 1202
467 1171
467 1187
467 1203
468 1172
468 1188
468 1204
469 1173
469 1189
469 1205
470 1174
470 1190
470 1206
471 1175
471 1191
471 1207
472 1176
472 1192
472 1208
473 1177
473 1193
473 1209
474 1178
474 1194
474 1210
475 1179
475 1195
475 1211
476 1180
476 1196
476 1212
477 1181
477 1197
477 1213
478 1182
478 1198
478 1214
479 1183
479 1199
479 1215
480 160
480 1216
480 1232
481 161
481 1217
481 1233
482 162
482 1218
482 1234
483 163
483 1219
483 1235
484 164
484 1220
484 1236
485 165
485 1221
485 1237
486 166
486 1222
486 1238
487 167
487 1223
487 1239
488 168
488 1224
488 1240
489 169
489 1225
489 1241
490 170
490 1226
490 1242
491 171
491 1227
491 1243
492 172
492 1228
492 1244
493 173
493 1229
493 1245
494 174
494 1230
494 1246
495 175
495 1231
495 1247
496 1248
496 1264
496 1280
497 1249
497 1265
497 1281
498 1250
498 1266
498 1282
499 1251
499 1267
499 1283
500 1252
500 1268
500 1284
501 1253
501 1269
501 1285
502 1254
502 1270
502 1286
503 1255
503 1271
503 1287
504 1256
504 1272
504 1288
505 1257
505 1273
505 1289
506 1258
506 1274
506 1290
507 1259
507 1275
507 1291
508 1260
508 1276
508 1292
509 1261
509 1277
509 1293
510 1262
510 1278
510 1294
511 1263
511 1279
511 1295
512 96
512 1296
512 1312
513 97
513 1297
513 1313
514 98
514 1298
514 1314
515 99
515 1299
515 1315
516 100
516 1300
516 1316
517 101
517 1301
517 1317
518 102
518 1302
518 1318
519 103
519 1303
519 1319
520 104
520 1304
520 1320
521 105
521 1305
521 1321
522 106
522 1306
522 1322
523 107
523 1307
523 1323
524 108
524 1308
524 1324
525 109
525 1309
525 1325
526 110
526 1310
526 1326
527 111
527 1311
527 1327
528 1328
528 1344
528 1360
529 1329
529 1345
529 1361
530 1330
530 1346
530 1362
531 1331
531 1347
531 1363
532 1332
532 1348
532 1364
533 1333
533 1349
533 1365
534 1334
534 1350
534 1366
535 1335
535 1351
535 1367
536 1336
536 1352
536 1368
537 1337
537 1353
537 1369
538 1338
538 1354
538 1370
539 1339
539 1355
539 1371
540 1340
540 1356
540 1372
541 1341
541 1357
541 1373
542 1342
542 1358
542 1374
543 1343
543 1359
543 1375
544 112
544 1376
544 1392
545 113
545 1377
545 1393
546 114
546 1378
546 1394
547 115
547 1379
547 1395
548 116
548 1380
548 1396
549 117
549 1381
549 1397
550 118
550 1382
550 1398
551 119
551 1383
551 1399
552 120
552 1384
552 1400
553 121
553 1385
553 1401
554 122
554 1386
554 1402
555 123
555 1387
555 1403
556 124
556 1388
556 1404
557 125
557 1389
557 1405
558 126
558 1390
558 1406
559 127
559 1391
559 1407
560 1408
560 1424
560 1440
561 1409
561 1425
561 1441
562 1410
562 1426
562 1442
563 1411
563 1427
563 1443
564 1412
564 1428
564 1444
565 1413
565 1429
565 1445
566 1414
566 1430
566 1446
567 1415
567 1431
567 1447
568 1416
568 1432
568 1448
569 1417
569 1433
569 1449
570 1418
570 1434
570 1450
571 1419
571 1435
571 1451
572 1420
572 1436
572 1452
573 1421
573 1437
573 1453
574 1422
574 1438
574 1454
575 1423
575 1439
575 1455
576 128
576 1456
576 1472
577 129
577 1457
577 1473
578 130
578 1458
578 1474
579 131
579 1459
579 1475
580 132
580 1460
580 1476
581 133
581 1461
581 1477
582 134
582 1462
582 1478
583 135
583 1463
583 1479
584 136
584 1464
584 1480
585 137
585 1465
585 1481
586 138
586 1466
586 1482
587 139
587 1467
587 1483
588 140
588 1468
588 1484
589 141
589 1469
589 1485
590 142
590 1470
590 1486
591 143
591 1471
591 1487
592 1488
592 1504
592 1520
593 1489
593 1505
593 1521
594 1490
594 1506
594 1522
595 1491
595 1507
595 1523
596 1492
596 1508
596 1524
597 1493
597 1509
597 1525
598 1494
598 1510
598 1526
599 1495
599 1511
599 1527
600 1496
600 1512
600 1528
601 1497
601 1513
601 1529
602 1498
602 1514
602 1530
603 1499
603 1515
603 1531
604 1500
604 1516
604 1532
605 1501
605 1517
605 1533
606 1502
606 1518
606 1534
607 1503
607 1519
607 1535
608 144
608 1536
608 1552
609 145
609 1537
609 1553
610 146
610 1538
610 1554
611 147
611 1539
611 1555
612 148
612 1540
612 1556
613 149
613 1541
613 1557
614 150
614 1542
614 1558
615 151
615 1543
615 1559
616 152
616 1544
616 1560
617 153
617 1545
617 1561
618 154
618 1546
618 1562
619 155
619 1547
619 1563
620 156
620 1548
620 1564
621 157
621 1549
621 1565
622 158
622 1550
622 1566
623 159
623 1551
623 1567
624 1568
624 1584
624 1600
625 1569
625 1585
625 1601
626 1570
626 1586
626 1602
627 1571
627 1587
627 1603
628 1572
628 1588
628 1604
629 1573
629 1589
629 1605
630 1574
630 1590
630 1606
631 1575
631 1591
631 1607
632 1576
632 1592
632 1608
633 1577
633 1593
633 1609
634 1578
634 1594
634 1610
635 1579
635 1595
635 1611
636 1580
636 1596
636 1612
637 1581
637 1597
637 1613
638 1582
638 1598
638 1614
639 1583
639 1599
639 1615
640 160
640 1616
640 1632
641 161
641 1617
641 1633
642 162
642 1618
642 1634
643 163
643 1619
643 1635
644 164
644 1620
644 1636
645 165
645 1621
645 1637
646 166
646 1622
646 1638
647 167
647 1623
647 1639
648 168
648 1624
648 1640
649 169
649 1625
649 1641
650 170
650 1626
650 1642
651 171
651 1627
651 1643
652 172
652 1628
652 1644
653 173
653 1629
653 1645
654 174
654 1630
654 1646
655 175
655 1631
655 1647
656 1648
656 1664
656 1680
657 1649
657 1665
657 1681
658 1650
658 1666
658 1682
659 1651
659 1667
659 1683
660 1652
660 1668
660 1684
661 1653
661 1669
661 1685
662 1654
662 1670
662 1686
663 1655
663 1671
663 1687
664 1656
664 1672
664 1688
665 1657
665 1673
665 1689
666 1658
666 1674
666 1690
667 1659
667 1675
667 1691
668 1660
668 1676
668 1692
669 1661
669 1677
669 1693
670 1662
670 1678
670 1694
671 1663
671 1679
671 1695
672 96
672 1696
672 1712
673 97
673 1697
673 1713
674 98
674 1698
674 1714
675 99
675 1699
675 1715
676 100
676 1700
676 1716
677 101
677 1701
677 1717
678 102
678 1702
678 1718
679 103
679 1703
679 1719
680 104
680 1704
680 1720
681 105
681 1705
681 1721
682 106
682 1706
682 1722
683 107
683 1707
683 1723
684 108
684 1708
684 1724
685 109
685 1709
685 1725
686 110
686 1710
686 1726
687 111
687 1711
687 1727
688 1728
688 1744
688 1760
689 1729
689 1745
689 1761
690 1730
690 1746
690 1762
691 1731
691 1747
691 1763
692 1732
692 1748
692 1764
693 1733
693 1749
693 1765
694 1734
694 1750
694 1766
695 1735
695 1751
695 1767
696 1736
696 1752
696 1768
697 1737
697 1753
697 1769
698 1738
698 1754
698 1770
699 1739
699 1755
699 1771
700 1740
700 1756
700 1772
701 1741
701 1757
701 1773
702 1742
702 1758
702 1774
703 1743
703 1759
703 1775
704 112
704 1776
704 1792
705 113
705 1777
705 1793
706 114
706 1778
706 1794
707 115
707 1779
707 1795
708 116
708 1780
708 1796
709 117
709 1781
709 1797
710 118
710 1782
710 1798
711 119
711 1783
711 1799
712 120
712 1784
712 1800
713 121
713 1785
713 1801
714 122
714 1786
714 1802
715 123
715 1787
715 1803
716 124
716 1788
716 1804
717 125
717 1789
717 1805
718 126
718 1790
718 1806
719 127
719 1791
719 1807
720 1808
720 1824
720 1840
721 1809
721 1825
721 1841
722 1810
722 1826
722 1842
723 1811
723 1827
723 1843
724 1812
724 1828
724 1844
725 1813
725 1829
725 1845
726 1814
726 1830
726 1846
727 1815
727 1831
727 1847
728 1816
728 1832
728 1848
729 1817
729 1833
729 1849
730 1818
730 1834
730 1850
731 1819
731 1835
731 1851
732 1820
732 1836
732 1852
733 1821
733 1837
733 1853
734 1822
734 1838
734 1854
735 1823
735 1839
735 1855
736 128
736 1856
736 1872
737 129
737 1857
737 1873
738 130
738 1858
738 1874
739 131
739 1859
739 1875
740 132
740 1860
740 1876
741 133
741 1861
741 1877
742 134
742 1862
742 1878
743 135
743 1863
743 1879
744 136
744 1864
744 1880
745 137
745 1865
745 1881
746 138
746 1866
746 1882
747 139
747 1867
747 1883
748 140
748 1868
748 1884
749 141
749 1869
749 1885
750 142
750 1870
750 1886
751 143
751 1871
751 1887
752 1888
752 1904
752 1920
753 1889
753 1905
753 1921
754 1890
754 1906
754 1922
755 1891
755 1907
755 1923
756 1892
756 1908
756 1924
757 1893
757 1909
757 1925
758 1894
758 1910
758 1926
759 1895
759 1911
759 1927
760 1896
760 1912
760 1928
761 1897
761 1913
761 1929
762 1898
762 1914
762 1930
763 1899
763 1915
763 1931
764 1900
764 1916
764 1932
765 1901
765 1917
765 1933
766 1902
766 1918
766 1934
767 1903
767 1919
767 1935
768 144
768 1936
768 1952
769 145
769 1937
769 1953
770 146
770 1938
770 1954
771 147
771 1939
771 1955
772 148
772 1940
772 1956
773 149
773 1941
773 1957
774 150
774 1942
774 1958
775 151
775 1943
775 1959
776 152
776 1944
776 1960
777 153
777 1945
777 1961
778 154
778 1946
778 1962
779 155
779 1947
779 1963
780 156
780 1948
780 1964
781 157
781 1949
781 1965
782 158
782 1950
782 1966
783 159
783 1951
783 1967
784 1968
784 1984
784 2000
785 1969
785 1985
785 2001
786 1970
786 1986
786 2002
787 1971
787 1987
787 2003
788 1972
788 1988
788 2004
789 1973
789 1989
789 2005
790 1974
790 1990
790 2006
791 1975
791 1991
791 2007
792 1976
792 1992
792 2008
793 1977
793 1993
793 2009
794 1978
794 1994
794 2010
795 1979
795 1995
795 2011
796 1980
796 1996
796 2012
797 1981
797 1997
797 2013
798 1982
798 1998
798 2014
799 1983
799 1999
799 2015
800 160
800 2016
800 2032
801 161
801 2017
801 2033
802 162
802 2018
802 2034
803 163
803 2019
803 2035
804 164
804 2020
804 2036
805 165
805 2021
805 2037
806 166
806 2022
806 2038
807 167
807 2023
807 2039
808 168
808 2024
808 2040
809 169
809 2025
809 2041
810 170
810 2026
810 2042
811 171
811 2027
811 2043
812 172
812 2028
812 2044
813 173
813 2029
813 2045
814 174
814 2030
814 2046
815 175
815 2031
815 2047
816 2048
816 2064
816 2080
817 2049
817 2065
817 2081
818 2050
818 2066
818 2082
819 2051
819 2067
819 2083
820 2052
820 2068
820 2084
821 2053
821 2069
821 2085
822 2054
822 2070
822 2086
823 2055
823 2071
823 2087
824 2056
824 2072
824 2088
825 2057
825 2073
825 2089
826 2058
826 2074
826 2090
827 2059
827 2075
827 2091
828 2060
828 2076
828 2092
829 2061
829 2077
829 2093
830 2062
830 2078
830 2094
831 2063
831 2079
831 2095
832 96
832 2096
832 2112
833 97
833 2097
833 2113
834 98
834 2098
834 2114
835 99
835 2099
835 2115
836 100
836 2100
836 2116
837 101
837 2101
837 2117
838 102
838 2102
838 2118
839 103
839 2103
839 2119
840 104
840 2104
840 2120
841 105
841 2105
841 2121
842 106
842 2106
842 2122
843 107
843 2107
843 2123
844 108
844 2108
844 2124
845 109
845 2109
845 2125
846 110
846 2110
846 2126
847 111
847 2111
847 2127
848 2128
848 2144
848 2160
849 2129
849 2145
849 2161
850 2130
850 2146
850 2162
851 2131
851 2147
851 2163
852 2132
852 2148
852 2164
853 2133
853 2149
853 2165
854 2134
854 2150
854 2166
855 2135
855 2151
855 2167
856 2136
856 2152
856 2168
857 2137
857 2153
857 2169
858 2138
858 2154
858 2170
859 2139
859 2155
859 2171
860 2140
860 2156
860 2172
861 2141
861 2157
861 2173
862 2142
862 2158
862 2174
863 2143
863 2159
863 2175
864 112
864 2176
864 2192
865 113
865 2177
865 2193
866 114
866 2178
866 2194
867 115
867 2179
867 2195
868 116
868 2180
868 2196
869 117
869 2181
869 2197
870 118
870 2182
870 2198
871 119
871 2183
871 2199
872 120
872 2184
872 2200
873 121
873 2185
873 2201
874 122
874 2186
874 2202
875 123
875 2187
875 2203
876 124
876 2188
876 2204
877 125
877 2189
877 2205
878 126
878 2190
878 2206
879 127
879 2191
879 2207
880 2208
880 2224
880 2240
881 2209
881 2225
881 2241
882 2210
882 2226
882 2242
883 2211
883 2227
883 2243
884 2212
884 2228
884 2244
885 2213
885 2229
885 2245
886 2214
886 2230
886 2246
887 2215
887 2231
887 2247
888 2216
888 2232
888 2248
889 2217
889 2233
889 2249
890 2218
890 2234
890 2250
891 2219
891 2235
891 2251
892 2220
892 2236
892 2252
893 2221
893 2237
893 2253
894 2222
894 2238
894 2254
895 2223
895 2239
895 2255
896 128
896 2256
896 2272
897 129
897 2257
897 2273
898 130
898 2258
898 2274
899 131
899 2259
899 2275
900 132
900 2260
900 2276
901 133
901 2261
901 2277
902 134
902 2262
902 2278
903 135
903 2263
903 2279
904 136
904 2264
904 2280
905 137
905 2265
905 2281
906 138
906 2266
906 2282
907 139
907 2267
907 2283
908 140
908 2268
908 2284
909 141
909 2269
909 2285
910 142
910 2270
910 2286
911 143
911 2271
911 2287
912 2288
912 2304
912 2320
913 2289
913 2305
913 2321
914 2290
914 2306
914 2322
915 2291
915 2307
915 2323
916 2292
916 2308
916 2324
917 2293
917 2309
917 2325
918 2294
918 2310
918 2326
919 2295
919 2311
919 2327
920 2296
920 2312
920 2328
921 2297
921 2313
921 2329
922 2298
922 2314
922 2330
923 2299
923 2315
923 2331
924 2300
924 2316
924 2332
925 2301
925 2317
925 2333
926 2302
926 2318
926 2334
927 2303
927 2319
927 2335
928 144
928 2336
928 2352
929 145
929 2337
929 2353
930 146
930 2338
930 2354
931 147
931 2339
931 2355
932 148
932 2340
932 2356
933 149
933 2341
933 2357
934 150
934 2342
934 2358
935 151
935 2343
935 2359
936 152
936 2344
936 2360
937 153
937 2345
937 2361
938 154
938 2346
938 2362
939 155
939 2347
939 2363
940 156
940 2348
940 2364
941 157
941 2349
941 2365
942 158
942 2350
942 2366
943 159
943 2351
943 2367
944 2368
944 2384
944 2400
945 2369
945 2385
945 2401
946 2370
946 2386
946 2402
947 2371
947 2387
947 2403
948 2372
948 2388
948 2404
949 2373
949 2389
949 2405
950 2374
950 2390
950 2406
951 2375
951 2391
951 2407
952 2376
952 2392
952 2408
953 2377
953 2393
953 2409
954 2378
954 2394
954 2410
955 2379
955 2395
955 2411
956 2380
956 2396
956 2412
957 2381
957 2397
957 2413
958 2382
958 2398
958 2414
959 2383
959 2399
959 2415
960 160
960 2416
960 2432
961 161
961 2417
961 2433
962 162
962 2418
962 2434
963 163
963 2419
963 2435
964 164
964 2420
964 2436
965 165
965 2421
965 2437
966 166
966 2422
966 2438
967 167
967 2423
967 2439
968 168
968 2424
968 2440
969 169
969 2425
969 2441
970 170
970 2426
970 2442
971 171
971 2427
971 2443
972 172
972 2428
972 2444
973 173
973 2429
973 2445
974 174
974 2430
974 2446
975 175
975 2431
975 2447
976 2448
976 2464
976 2480
977 2449
977 2465
977 2481
978 2450
978 2466
978 2482
979 2451
979 2467
979 2483
980 2452
980 2468
980 2484
981 2453
981 2469
981 2485
982 2454
982 2470
982 2486
983 2455
983 2471
983 2487
984 2456
984 2472
984 2488
985 2457
985 2473
985 2489
986 2458
986 2474
986 2490
987 2459
987 2475
987 2491
988 2460
988 2476
988 2492
989 2461
989 2477
989 2493
990 2462
990 2478
990 2494
991 2463
991 2479
991 2495
992 16
992 496
992 576
993 17
993 497
993 577
994 18
994 498
994 578
995 19
995 499
995 579
996 20
996 500
996 580
997 21
997 501
997 581
998 22
998 502
998 582
999 23
999 503
999 583
1000 24
1000 504
1000 584
1001 25
1001 505
1001 585
1002 26
1002 506
1002 586
1003 27
1003 507
1003 587
1004 28
1004 508
1004 588
1005 29
1005 509
1005 589
1006 30
1006 510
1006 590
1007 31
1007 511
1007 591
1008 656
1008 736
1008 816
1009 657
1009 737
1009 817
1010 658
1010 738
1010 818
1011 659
1011 739
1011 819
1012 660
1012 740
1012 820
1013 661
1013 741
1013 821
1014 662
1014 742
1014 822
1015 663
1015 743
1015 823
1016 664
1016 744
1016 824
1017 665
1017 745
1017 825
1018 666
1018 746
1018 826
1019 667
1019 747
1019 827
1020 668
1020 748
1020 828
1021 669
1021 749
1021 829
1022 670
1022 750
1022 830
1023 671
1023 751
1023 831
1024 16
1024 896
1024 976
1025 17
1025 897
1025 977
1026 18
1026 898
1026 978
1027 19
1027 899
1027 979
1028 20
1028 900
1028 980
1029 21
1029 901
1029 981
1030 22
1030 902
1030 982
1031 23
1031 903
1031 983
1032 24
1032 904
1032 984
1033 25
1033 905
1033 985
1034 26
1034 906
1034 986
1035 27
1035 907
1035 987
1036 28
1036 908
1036 988
1037 29
1037 909
1037 989
1038 30
1038 910
1038 990
1039 31
1039 911
1039 991
1040 1056
1040 1136
1040 1216
1041 1057
1041 1137
1041 1217
1042 1058
1042 1138
1042 1218
1043 1059
1043 1139
1043 1219
1044 1060
1044 1140
1044 1220
1045 1061
1045 1141
1045 1221
1046 1062
1046 1142
1046 1222
1047 1063
1047 1143
1047 1223
1048 1064
1048 1144
1048 1224
1049 1065
1049 1145
1049 1225
1050 1066
1050 1146
1050 1226
1051 1067
1051 1147
1051 1227
1052 1068
1052 1148
1052 1228
1053 1069
1053 1149
1053 1229
1054 1070
1054 1150
1054 1230
1055 1071
1055 1151
1055 1231
1056 16
1056 1296
1056 1376
1057 17
1057 1297
1057 1377
1058 18
1058 1298
1058 1378
1059 19
1059 1299
1059 1379
1060 20
1060 1300
1060 1380
1061 21
1061 1301
1061 1381
1062 22
1062 1302
1062 1382
1063 23
1063 1303
1063 1383
1064 24
1064 1304
1064 1384
1065 25
1065 1305
1065 1385
1066 26
1066 1306
1066 1386
1067 27
1067 1307
1067 1387
1068 28
1068 1308
1068 1388
1069 29
1069 1309
1069 1389
1070 30
1070 1310
1070 1390
1071 31
1071 1311
1071 1391
1072 1456
1072 1536
1072 1616
1073 1457
1073 1537
1073 1617
1074 1458
1074 1538
1074 1618
1075 1459
1075 1539
1075 1619
1076 1460
1076 1540
1076 1620
1077 1461
1077 1541
1077 1621
1078 1462
1078 1542
1078 1622
1079 1463
1079 1543
1079 1623
1080 1464
1080 1544
1080 1624
1081 1465
1081 1545
1081 1625
1082 1466
1082 1546
1082 1626
1083 1467
1083 1547
1083 1627
1084 1468
1084 1548
1084 1628
1085 1469
1085 1549
1085 1629
1086 1470
1086 1550
1086 1630
1087 1471
1087 1551
1087 1631
1088 16
1088 1696
1088 1776
1089 17
1089 1697
1089 1777
1090 18
1090 1698
1090 1778
1091 19
1091 1699
1091 1779
1092 20
1092 1700
1092 1780
1093 21
1093 1701
1093 1781
1094 22
1094 1702
1094 1782
1095 23
1095 1703
1095 1783
1096 24
1096 1704
1096 1784
1097 25
1097 1705
1097 1785
1098 26
1098 1706
1098 1786
1099 27
1099 1707
1099 1787
1100 28
1100 1708
1100 1788
1101 29
1101 1709
1101 1789
1102 30
1102 1710
1102 1790
1103 31
1103 1711
1103 1791
1104 1856
1104 1936
1104 2016
1105 1857
1105 1937
1105 2017
1106 1858
1106 1938
1106 2018
1107 1859
1107 1939
1107 2019
1108 1860
1108 1940
1108 2020
1109 1861
1109 1941
1109 2021
1110 1862
1110 1942
1110 2022
1111 1863
1111 1943
1111 2023
1112 1864
1112 1944
1112 2024
1113 1865
1113 1945
1113 2025
1114 1866
1114 1946
1114 2026
1115 1867
1115 1947
1115 2027
1116 1868
1116 1948
1116 2028
1117 1869
1117 1949
1117 2029
1118 1870
1118 1950
1118 2030
1119 1871
1119 1951
1119 2031
1120 16
1120 2096
1120 2176
1121 17
1121 2097
1121 2177
1122 18
1122 2098
1122 2178
1123 19
1123 2099
1123 2179
1124 20
1124 2100
1124 2180
1125 21
1125 2101
1125 2181
1126 22
1126 2102
1126 2182
1127 23
1127 2103
1127 2183
1128 24
1128 2104
1128 2184
1129 25
1129 2105
1129 2185
1130 26
1130 2106
1130 2186
1131 27
1131 2107
1131 2187
1132 28
1132 2108
1132 2188
1133 29
1133 2109
1133 2189
1134 30
1134 2110
1134 2190
1135 31
1135 2111
1135 2191
1136 2256
1136 2336
1136 2416
1137 2257
1137 2337
1137 2417
1138 2258
1138 2338
1138 2418
1139 2259
1139 2339
1139 2419
1140 2260
1140 2340
1140 2420
1141 2261
1141 2341
1141 2421
1142 2262
1142 2342
1142 2422
1143 2263
1143 2343
1143 2423
1144 2264
1144 2344
1144 2424
1145 2265
1145 2345
1145 2425
1146 2266
1146 2346
1146 2426
1147 2267
1147 2347
1147 2427
1148 2268
1148 2348
1148 2428
1149 2269
1149 2349
1149 2429
1150 2270
1150 2350
1150 2430
1151 2271
1151 2351
1151 2431
1152 32
1152 512
1152 592
1153 33
1153 513
1153 593
1154 34
1154 514
1154 594
1155 35
1155 515
1155 595
1156 36
1156 516
1156 596
1157 37
1157 517
1157 597
1158 38
1158 518
1158 598
1159 39
1159 519
1159 599
1160 40
1160 520
1160 600
1161 41
1161 521
1161 601
1162 42
1162 522
1162 602
1163 43
1163 523
1163 603
1164 44
1164 524
1164 604
1165 45
1165 525
1165 605
1166 46
1166 526
1166 606
1167 47
1167 527
1167 607
1168 672
1168 752
1168 832
1169 673
1169 753
1169 833
1170 674
1170 754
1170 834
1171 675
1171 755
1171 835
1172 676
1172 756
1172 836
1173 677
1173 757
1173 837
1174 678
1174 758
1174 838
1175 679
1175 759
1175 839
1176 680
1176 760
1176 840
1177 681
1177 761
1177 841
1178 682
1178 762
1178 842
1179 683
1179 763
1179 843
1180 684
1180 764
1180 844
1181 685
1181 765
1181 845
1182 686
1182 766
1182 846
1183 687
1183 767
1183 847
1184 32
1184 912
1184 992
1185 33
1185 913
1185 993
1186 34
1186 914
1186 994
1187 35
1187 915
1187 995
1188 36
1188 916
1188 996
1189 37
1189 917
1189 997
1190 38
1190 918
1190 998
1191 39
1191 919
1191 999
1192 40
1192 920
1192 1000
1193 41
1193 921
1193 1001
1194 42
1194 922
1194 1002
1195 43
1195 923
1195 1003
1196 44
1196 924
1196 1004
1197 45
1197 925
1197 1005
1198 46
1198 926
1198 1006
1199 47
1199 927
1199 1007
1200 1072
1200 1152
1200 1232
1201 1073
1201 1153
1201 1233
1202 1074
1202 1154
1202 1234
1203 1075
1203 1155
1203 1235
1204 1076
1204 1156
1204 1236
1205 1077
1205 1157
1205 1237
1206 1078
1206 1158
1206 1238
1207 1079
1207 1159
1207 1239
1208 1080
1208 1160
1208 1240
1209 1081
1209 1161
1209 1241
1210 1082
1210 1162
1210 1242
1211 1083
1211 1163
1211 1243
1212 1084
1212 1164
1212 1244
1213 1085
1213 1165
1213 1245
1214 1086
1214 1166
1214 1246
1215 1087
1215 1167
1215 1247
1216 32
1216 1312
1216 1392
1217 33
1217 1313
1217 1393
1218 34
1218 1314
1218 1394
1219 35
1219 1315
1219 1395
1220 36
1220 1316
1220 1396
1221 37
1221 1317
1221 1397
1222 38
1222 1318
1222 1398
1223 39
1223 1319
1223 1399
1224 40
1224 1320
1224 1400
1225 41
1225 1321
1225 1401
1226 42
1226 1322
1226 1402
1227 43
1227 1323
1227 1403
1228 44
1228 1324
1228 1404
1229 45
1229 1325
1229 1405
1230 46
1230 1326
1230 1406
1231 47
1231 1327
1231 1407
1232 1472
1232 1552
1232 1632
1233 1473
1233 1553
1233 1633
1234 1474
1234 1554
1234 1634
1235 1475
1235 1555
1235 1635
1236 1476
1236 1556
1236 1636
1237 1477
1237 1557
1237 1637
1238 1478
1238 1558
1238 1638
1239 1479
1239 1559
1239 1639
1240 1480
1240 1560
1240 1640
1241 1481
1241 1561
1241 1641
1242 1482
1242 1562
1242 1642
1243 1483
1243 1563
1243 1643
1244 1484
1244 1564
1244 1644
1245 1485
1245 1565
1245 1645
1246 1486
1246 1566
1246 1646
1247 1487
1247 1567
1247 1647
1248 32
1248 1712
1248 1792
1249 33
1249 1713
1249 1793
1250 34
1250 1714
1250 1794
1251 35
1251 1715
1251 1795
1252 36
1252 1716
1252 1796
1253 37
1253 1717
1253 1797
1254 38
1254 1718
1254 1798
1255 39
1255 1719
1255 1799
1256 40
1256 1720
1256 1800
1257 41
1257 1721
1257 1801
1258 42
1258 1722
1258 1802
1259 43
1259 1723
1259 1803
1260 44
1260 1724
1260 1804
1261 45
1261 1725
1261 1805
1262 46
1262 1726
1262 1806
1263 47
1263 1727
1263 1807
1264 1872
1264 1952
1264 2032
1265 1873
1265 1953
1265 2033
1266 1874
1266 1954
1266 2034
1267 1875
1267 1955
1267 2035
1268 1876
1268 1956
1268 2036
1269 1877
1269 1957
1269 2037
1270 1878
1270 1958
1270 2038
1271 1879
1271 1959
1271 2039
1272 1880
1272 1960
1272 2040
1273 1881
1273 1961
1273 2041
1274 1882
1274 1962
1274 2042
1275 1883
1275 1963
1275 2043
1276 1884
1276 1964
1276 2044
1277 1885
1277 1965
1277 2045
1278 1886
1278 1966
1278 2046
1279 1887
1279 1967
1279 2047
1280 32
1280 2112
1280 2192
1281 33
1281 2113
1281 2193
1282 34
1282 2114
1282 2194
1283 35
1283 2115
1283 2195
1284 36
1284 2116
1284 2196
1285 37
1285 2117
1285 2197
1286 38
1286 2118
1286 2198
1287 39
1287 2119
1287 2199
1288 40
1288 2120
1288 2200
1289 41
1289 2121
1289 2201
1290 42
1290 2122
1290 2202
1291 43
1291 2123
1291 2203
1292 44
1292 2124
1292 2204
1293 45
1293 2125
1293 2205
1294 46
1294 2126
1294 2206
1295 47
1295 2127
1295 2207
1296 2272
1296 2352
1296 2432
1297 2273
1297 2353
1297 2433
1298 2274
1298 2354
1298 2434
1299 2275
1299 2355
1299 2435
1300 2276
1300 2356
1300 2436
1301 2277
1301 2357
1301 2437
1302 2278
1302 2358
1302 2438
1303 2279
1303 2359
1303 2439
1304 2280
1304 2360
1304 2440
1305 2281
1305 2361
1305 2441
1306 2282
1306 2362
1306 2442
1307 2283
1307 2363
1307 2443
1308 2284
1308 2364
1308 2444
1309 2285
1309 2365
1309 2445
1310 2286
1310 2366
1310 2446
1311 2287
1311 2367
1311 2447
1312 48
1312 528
1312 608
1313 49
1313 529
1313 609
1314 50
1314 530
1314 610
1315 51
1315 531
1315 611
1316 52
1316 532
1316 612
1317 53
1317 533
1317 613
1318 54
1318 534
1318 614
1319 55
1319 535
1319 615
1320 56
1320 536
1320 616
1321 57
1321 537
1321 617
1322 58
1322 538
1322 618
1323 59
1323 539
1323 619
1324 60
1324 540
1324 620
1325 61
1325 541
1325 621
1326 62
1326 542
1326 622
1327 63
1327 543
1327 623
1328 688
1328 768
1328 848
1329 689
1329 769
1329 849
1330 690
1330 770
1330 850
1331 691
1331 771
1331 851
1332 692
1332 772
1332 852
1333 693
1333 773
1333 853
1334 694
1334 774
1334 854
1335 695
1335 775
1335 855
1336 696
1336 776
1336 856
1337 697
1337 777
1337 857
1338 698
1338 778
1338 858
1339 699
1339 779
1339 859
1340 700
1340 780
1340 860
1341 701
1341 781
1341 861
1342 702
1342 782
1342 862
1343 703
1343 783
1343 863
1344 48
1344 928
1344 1008
1345 49
1345 929
1345 1009
1346 50
1346 930
1346 1010
1347 51
1347 931
1347 1011
1348 52
1348 932
1348 1012
1349 53
1349 933
1349 1013
1350 54
1350 934
1350 1014
1351 55
1351 935
1351 1015
1352 56
1352 936
1352 1016
1353 57
1353 937
1353 1017
1354 58
1354 938
1354 1018
1355 59
1355 939
1355 1019
1356 60
1356 940
1356 1020
1357 61
1357 941
1357 1021
1358 62
1358 942
1358 1022
1359 63
1359 943
1359 1023
1360 1088
1360 1168
1360 1248
1361 1089
1361 1169
1361 1249
1362 1090
1362 1170
1362 1250
1363 1091
1363 1171
1363 1251
1364 1092
1364 1172
1364 1252
1365 1093
1365 1173
1365 1253
1366 1094
1366 1174
1366 1254
1367 1095
1367 1175
1367 1255
1368 1096
1368 1176
1368 1256
1369 1097
1369 1177
1369 1257
1370 1098
1370 1178
1370 1258
1371 1099
1371 1179
1371 1259
1372 1100
1372 1180
1372 1260
1373 1101
1373 1181
1373 1261
1374 1102
1374 1182
1374 1262
1375 1103
1375 1183
1375 1263
1376 48
1376 1328
1376 1408
1377 49
1377 1329
1377 1409
1378 50
1378 1330
1378 1410
1379 51
1379 1331
1379 1411
1380 52
1380 1332
1380 1412
1381 53
1381 1333
1381 1413
1382 54
1382 1334
1382 1414
1383 55
1383 1335
1383 1415
1384 56
1384 1336
1384 1416
1385 57
1385 1337
1385 1417
1386 58
1386 1338
1386 1418
1387 59
1387 1339
1387 1419
1388 60
1388 1340
1388 1420
1389 61
1389 1341
1389 1421
1390 62
1390 1342
1390 1422
1391 63
1391 1343
1391 1423
1392 1488
1392 1568
1392 1648
1393 1489
1393 1569
1393 1649
1394 1490
1394 1570
1394 1650
1395 1491
1395 1571
1395 1651
1396 1492
1396 1572
1396 1652
1397 1493
1397 1573
1397 1653
1398 1494
1398 1574
1398 1654
1399 1495
1399 1575
1399 1655
1400 1496
1400 1576
1400 1656
1401 1497
1401 1577
1401 1657
1402 1498
1402 1578
1402 1658
1403 1499
1403 1579
1403 1659
1404 1500
1404 1580
1404 1660
1405 1501
1405 1581
1405 1661
1406 1502
1406 1582
1406 1662
1407 1503
1407 1583
1407 1663
1408 48
1408 1728
1408 1808
1409 49
1409 1729
1409 1809
1410 50
1410 1730
1410 1810
1411 51
1411 1731
1411 1811
1412 52
1412 1732
1412 1812
1413 53
1413 1733
1413 1813
1414 54
1414 1734
1414 1814
1415 55
1415 1735
1415 1815
1416 56
1416 1736
1416 1816
1417 57
1417 1737
1417 1817
1418 58
1418 1738
1418 1818
1419 59
1419 1739
1419 1819
1420 60
1420 1740
1420 1820
1421 61
1421 1741
1421 1821
1422 62
1422 1742
1422 1822
1423 63
1423 1743
1423 1823
1424 1888
1424 1968
1424 2048
1425 1889
1425 1969
1425 2049
1426 1890
1426 1970
1426 2050
1427 1891
1427 1971
1427 2051
1428 1892
1428 1972
1428 2052
1429 1893
1429 1973
1429 2053
1430 1894
1430 1974
1430 2054
1431 1895
1431 1975
1431 2055
1432 1896
1432 1976
1432 2056
1433 1897
1433 1977
1433 2057
1434 1898
1434 1978
1434 2058
1435 1899
1435 1979
1435 2059
1436 1900
1436 1980
1436 2060
1437 1901
1437 1981
1437 2061
1438 1902
1438 1982
1438 2062
1439 1903
1439 1983
1439 2063
1440 48
1440 2128
1440 2208
1441 49
1441 2129
1441 2209
1442 50
1442 2130
1442 2210
1443 51
1443 2131
1443 2211
1444 52
1444 2132
1444 2212
1445 53
1445 2133
1445 2213
1446 54
1446 2134
1446 2214
1447 55
1447 2135
1447 2215
1448 56
1448 2136
1448 2216
1449 57
1449 2137
1449 2217
1450 58
1450 2138
1450 2218
1451 59
1451 2139
1451 2219
1452 60
1452 2140
1452 2220
1453 61
1453 2141
1453 2221
1454 62
1454 2142
1454 2222
1455 63
1455 2143
1455 2223
1456 2288
1456 2368
1456 2448
1457 2289
1457 2369
1457 2449
1458 2290
1458 2370
1458 2450
1459 2291
1459 2371
1459 2451
1460 2292
1460 2372
1460 2452
1461 2293
1461 2373
1461 2453
1462 2294
1462 2374
1462 2454
1463 2295
1463 2375
1463 2455
1464 2296
1464 2376
1464 2456
1465 2297
1465 2377
1465 2457
1466 2298
1466 2378
1466 2458
1467 2299
1467 2379
1467 2459
1468 2300
1468 2380
1468 2460
1469 2301
1469 2381
1469 2461
1470 2302
1470 2382
1470 2462
1471 2303
1471 2383
1471 2463
1472 64
1472 544
1472 624
1473 65
1473 545
1473 625
1474 66
1474 546
1474 626
1475 67
1475 547
1475 627
1476 68
1476 548
1476 628
1477 69
1477 549
1477 629
1478 70
1478 550
1478 630
1479 71
1479 551
1479 631
1480 72
1480 552
1480 632
1481 73
1481 553
1481 633
1482 74
1482 554
1482 634
1483 75
1483 555
1483 635
1484 76
1484 556
1484 636
1485 77
1485 557
1485 637
1486 78
1486 558
1486 638
1487 79
1487 559
1487 639
1488 704
1488 784
1488 864
1489 705
1489 785
1489 865
1490 706
1490 786
1490 866
1491 707
1491 787
1491 867
1492 708
1492 788
1492 868
1493 709
1493 789
1493 869
1494 710
1494 790
1494 870
1495 711
1495 791
1495 871
1496 712
1496 792
1496 872
1497 713
1497 793
1497 873
1498 714
1498 794
1498 874
1499 715
1499 795
1499 875
1500 716
1500 796
1500 876
1501 717
1501 797
1501 877
1502 718
1502 798
1502 878
1503 719
1503 799
1503 879
1504 64
1504 944
1504 1024
1505 65
1505 945
1505 1025
1506 66
1506 946
1506 1026
1507 67
1507 947
1507 1027
1508 68
1508 948
1508 1028
1509 69
1509 949
1509 1029
1510 70
1510 950
1510 1030
1511 71
1511 951
1511 1031
1512 72
1512 952
1512 1032
1513 73
1513 953
1513 1033
1514 74
1514 954
1514 1034
1515 75
1515 955
1515 1035
1516 76
1516 956
1516 1036
1517 77
1517 957
1517 1037
1518 78
1518 958
1518 1038
1519 79
1519 959
1519 1039
1520 1104
1520 1184
1520 1264
1521 1105
1521 1185
1521 1265
1522 1106
1522 1186
1522 1266
1523 1107
1523 1187
1523 1267
1524 1108
1524 1188
1524 1268
1525 1109
1525 1189
1525 1269
1526 1110
1526 1190
1526 1270
1527 1111
1527 1191
1527 1271
1528 1112
1528 1192
1528 1272
1529 1113
1529 1193
1529 1273
1530 1114
1530 1194
1530 1274
1531 1115
1531 1195
1531 1275
1532 1116
1532 1196
1532 1276
1533 1117
1533 1197
1533 1277
1534 1118
1534 1198
1534 1278
1535 1119
1535 1199
1535 1279
1536 64
1536 1344
1536 1424
1537 65
1537 1345
1537 1425
1538 66
1538 1346
1538 1426
1539 67
1539 1347
1539 1427
1540 68
1540 1348
1540 1428
1541 69
1541 1349
1541 1429
1542 70
1542 1350
1542 1430
1543 71
1543 1351
1543 1431
1544 72
1544 1352
1544 1432
1545 73
1545 1353
1545 1433
1546 74
1546 1354
1546 1434
1547 75
1547 1355
1547 1435
1548 76
1548 1356
1548 1436
1549 77
1549 1357
1549 1437
1550 78
1550 1358
1550 1438
1551 79
1551 1359
1551 1439
1552 1504
1552 1584
1552 1664
1553 1505
1553 1585
1553 1665
1554 1506
1554 1586
1554 1666
1555 1507
1555 1587
1555 1667
1556 1508
1556 1588
1556 1668
1557 1509
1557 1589
1557 1669
1558 1510
1558 1590
1558 1670
1559 1511
1559 1591
1559 1671
1560 1512
1560 1592
1560 1672
1561 1513
1561 1593
1561 1673
1562 1514
1562 1594
1562 1674
1563 1515
1563 1595
1563 1675
1564 1516
1564 1596
1564 1676
1565 1517
1565 1597
1565 1677
1566 1518
1566 1598
1566 1678
1567 1519
1567 1599
1567 1679
1568 64
1568 1744
1568 1824
1569 65
1569 1745
1569 1825
1570 66
1570 1746
1570 1826
1571 67
1571 1747
1571 1827
1572 68
1572 1748
1572 1828
1573 69
1573 1749
1573 1829
1574 70
1574 1750
1574 1830
1575 71
1575 1751
1575 1831
1576 72
1576 1752
1576 1832
1577 73
1577 1753
1577 1833
1578 74
1578 1754
1578 1834
1579 75
1579 1755
1579 1835
1580 76
1580 1756
1580 1836
1581 77
1581 1757
1581 1837
1582 78
1582 1758
1582 1838
1583 79
1583 1759
1583 1839
1584 1904
1584 1984
1584 2064
1585 1905
1585 1985
1585 2065
1586 1906
1586 1986
1586 2066
1587 1907
1587 1987
1587 2067
1588 1908
1588 1988
1588 2068
1589 1909
1589 1989
1589 2069
1590 1910
1590 1990
1590 2070
1591 1911
1591 1991
1591 2071
1592 1912
1592 1992
1592 2072
1593 1913
1593 1993
1593 2073
1594 1914
1594 1994
1594 2074
1595 1915
1595 1995
1595 2075
1596 1916
1596 1996
1596 2076
1597 1917
1597 1997
1597 2077
1598 1918
1598 1998
1598 2078
1599 1919
1599 1999
1599 2079
1600 64
1600 2144
1600 2224
1601 65
1601 2145
1601 2225
1602 66
1602 2146
1602 2226
1603 67
1603 2147
1603 2227
1604 68
1604 2148
1604 2228
1605 69
1605 2149
1605 2229
1606 70
1606 2150
1606 2230
1607 71
1607 2151
1607 2231
1608 72
1608 2152
1608 2232
1609 73
1609 2153
1609 2233
1610 74
1610 2154
1610 2234
1611 75
1611 2155
1611 2235
1612 76
1612 2156
1612 2236
1613 77
1613 2157
1613 2237
1614 78
1614 2158
1614 2238
1615 79
1615 2159
1615 2239
1616 2304
1616 2384
1616 2464
1617 2305
1617 2385
1617 2465
1618 2306
1618 2386
1618 2466
1619 2307
1619 2387
1619 2467
1620 2308
1620 2388
1620 2468
1621 2309
1621 2389
1621 2469
1622 2310
1622 2390
1622 2470
1623 2311
1623 2391
1623 2471
1624 2312
1624 2392
1624 2472
1625 2313
1625 2393
1625 2473
1626 2314
1626 2394
1626 2474
1627 2315
1627 2395
1627 2475
1628 2316
1628 2396
1628 2476
1629 2317
1629 2397
1629 2477
1630 2318
1630 2398
1630 2478
1631 2319
1631 2399
1631 2479
1632 80
1632 560
1632 640
1633 81
1633 561
1633 641
1634 82
1634 562
1634 642
1635 83
1635 563
1635 643
1636 84
1636 564
1636 644
1637 85
1637 565
1637 645
1638 86
1638 566
1638 646
1639 87
1639 567
1639 647
1640 88
1640 568
1640 648
1641 89
1641 569
1641 649
1642 90
1642 570
1642 650
1643 91
1643 571
1643 651
1644 92
1644 572
1644 652
1645 93
1645 573
1645 653
1646 94
1646 574
1646 654
1647 95
1647 575
1647 655
1648 720
1648 800
1648 880
1649 721
1649 801
1649 881
1650 722
1650 802
1650 882
1651 723
1651 803
1651 883
1652 724
1652 804
1652 884
1653 725
1653 805
1653 885
1654 726
1654 806
1654 886
1655 727
1655 807
1655 887
1656 728
1656 808
1656 888
1657 729
1657 809
1657 889
1658 730
1658 810
1658 890
1659 731
1659 811
1659 891
1660 732
1660 812
1660 892
1661 733
1661 813
1661 893
1662 734
1662 814
1662 894
1663 735
1663 815
1663 895
1664 80
1664 960
1664 1040
1665 81
1665 961
1665 1041
1666 82
1666 962
1666 1042
1667 83
1667 963
1667 1043
1668 84
1668 964
1668 1044
1669 85
1669 965
1669 1045
1670 86
1670 966
1670 1046
1671 87
1671 967
1671 1047
1672 88
1672 968
1672 1048
1673 89
1673 969
1673 1049
1674 90
1674 970
1674 1050
1675 91
1675 971
1675 1051
1676 92
1676 972
1676 1052
1677 93
1677 973
1677 1053
1678 94
1678 974
1678 1054
1679 95
1679 975
1679 1055
1680 1120
1680 1200
1680 1280
1681 1121
1681 1201
1681 1281
1682 1122
1682 1202
1682 1282
1683 1123
1683 1203
1683 1283
1684 1124
1684 1204
1684 1284
1685 1125
1685 1205
1685 1285
1686 1126
1686 1206
1686 1286
1687 1127
1687 1207
1687 1287
1688 1128
1688 1208
1688 1288
1689 1129
1689 1209
1689 1289
1690 1130
1690 1210
1690 1290
1691 1131
1691 1211
1691 1291
1692 1132
1692 1212
1692 1292
1693 1133
1693 1213
1693 1293
1694 1134
1694 1214
1694 1294
1695 1135
1695 1215
1695 1295
1696 80
1696 1360
1696 1440
1697 81
1697 1361
1697 1441
1698 82
1698 1362
1698 1442
1699 83
1699 1363
1699 1443
1700 84
1700 1364
1700 1444
1701 85
1701 1365
1701 1445
1702 86
1702 1366
1702 1446
1703 87
1703 1367
1703 1447
1704 88
1704 1368
1704 1448
1705 89
1705 1369
1705 1449
1706 90
1706 1370
1706 1450
1707 91
1707 1371
1707 1451
1708 92
1708 1372
1708 1452
1709 93
1709 1373
1709 1453
1710 94
1710 1374
1710 1454
1711 95
1711 1375
1711 1455
1712 1520
1712 1600
1712 1680
1713 1521
1713 1601
1713 1681
1714 1522
1714 1602
1714 1682
1715 1523
1715 1603
1715 1683
1716 1524
1716 1604
1716 1684
1717 1525
1717 1605
1717 1685
1718 1526
1718 1606
1718 1686
1719 1527
1719 1607
1719 1687
1720 1528
1720 1608
1720 1688
1721 1529
1721 1609
1721 1689
1722 1530
1722 1610
1722 1690
1723 1531
1723 1611
1723 1691
1724 1532
1724 1612
1724 1692
1725 1533
1725 1613
1725 1693
1726 1534
1726 1614
1726 1694
1727 1535
1727 1615
1727 1695
1728 80
1728 1760
1728 1840
1729 81
1729 1761
1729 1841
1730 82
1730 1762
1730 1842
1731 83
1731 1763
1731 1843
1732 84
1732 1764
1732 1844
1733 85
1733 1765
1733 1845
1734 86
1734 1766
1734 1846
1735 87
1735 1767
1735 1847
1736 88
1736 1768
1736 1848
1737 89
1737 1769
1737 1849
1738 90
1738 1770
1738 1850
1739 91
1739 1771
1739 1851
1740 92
1740 1772
1740 1852
1741 93
1741 1773
1741 1853
1742 94
1742 1774
1742 1854
1743 95
1743 1775
1743 1855
1744 1920
1744 2000
1744 2080
1745 1921
1745 2001
1745 2081
1746 1922
1746 2002
1746 2082
1747 1923
1747 2003
1747 2083
1748 1924
1748 2004
1748 2084
1749 1925
1749 2005
1749 2085
1750 1926
1750 2006
1750 2086
1751 1927
1751 2007
1751 2087
1752 1928
1752 2008
1752 2088
1753 1929
1753 2009
1753 2089
1754 1930
1754 2010
1754 2090
1755 1931
1755 2011
1755 2091
1756 1932
1756 2012
1756 2092
1757 1933
1757 2013
1757 2093
1758 1934
1758 2014
1758 2094
1759 1935
1759 2015
1759 2095
1760 80
1760 2160
1760 2240
1761 81
1761 2161
1761 2241
1762 82
1762 2162
1762 2242
1763 83
1763 2163
1763 2243
1764 84
1764 2164
1764 2244
1765 85
1765 2165
1765 2245
1766 86
1766 2166
1766 2246
1767 87
1767 2167
1767 2247
1768 88
1768 2168
1768 2248
1769 89
1769 2169
1769 2249
1770 90
1770 2170
1770 2250
1771 91
1771 2171
1771 2251
1772 92
1772 2172
1772 2252
1773 93
1773 2173
1773 2253
1774 94
1774 2174
1774 2254
1775 95
1775 2175
1775 2255
1776 2320
1776 2400
1776 2480
1777 2321
1777 2401
1777 2481
1778 2322
1778 2402
1778 2482
1779 2323
1779 2403
1779 2483
1780 2324
1780 2404
1780 2484
1781 2325
1781 2405
1781 2485
1782 2326
1782 2406
1782 2486
1783 2327
1783 2407
1783 2487
1784 2328
1784 2408
1784 2488
1785 2329
1785 2409
1785 2489
1786 2330
1786 2410
1786 2490
1787 2331
1787 2411
1787 2491
1788 2332
1788 2412
1788 2492
1789 2333
1789 2413
1789 2493
1790 2334
1790 2414
1790 2494
1791 2335
1791 2415
1791 2495
1792 416
1792 496
1792 1280
1793 417
1793 497
1793 1281
1794 418
1794 498
1794 1282
1795 419
1795 499
1795 1283
1796 420
1796 500
1796 1284
1797 421
1797 501
1797 1285
1798 422
1798 502
1798 1286
1799 423
1799 503
1799 1287
1800 424
1800 504
1800 1288
1801 425
1801 505
1801 1289
1802 426
1802 506
1802 1290
1803 427
1803 507
1803 1291
1804 428
1804 508
1804 1292
1805 429
1805 509
1805 1293
1806 430
1806 510
1806 1294
1807 431
1807 511
1807 1295
1808 1584
1808 1888
1808 2192
1809 1585
1809 1889
1809 2193
1810 1586
1810 1890
1810 2194
1811 1587
1811 1891
1811 2195
1812 1588
1812 1892
1812 2196
1813 1589
1813 1893
1813 2197
1814 1590
1814 1894
1814 2198
1815 1591
1815 1895
1815 2199
1816 1592
1816 1896
1816 2200
1817 1593
1817 1897
1817 2201
1818 1594
1818 1898
1818 2202
1819 1595
1819 1899
1819 2203
1820 1596
1820 1900
1820 2204
1821 1597
1821 1901
1821 2205
1822 1598
1822 1902
1822 2206
1823 1599
1823 1903
1823 2207
1824 432
1824 576
1824 960
1825 433
1825 577
1825 961
1826 434
1826 578
1826 962
1827 435
1827 579
1827 963
1828 436
1828 580
1828 964
1829 437
1829 581
1829 965
1830 438
1830 582
1830 966
1831 439
1831 583
1831 967
1832 440
1832 584
1832 968
1833 441
1833 585
1833 969
1834 442
1834 586
1834 970
1835 443
1835 587
1835 971
1836 444
1836 588
1836 972
1837 445
1837 589
1837 973
1838 446
1838 590
1838 974
1839 447
1839 591
1839 975
1840 1664
1840 1968
1840 2272
1841 1665
1841 1969
1841 2273
1842 1666
1842 1970
1842 2274
1843 1667
1843 1971
1843 2275
1844 1668
1844 1972
1844 2276
1845 1669
1845 1973
1845 2277
1846 1670
1846 1974
1846 2278
1847 1671
1847 1975
1847 2279
1848 1672
1848 1976
1848 2280
1849 1673
1849 1977
1849 2281
1850 1674
1850 1978
1850 2282
1851 1675
1851 1979
1851 2283
1852 1676
1852 1980
1852 2284
1853 1677
1853 1981
1853 2285
1854 1678
1854 1982
1854 2286
1855 1679
1855 1983
1855 2287
1856 448
1856 656
1856 1040
1857 449
1857 657
1857 1041
1858 450
1858 658
1858 1042
1859 451
1859 659
1859 1043
1860 452
1860 660
1860 1044
1861 453
1861 661
1861 1045
1862 454
1862 662
1862 1046
1863 455
1863 663
1863 1047
1864 456
1864 664
1864 1048
1865 457
1865 665
1865 1049
1866 458
1866 666
1866 1050
1867 459
1867 667
1867 1051
1868 460
1868 668
1868 1052
1869 461
1869 669
1869 1053
1870 462
1870 670
1870 1054
1871 463
1871 671
1871 1055
1872 1344
1872 2048
1872 2352
1873 1345
1873 2049
1873 2353
1874 1346
1874 2050
1874 2354
1875 1347
1875 2051
1875 2355
1876 1348
1876 2052
1876 2356
1877 1349
1877 2053
1877 2357
1878 1350
1878 2054
1878 2358
1879 1351
1879 2055
1879 2359
1880 1352
1880 2056
1880 2360
1881 1353
1881 2057
1881 2361
1882 1354
1882 2058
1882 2362
1883 1355
1883 2059
1883 2363
1884 1356
1884 2060
1884 2364
1885 1357
1885 2061
1885 2365
1886 1358
1886 2062
1886 2366
1887 1359
1887 2063
1887 2367
1888 464
1888 736
1888 1120
1889 465
1889 737
1889 1121
1890 466
1890 738
1890 1122
1891 467
1891 739
1891 1123
1892 468
1892 740
1892 1124
1893 469
1893 741
1893 1125
1894 470
1894 742
1894 1126
1895 471
1895 743
1895 1127
1896 472
1896 744
1896 1128
1897 473
1897 745
1897 1129
1898 474
1898 746
1898 1130
1899 475
1899 747
1899 1131
1900 476
1900 748
1900 1132
1901 477
1901 749
1901 1133
1902 478
1902 750
1902 1134
1903 479
1903 751
1903 1135
1904 1424
1904 1728
1904 2432
1905 1425
1905 1729
1905 2433
1906 1426
1906 1730
1906 2434
1907 1427
1907 1731
1907 2435
1908 1428
1908 1732
1908 2436
1909 1429
1909 1733
1909 2437
1910 1430
1910 1734
1910 2438
1911 1431
1911 1735
1911 2439
1912 1432
1912 1736
1912 2440
1913 1433
1913 1737
1913 2441
1914 1434
1914 1738
1914 2442
1915 1435
1915 1739
1915 2443
1916 1436
1916 1740
1916 2444
1917 1437
1917 1741
1917 2445
1918 1438
1918 1742
1918 2446
1919 1439
1919 1743
1919 2447
1920 480
1920 816
1920 1200
1921 481
1921 817
1921 1201
1922 482
1922 818
1922 1202
1923 483
1923 819
1923 1203
1924 484
1924 820
1924 1204
1925 485
1925 821
1925 1205
1926 486
1926 822
1926 1206
1927 487
1927 823
1927 1207
1928 488
1928 824
1928 1208
1929 489
1929 825
1929 1209
1930 490
1930 826
1930 1210
1931 491
1931 827
1931 1211
1932 492
1932 828
1932 1212
1933 493
1933 829
1933 1213
1934 494
1934 830
1934 1214
1935 495
1935 831
1935 1215
1936 1504
1936 1808
1936 2112
1937 1505
1937 1809
1937 2113
1938 1506
1938 1810
1938 2114
1939 1507
1939 1811
1939 2115
1940 1508
1940 1812
1940 2116
1941 1509
1941 1813
1941 2117
1942 1510
1942 1814
1942 2118
1943 1511
1943 1815
1943 2119
1944 1512
1944 1816
1944 2120
1945 1513
1945 1817
1945 2121
1946 1514
1946 1818
1946 2122
1947 1515
1947 1819
1947 2123
1948 1516
1948 1820
1948 2124
1949 1517
1949 1821
1949 2125
1950 1518
1950 1822
1950 2126
1951 1519
1951 1823
1951 2127
1952 432
1952 512
1952 1216
1953 433
1953 513
1953 1217
1954 434
1954 514
1954 1218
1955 435
1955 515
1955 1219
1956 436
1956 516
1956 1220
1957 437
1957 517
1957 1221
1958 438
1958 518
1958 1222
1959 439
1959 519
1959 1223
1960 440
1960 520
1960 1224
1961 441
1961 521
1961 1225
1962 442
1962 522
1962 1226
1963 443
1963 523
1963 1227
1964 444
1964 524
1964 1228
1965 445
1965 525
1965 1229
1966 446
1966 526
1966 1230
1967 447
1967 527
1967 1231
1968 1600
1968 1904
1968 2208
1969 1601
1969 1905
1969 2209
1970 1602
1970 1906
1970 2210
1971 1603
1971 1907
1971 2211
1972 1604
1972 1908
1972 2212
1973 1605
1973 1909
1973 2213
1974 1606
1974 1910
1974 2214
1975 1607
1975 1911
1975 2215
1976 1608
1976 1912
1976 2216
1977 1609
1977 1913
1977 2217
1978 1610
1978 1914
1978 2218
1979 1611
1979 1915
1979 2219
1980 1612
1980 1916
1980 2220
1981 1613
1981 1917
1981 2221
1982 1614
1982 1918
1982 2222
1983 1615
1983 1919
1983 2223
1984 448
1984 592
1984 896
1985 449
1985 593
1985 897
1986 450
1986 594
1986 898
1987 451
1987 595
1987 899
1988 452
1988 596
1988 900
1989 453
1989 597
1989 901
1990 454
1990 598
1990 902
1991 455
1991 599
1991 903
1992 456
1992 600
1992 904
1993 457
1993 601
1993 905
1994 458
1994 602
1994 906
1995 459
1995 603
1995 907
1996 460
1996 604
1996 908
1997 461
1997 605
1997 909
1998 462
1998 606
1998 910
1999 463
1999 607
1999 911
2000 1680
2000 1984
2000 2288
2001 1681
2001 1985
2001 2289
2002 1682
2002 1986
2002 2290
2003 1683
2003 1987
2003 2291
2004 1684
2004 1988
2004 2292
2005 1685
2005 1989
2005 2293
2006 1686
2006 1990
2006 2294
2007 1687
2007 1991
2007 2295
2008 1688
2008 1992
2008 2296
2009 1689
2009 1993
2009 2297
2010 1690
2010 1994
2010 2298
2011 1691
2011 1995
2011 2299
2012 1692
2012 1996
2012 2300
2013 1693
2013 1997
2013 2301
2014 1694
2014 1998
2014 2302
2015 1695
2015 1999
2015 2303
2016 464
2016 672
2016 976
2017 465
2017 673
2017 977
2018 466
2018 674
2018 978
2019 467
2019 675
2019 979
2020 468
2020 676
2020 980
2021 469
2021 677
2021 981
2022 470
2022 678
2022 982
2023 471
2023 679
2023 983
2024 472
2024 680
2024 984
2025 473
2025 681
2025 985
2026 474
2026 682
2026 986
2027 475
2027 683
2027 987
2028 476
2028 684
2028 988
2029 477
2029 685
2029 989
2030 478
2030 686
2030 990
2031 479
2031 687
2031 991
2032 1360
2032 2064
2032 2368
2033 1361
2033 2065
2033 2369
2034 1362
2034 2066
2034 2370
2035 1363
2035 2067
2035 2371
2036 1364
2036 2068
2036 2372
2037 1365
2037 2069
2037 2373
2038 1366
2038 2070
2038 2374
2039 1367
2039 2071
2039 2375
2040 1368
2040 2072
2040 2376
2041 1369
2041 2073
2041 2377
2042 1370
2042 2074
2042 2378
2043 1371
2043 2075
2043 2379
2044 1372
2044 2076
2044 2380
2045 1373
2045 2077
2045 2381
2046 1374
2046 2078
2046 2382
2047 1375
2047 2079
2047 2383
2048 480
2048 752
2048 1056
2049 481
2049 753
2049 1057
2050 482
2050 754
2050 1058
2051 483
2051 755
2051 1059
2052 484
2052 756
2052 1060
2053 485
2053 757
2053 1061
2054 486
2054 758
2054 1062
2055 487
2055 759
2055 1063
2056 488
2056 760
2056 1064
2057 489
2057 761
2057 1065
2058 490
2058 762
2058 1066
2059 491
2059 763
2059 1067
2060 492
2060 764
2060 1068
2061 493
2061 765
2061 1069
2062 494
2062 766
2062 1070
2063 495
2063 767
2063 1071
2064 1440
2064 1744
2064 2448
2065 1441
2065 1745
2065 2449
2066 1442
2066 1746
2066 2450
2067 1443
2067 1747
2067 2451
2068 1444
2068 1748
2068 2452
2069 1445
2069 1749
2069 2453
2070 1446
2070 1750
2070 2454
2071 1447
2071 1751
2071 2455
2072 1448
2072 1752
2072 2456
2073 1449
2073 1753
2073 2457
2074 1450
2074 1754
2074 2458
2075 1451
2075 1755
2075 2459
2076 1452
2076 1756
2076 2460
2077 1453
2077 1757
2077 2461
2078 1454
2078 1758
2078 2462
2079 1455
2079 1759
2079 2463
2080 416
2080 832
2080 1136
2081 417
2081 833
2081 1137
2082 418
2082 834
2082 1138
2083 419
2083 835
2083 1139
2084 420
2084 836
2084 1140
2085 421
2085 837
2085 1141
2086 422
2086 838
2086 1142
2087 423
2087 839
2087 1143
2088 424
2088 840
2088 1144
2089 425
2089 841
2089 1145
2090 426
2090 842
2090 1146
2091 427
2091 843
2091 1147
2092 428
2092 844
2092 1148
2093 429
2093 845
2093 1149
2094 430
2094 846
2094 1150
2095 431
2095 847
2095 1151
2096 1520
2096 1824
2096 2128
2097 1521
2097 1825
2097 2129
2098 1522
2098 1826
2098 2130
2099 1523
2099 1827
2099 2131
2100 1524
2100 1828
2100 2132
2101 1525
2101 1829
2101 2133
2102 1526
2102 1830
2102 2134
2103 1527
2103 1831
2103 2135
2104 1528
2104 1832
2104 2136
2105 1529
2105 1833
2105 2137
2106 1530
2106 1834
2106 2138
2107 1531
2107 1835
2107 2139
2108 1532
2108 1836
2108 2140
2109 1533
2109 1837
2109 2141
2110 1534
2110 1838
2110 2142
2111 1535
2111 1839
2111 2143
2112 448
2112 528
2112 1232
2113 449
2113 529
2113 1233
2114 450
2114 530
2114 1234
2115 451
2115 531
2115 1235
2116 452
2116 532
2116 1236
2117 453
2117 533
2117 1237
2118 454
2118 534
2118 1238
2119 455
2119 535
2119 1239
2120 456
2120 536
2120 1240
2121 457
2121 537
2121 1241
2122 458
2122 538
2122 1242
2123 459
2123 539
2123 1243
2124 460
2124 540
2124 1244
2125 461
2125 541
2125 1245
2126 462
2126 542
2126 1246
2127 463
2127 543
2127 1247
2128 1536
2128 1920
2128 2224
2129 1537
2129 1921
2129 2225
2130 1538
2130 1922
2130 2226
2131 1539
2131 1923
2131 2227
2132 1540
2132 1924
2132 2228
2133 1541
2133 1925
2133 2229
2134 1542
2134 1926
2134 2230
2135 1543
2135 1927
2135 2231
2136 1544
2136 1928
2136 2232
2137 1545
2137 1929
2137 2233
2138 1546
2138 1930
2138 2234
2139 1547
2139 1931
2139 2235
2140 1548
2140 1932
2140 2236
2141 1549
2141 1933
2141 2237
2142 1550
2142 1934
2142 2238
2143 1551
2143 1935
2143 2239
2144 464
2144 608
2144 912
2145 465
2145 609
2145 913
2146 466
2146 610
2146 914
2147 467
2147 611
2147 915
2148 468
2148 612
2148 916
2149 469
2149 613
2149 917
2150 470
2150 614
2150 918
2151 471
2151 615
2151 919
2152 472
2152 616
2152 920
2153 473
2153 617
2153 921
2154 474
2154 618
2154 922
2155 475
2155 619
2155 923
2156 476
2156 620
2156 924
2157 477
2157 621
2157 925
2158 478
2158 622
2158 926
2159 479
2159 623
2159 927
2160 1616
2160 2000
2160 2304
2161 1617
2161 2001
2161 2305
2162 1618
2162 2002
2162 2306
2163 1619
2163 2003
2163 2307
2164 1620
2164 2004
2164 2308
2165 1621
2165 2005
2165 2309
2166 1622
2166 2006
2166 2310
2167 1623
2167 2007
2167 2311
2168 1624
2168 2008
2168 2312
2169 1625
2169 2009
2169 2313
2170 1626
2170 2010
2170 2314
2171 1627
2171 2011
2171 2315
2172 1628
2172 2012
2172 2316
2173 1629
2173 2013
2173 2317
2174 1630
2174 2014
2174 2318
2175 1631
2175 2015
2175 2319
2176 480
2176 688
2176 992
2177 481
2177 689
2177 993
2178 482
2178 690
2178 994
2179 483
2179 691
2179 995
2180 484
2180 692
2180 996
2181 485
2181 693
2181 997
2182 486
2182 694
2182 998
2183 487
2183 695
2183 999
2184 488
2184 696
2184 1000
2185 489
2185 697
2185 1001
2186 490
2186 698
2186 1002
2187 491
2187 699
2187 1003
2188 492
2188 700
2188 1004
2189 493
2189 701
2189 1005
2190 494
2190 702
2190 1006
2191 495
2191 703
2191 1007
2192 1296
2192 2080
2192 2384
2193 1297
2193 2081
2193 2385
2194 1298
2194 2082
2194 2386
2195 1299
2195 2083
2195 2387
2196 1300
2196 2084
2196 2388
2197 1301
2197 2085
2197 2389
2198 1302
2198 2086
2198 2390
2199 1303
2199 2087
2199 2391
2200 1304
2200 2088
2200 2392
2201 1305
2201 2089
2201 2393
2202 1306
2202 2090
2202 2394
2203 1307
2203 2091
2203 2395
2204 1308
2204 2092
2204 2396
2205 1309
2205 2093
2205 2397
2206 1310
2206 2094
2206 2398
2207 1311
2207 2095
2207 2399
2208 416
2208 768
2208 1072
2209 417
2209 769
2209 1073
2210 418
2210 770
2210 1074
2211 419
2211 771
2211 1075
2212 420
2212 772
2212 1076
2213 421
2213 773
2213 1077
2214 422
2214 774
2214 1078
2215 423
2215 775
2215 1079
2216 424
2216 776
2216 1080
2217 425
2217 777
2217 1081
2218 426
2218 778
2218 1082
2219 427
2219 779
2219 1083
2220 428
2220 780
2220 1084
2221 429
2221 781
2221 1085
2222 430
2222 782
2222 1086
2223 431
2223 783
2223 1087
2224 1376
2224 1760
2224 2464
2225 1377
2225 1761
2225 2465
2226 1378
2226 1762
2226 2466
2227 1379
2227 1763
2227 2467
2228 1380
2228 1764
2228 2468
2229 1381
2229 1765
2229 2469
2230 1382
2230 1766
2230 2470
2231 1383
2231 1767
2231 2471
2232 1384
2232 1768
2232 2472
2233 1385
2233 1769
2233 2473
2234 1386
2234 1770
2234 2474
2235 1387
2235 1771
2235 2475
2236 1388
2236 1772
2236 2476
2237 1389
2237 1773
2237 2477
2238 1390
2238 1774
2238 2478
2239 1391
2239 1775
2239 2479
2240 432
2240 848
2240 1152
2241 433
2241 849
2241 1153
2242 434
2242 850
2242 1154
2243 435
2243 851
2243 1155
2244 436
2244 852
2244 1156
2245 437
2245 853
2245 1157
2246 438
2246 854
2246 1158
2247 439
2247 855
2247 1159
2248 440
2248 856
2248 1160
2249 441
2249 857
2249 1161
2250 442
2250 858
2250 1162
2251 443
2251 859
2251 1163
2252 444
2252 860
2252 1164
2253 445
2253 861
2253 1165
2254 446
2254 862
2254 1166
2255 447
2255 863
2255 1167
2256 1456
2256 1840
2256 2144
2257 1457
2257 1841
2257 2145
2258 1458
2258 1842
2258 2146
2259 1459
2259 1843
2259 2147
2260 1460
2260 1844
2260 2148
2261 1461
2261 1845
2261 2149
2262 1462
2262 1846
2262 2150
2263 1463
2263 1847
2263 2151
2264 1464
2264 1848
2264 2152
2265 1465
2265 1849
2265 2153
2266 1466
2266 1850
2266 2154
2267 1467
2267 1851
2267 2155
2268 1468
2268 1852
2268 2156
2269 1469
2269 1853
2269 2157
2270 1470
2270 1854
2270 2158
2271 1471
2271 1855
2271 2159
2272 464
2272 544
2272 1248
2273 465
2273 545
2273 1249
2274 466
2274 546
2274 1250
2275 467
2275 547
2275 1251
2276 468
2276 548
2276 1252
2277 469
2277 549
2277 1253
2278 470
2278 550
2278 1254
2279 471
2279 551
2279 1255
2280 472
2280 552
2280 1256
2281 473
2281 553
2281 1257
2282 474
2282 554
2282 1258
2283 475
2283 555
2283 1259
2284 476
2284 556
2284 1260
2285 477
2285 557
2285 1261
2286 478
2286 558
2286 1262
2287 479
2287 559
2287 1263
2288 1552
2288 1856
2288 2240
2289 1553
2289 1857
2289 2241
2290 1554
2290 1858
2290 2242
2291 1555
2291 1859
2291 2243
2292 1556
2292 1860
2292 2244
2293 1557
2293 1861
2293 2245
2294 1558
2294 1862
2294 2246
2295 1559
2295 1863
2295 2247
2296 1560
2296 1864
2296 2248
2297 1561
2297 1865
2297 2249
2298 1562
2298 1866
2298 2250
2299 1563
2299 1867
2299 2251
2300 1564
2300 1868
2300 2252
2301 1565
2301 1869
2301 2253
2302 1566
2302 1870
2302 2254
2303 1567
2303 1871
2303 2255
2304 480
2304 624
2304 928
2305 481
2305 625
2305 929
2306 482
2306 626
2306 930
2307 483
2307 627
2307 931
2308 484
2308 628
2308 932
2309 485
2309 629
2309 933
2310 486
2310 630
2310 934
2311 487
2311 631
2311 935
2312 488
2312 632
2312 936
2313 489
2313 633
2313 937
2314 490
2314 634
2314 938
2315 491
2315 635
2315 939
2316 492
2316 636
2316 940
2317 493
2317 637
2317 941
2318 494
2318 638
2318 942
2319 495
2319 639
2319 943
2320 1632
2320 1936
2320 2320
2321 1633
2321 1937
2321 2321
2322 1634
2322 1938
2322 2322
2323 1635
2323 1939
2323 2323
2324 1636
2324 1940
2324 2324
2325 1637
2325 1941
2325 2325
2326 1638
2326 1942
2326 2326
2327 1639
2327 1943
2327 2327
2328 1640
2328 1944
2328 2328
2329 1641
2329 1945
2329 2329
2330 1642
2330 1946
2330 2330
2331 1643
2331 1947
2331 2331
2332 1644
2332 1948
2332 2332
2333 1645
2333 1949
2333 2333
2334 1646
2334 1950
2334 2334
2335 1647
2335 1951
2335 2335
2336 416
2336 704
2336 1008
2337 417
2337 705
2337 1009
2338 418
2338 706
2338 1010
2339 419
2339 707
2339 1011
2340 420
2340 708
2340 1012
2341 421
2341 709
2341 1013
2342 422
2342 710
2342 1014
2343 423
2343 711
2343 1015
2344 424
2344 712
2344 1016
2345 425
2345 713
2345 1017
2346 426
2346 714
2346 1018
2347 427
2347 715
2347 1019
2348 428
2348 716
2348 1020
2349 429
2349 717
2349 1021
2350 430
2350 718
2350 1022
2351 431
2351 719
2351 1023
2352 1312
2352 2016
2352 2400
2353 1313
2353 2017
2353 2401
2354 1314
2354 2018
2354 2402
2355 1315
2355 2019
2355 2403
2356 1316
2356 2020
2356 2404
2357 1317
2357 2021
2357 2405
2358 1318
2358 2022
2358 2406
2359 1319
2359 2023
2359 2407
2360 1320
2360 2024
2360 2408
2361 1321
2361 2025
2361 2409
2362 1322
2362 2026
2362 2410
2363 1323
2363 2027
2363 2411
2364 1324
2364 2028
2364 2412
2365 1325
2365 2029
2365 2413
2366 1326
2366 2030
2366 2414
2367 1327
2367 2031
2367 2415
2368 432
2368 784
2368 1088
2369 433
2369 785
2369 1089
2370 434
2370 786
2370 1090
2371 435
2371 787
2371 1091
2372 436
2372 788
2372 1092
2373 437
2373 789
2373 1093
2374 438
2374 790
2374 1094
2375 439
2375 791
2375 1095
2376 440
2376 792
2376 1096
2377 441
2377 793
2377 1097
2378 442
2378 794
2378 1098
2379 443
2379 795
2379 1099
2380 444
2380 796
2380 1100
2381 445
2381 797
2381 1101
2382 446
2382 798
2382 1102
2383 447
2383 799
2383 1103
2384 1392
2384 1696
2384 2480
2385 1393
2385 1697
2385 2481
2386 1394
2386 1698
2386 2482
2387 1395
2387 1699
2387 2483
2388 1396
2388 1700
2388 2484
2389 1397
2389 1701
2389 2485
2390 1398
2390 1702
2390 2486
2391 1399
2391 1703
2391 2487
2392 1400
2392 1704
2392 2488
2393 1401
2393 1705
2393 2489
2394 1402
2394 1706
2394 2490
2395 1403
2395 1707
2395 2491
2396 1404
2396 1708
2396 2492
2397 1405
2397 1709
2397 2493
2398 1406
2398 1710
2398 2494
2399 1407
2399 1711
2399 2495
2400 448
2400 864
2400 1168
2401 449
2401 865
2401 1169
2402 450
2402 866
2402 1170
2403 451
2403 867
2403 1171
2404 452
2404 868
2404 1172
2405 453
2405 869
2405 1173
2406 454
2406 870
2406 1174
2407 455
2407 871
2407 1175
2408 456
2408 872
2408 1176
2409 457
2409 873
2409 1177
2410 458
2410 874
2410 1178
2411 459
2411 875
2411 1179
2412 460
2412 876
2412 1180
2413 461
2413 877
2413 1181
2414 462
2414 878
2414 1182
2415 463
2415 879
2415 1183
2416 1472
2416 1776
2416 2160
2417 1473
2417 1777
2417 2161
2418 1474
2418 1778
2418 2162
2419 1475
2419 1779
2419 2163
2420 1476
2420 1780
2420 2164
2421 1477
2421 1781
2421 2165
2422 1478
2422 1782
2422 2166
2423 1479
2423 1783
2423 2167
2424 1480
2424 1784
2424 2168
2425 1481
2425 1785
2425 2169
2426 1482
2426 1786
2426 2170
2427 1483
2427 1787
2427 2171
2428 1484
2428 1788
2428 2172
2429 1485
2429 1789
2429 2173
2430 1486
2430 1790
2430 2174
2431 1487
2431 1791
2431 2175
2432 480
2432 560
2432 1264
2433 481
2433 561
2433 1265
2434 482
2434 562
2434 1266
2435 483
2435 563
2435 1267
2436 484
2436 564
2436 1268
2437 485
2437 565
2437 1269
2438 486
2438 566
2438 1270
2439 487
2439 567
2439 1271
2440 488
2440 568
2440 1272
2441 489
2441 569
2441 1273
2442 490
2442 570
2442 1274
2443 491
2443 571
2443 1275
2444 492
2444 572
2444 1276
2445 493
2445 573
2445 1277
2446 494
2446 574
2446 1278
2447 495
2447 575
2447 1279
2448 1568
2448 1872
2448 2176
2449 1569
2449 1873
2449 2177
2450 1570
2450 1874
2450 2178
2451 1571
2451 1875
2451 2179
2452 1572
2452 1876
2452 2180
2453 1573
2453 1877
2453 2181
2454 1574
2454 1878
2454 2182
2455 1575
2455 1879
2455 2183
2456 1576
2456 1880
2456 2184
2457 1577
2457 1881
2457 2185
2458 1578
2458 1882
2458 2186
2459 1579
2459 1883
2459 2187
2460 1580
2460 1884
2460 2188
2461 1581
2461 1885
2461 2189
2462 1582
2462 1886
2462 2190
2463 1583
2463 1887
2463 2191
2464 416
2464 640
2464 944
2465 417
2465 641
2465 945
2466 418
2466 642
2466 946
2467 419
2467 643
2467 947
2468 420
2468 644
2468 948
2469 421
2469 645
2469 949
2470 422
2470 646
2470 950
2471 423
2471 647
2471 951
2472 424
2472 648
2472 952
2473 425
2473 649
2473 953
2474 426
2474 650
2474 954
2475 427
2475 651
2475 955
2476 428
2476 652
2476 956
2477 429
2477 653
2477 957
2478 430
2478 654
2478 958
2479 431
2479 655
2479 959
2480 1648
2480 1952
2480 2256
2481 1649
2481 1953
2481 2257
2482 1650
2482 1954
2482 2258
2483 1651
2483 1955
2483 2259
2484 1652
2484 1956
2484 2260
2485 1653
2485 1957
2485 2261
2486 1654
2486 1958
2486 2262
2487 1655
2487 1959
2487 2263
2488 1656
2488 1960
2488 2264
2489 1657
2489 1961
2489 2265
2490 1658
2490 1962
2490 2266
2491 1659
2491 1963
2491 2267
2492 1660
2492 1964
2492 2268
2493 1661
2493 1965
2493 2269
2494 1662
2494 1966
2494 2270
2495 1663
2495 1967
2495 2271
2496 432
2496 720
2496 1024
2497 433
2497 721
2497 1025
2498 434
2498 722
2498 1026
2499 435
2499 723
2499 1027
2500 436
2500 724
2500 1028
2501 437
2501 725
2501 1029
2502 438
2502 726
2502 1030
2503 439
2503 727
2503 1031
2504 440
2504 728
2504 1032
2505 441
2505 729
2505 1033
2506 442
2506 730
2506 1034
2507 443
2507 731
2507 1035
2508 444
2508 732
2508 1036
2509 445
2509 733
2509 1037
2510 446
2510 734
2510 1038
2511 447
2511 735
2511 1039
2512 1328
2512 2032
2512 2336
2513 1329
2513 2033
2513 2337
2514 1330
2514 2034
2514 2338
2515 1331
2515 2035
2515 2339
2516 1332
2516 2036
2516 2340
2517 1333
2517 2037
2517 2341
2518 1334
2518 2038
2518 2342
2519 1335
2519 2039
2519 2343
2520 1336
2520 2040
2520 2344
2521 1337
2521 2041
2521 2345
2522 1338
2522 2042
2522 2346
2523 1339
2523 2043
2523 2347
2524 1340
2524 2044
2524 2348
2525 1341
2525 2045
2525 2349
2526 1342
2526 2046
2526 2350
2527 1343
2527 2047
2527 2351
2528 448
2528 800
2528 1104
2529 449
2529 801
2529 1105
2530 450
2530 802
2530 1106
2531 451
2531 803
2531 1107
2532 452
2532 804
2532 1108
2533 453
2533 805
2533 1109
2534 454
2534 806
2534 1110
2535 455
2535 807
2535 1111
2536 456
2536 808
2536 1112
2537 457
2537 809
2537 1113
2538 458
2538 810
2538 1114
2539 459
2539 811
2539 1115
2540 460
2540 812
2540 1116
2541 461
2541 813
2541 1117
2542 462
2542 814
2542 1118
2543 463
2543 815
2543 1119
2544 1408
2544 1712
2544 2416
2545 1409
2545 1713
2545 2417
2546 1410
2546 1714
2546 2418
2547 1411
2547 1715
2547 2419
2548 1412
2548 1716
2548 2420
2549 1413
2549 1717
2549 2421
2550 1414
2550 1718
2550 2422
2551 1415
2551 1719
2551 2423
2552 1416
2552 1720
2552 2424
2553 1417
2553 1721
2553 2425
2554 1418
2554 1722
2554 2426
2555 1419
2555 1723
2555 2427
2556 1420
2556 1724
2556 2428
2557 1421
2557 1725
2557 2429
2558 1422
2558 1726
2558 2430
2559 1423
2559 1727
2559 2431
2560 464
2560 880
2560 1184
2561 465
2561 881
2561 1185
2562 466
2562 882
2562 1186
2563 467
2563 883
2563 1187
2564 468
2564 884
2564 1188
2565 469
2565 885
2565 1189
2566 470
2566 886
2566 1190
2567 471
2567 887
2567 1191
2568 472
2568 888
2568 1192
2569 473
2569 889
2569 1193
2570 474
2570 890
2570 1194
2571 475
2571 891
2571 1195
2572 476
2572 892
2572 1196
2573 477
2573 893
2573 1197
2574 478
2574 894
2574 1198
2575 479
2575 895
2575 1199
2576 1488
2576 1792
2576 2096
2577 1489
2577 1793
2577 2097
2578 1490
2578 1794
2578 2098
2579 1491
2579 1795
2579 2099
2580 1492
2580 1796
2580 2100
2581 1493
2581 1797
2581 2101
2582 1494
2582 1798
2582 2102
2583 1495
2583 1799
2583 2103
2584 1496
2584 1800
2584 2104
2585 1497
2585 1801
2585 2105
2586 1498
2586 1802
2586 2106
2587 1499
2587 1803
2587 2107
2588 1500
2588 1804
2588 2108
2589 1501
2589 1805
2589 2109
2590 1502
2590 1806
2590 2110
2591 1503
2591 1807
2591 2111
2592 256
2592 496
2592 1104
2593 257
2593 497
2593 1105
2594 258
2594 498
2594 1106
2595 259
2595 499
2595 1107
2596 260
2596 500
2596 1108
2597 261
2597 501
2597 1109
2598 262
2598 502
2598 1110
2599 263
2599 503
2599 1111
2600 264
2600 504
2600 1112
2601 265
2601 505
2601 1113
2602 266
2602 506
2602 1114
2603 267
2603 507
2603 1115
2604 268
2604 508
2604 1116
2605 269
2605 509
2605 1117
2606 270
2606 510
2606 1118
2607 271
2607 511
2607 1119
2608 1632
2608 1840
2608 2368
2609 1633
2609 1841
2609 2369
2610 1634
2610 1842
2610 2370
2611 1635
2611 1843
2611 2371
2612 1636
2612 1844
2612 2372
2613 1637
2613 1845
2613 2373
2614 1638
2614 1846
2614 2374
2615 1639
2615 1847
2615 2375
2616 1640
2616 1848
2616 2376
2617 1641
2617 1849
2617 2377
2618 1642
2618 1850
2618 2378
2619 1643
2619 1851
2619 2379
2620 1644
2620 1852
2620 2380
2621 1645
2621 1853
2621 2381
2622 1646
2622 1854
2622 2382
2623 1647
2623 1855
2623 2383
2624 272
2624 736
2624 944
2625 273
2625 737
2625 945
2626 274
2626 738
2626 946
2627 275
2627 739
2627 947
2628 276
2628 740
2628 948
2629 277
2629 741
2629 949
2630 278
2630 742
2630 950
2631 279
2631 743
2631 951
2632 280
2632 744
2632 952
2633 281
2633 745
2633 953
2634 282
2634 746
2634 954
2635 283
2635 747
2635 955
2636 284
2636 748
2636 956
2637 285
2637 749
2637 957
2638 286
2638 750
2638 958
2639 287
2639 751
2639 959
2640 1472
2640 2080
2640 2208
2641 1473
2641 2081
2641 2209
2642 1474
2642 2082
2642 2210
2643 1475
2643 2083
2643 2211
2644 1476
2644 2084
2644 2212
2645 1477
2645 2085
2645 2213
2646 1478
2646 2086
2646 2214
2647 1479
2647 2087
2647 2215
2648 1480
2648 2088
2648 2216
2649 1481
2649 2089
2649 2217
2650 1482
2650 2090
2650 2218
2651 1483
2651 2091
2651 2219
2652 1484
2652 2092
2652 2220
2653 1485
2653 2093
2653 2221
2654 1486
2654 2094
2654 2222
2655 1487
2655 2095
2655 2223
2656 288
2656 576
2656 1184
2657 289
2657 577
2657 1185
2658 290
2658 578
2658 1186
2659 291
2659 579
2659 1187
2660 292
2660 580
2660 1188
2661 293
2661 581
2661 1189
2662 294
2662 582
2662 1190
2663 295
2663 583
2663 1191
2664 296
2664 584
2664 1192
2665 297
2665 585
2665 1193
2666 298
2666 586
2666 1194
2667 299
2667 587
2667 1195
2668 300
2668 588
2668 1196
2669 301
2669 589
2669 1197
2670 302
2670 590
2670 1198
2671 303
2671 591
2671 1199
2672 1312
2672 1920
2672 2448
2673 1313
2673 1921
2673 2449
2674 1314
2674 1922
2674 2450
2675 1315
2675 1923
2675 2451
2676 1316
2676 1924
2676 2452
2677 1317
2677 1925
2677 2453
2678 1318
2678 1926
2678 2454
2679 1319
2679 1927
2679 2455
2680 1320
2680 1928
2680 2456
2681 1321
2681 1929
2681 2457
2682 1322
2682 1930
2682 2458
2683 1323
2683 1931
2683 2459
2684 1324
2684 1932
2684 2460
2685 1325
2685 1933
2685 2461
2686 1326
2686 1934
2686 2462
2687 1327
2687 1935
2687 2463
2688 304
2688 816
2688 1024
2689 305
2689 817
2689 1025
2690 306
2690 818
2690 1026
2691 307
2691 819
2691 1027
2692 308
2692 820
2692 1028
2693 309
2693 821
2693 1029
2694 310
2694 822
2694 1030
2695 311
2695 823
2695 1031
2696 312
2696 824
2696 1032
2697 313
2697 825
2697 1033
2698 314
2698 826
2698 1034
2699 315
2699 827
2699 1035
2700 316
2700 828
2700 1036
2701 317
2701 829
2701 1037
2702 318
2702 830
2702 1038
2703 319
2703 831
2703 1039
2704 1552
2704 1760
2704 2288
2705 1553
2705 1761
2705 2289
2706 1554
2706 1762
2706 2290
2707 1555
2707 1763
2707 2291
2708 1556
2708 1764
2708 2292
2709 1557
2709 1765
2709 2293
2710 1558
2710 1766
2710 2294
2711 1559
2711 1767
2711 2295
2712 1560
2712 1768
2712 2296
2713 1561
2713 1769
2713 2297
2714 1562
2714 1770
2714 2298
2715 1563
2715 1771
2715 2299
2716 1564
2716 1772
2716 2300
2717 1565
2717 1773
2717 2301
2718 1566
2718 1774
2718 2302
2719 1567
2719 1775
2719 2303
2720 320
2720 656
2720 1264
2721 321
2721 657
2721 1265
2722 322
2722 658
2722 1266
2723 323
2723 659
2723 1267
2724 324
2724 660
2724 1268
2725 325
2725 661
2725 1269
2726 326
2726 662
2726 1270
2727 327
2727 663
2727 1271
2728 328
2728 664
2728 1272
2729 329
2729 665
2729 1273
2730 330
2730 666
2730 1274
2731 331
2731 667
2731 1275
2732 332
2732 668
2732 1276
2733 333
2733 669
2733 1277
2734 334
2734 670
2734 1278
2735 335
2735 671
2735 1279
2736 1392
2736 2000
2736 2128
2737 1393
2737 2001
2737 2129
2738 1394
2738 2002
2738 2130
2739 1395
2739 2003
2739 2131
2740 1396
2740 2004
2740 2132
2741 1397
2741 2005
2741 2133
2742 1398
2742 2006
2742 2134
2743 1399
2743 2007
2743 2135
2744 1400
2744 2008
2744 2136
2745 1401
2745 2009
2745 2137
2746 1402
2746 2010
2746 2138
2747 1403
2747 2011
2747 2139
2748 1404
2748 2012
2748 2140
2749 1405
2749 2013
2749 2141
2750 1406
2750 2014
2750 2142
2751 1407
2751 2015
2751 2143
2752 304
2752 512
2752 1120
2753 305
2753 513
2753 1121
2754 306
2754 514
2754 1122
2755 307
2755 515
2755 1123
2756 308
2756 516
2756 1124
2757 309
2757 517
2757 1125
2758 310
2758 518
2758 1126
2759 311
2759 519
2759 1127
2760 312
2760 520
2760 1128
2761 313
2761 521
2761 1129
2762 314
2762 522
2762 1130
2763 315
2763 523
2763 1131
2764 316
2764 524
2764 1132
2765 317
2765 525
2765 1133
2766 318
2766 526
2766 1134
2767 319
2767 527
2767 1135
2768 1648
2768 1776
2768 2384
2769 1649
2769 1777
2769 2385
2770 1650
2770 1778
2770 2386
2771 1651
2771 1779
2771 2387
2772 1652
2772 1780
2772 2388
2773 1653
2773 1781
2773 2389
2774 1654
2774 1782
2774 2390
2775 1655
2775 1783
2775 2391
2776 1656
2776 1784
2776 2392
2777 1657
2777 1785
2777 2393
2778 1658
2778 1786
2778 2394
2779 1659
2779 1787
2779 2395
2780 1660
2780 1788
2780 2396
2781 1661
2781 1789
2781 2397
2782 1662
2782 1790
2782 2398
2783 1663
2783 1791
2783 2399
2784 320
2784 752
2784 960
2785 321
2785 753
2785 961
2786 322
2786 754
2786 962
2787 323
2787 755
2787 963
2788 324
2788 756
2788 964
2789 325
2789 757
2789 965
2790 326
2790 758
2790 966
2791 327
2791 759
2791 967
2792 328
2792 760
2792 968
2793 329
2793 761
2793 969
2794 330
2794 762
2794 970
2795 331
2795 763
2795 971
2796 332
2796 764
2796 972
2797 333
2797 765
2797 973
2798 334
2798 766
2798 974
2799 335
2799 767
2799 975
2800 1488
2800 2016
2800 2224
2801 1489
2801 2017
2801 2225
2802 1490
2802 2018
2802 2226
2803 1491
2803 2019
2803 2227
2804 1492
2804 2020
2804 2228
2805 1493
2805 2021
2805 2229
2806 1494
2806 2022
2806 2230
2807 1495
2807 2023
2807 2231
2808 1496
2808 2024
2808 2232
2809 1497
2809 2025
2809 2233
2810 1498
2810 2026
2810 2234
2811 1499
2811 2027
2811 2235
2812 1500
2812 2028
2812 2236
2813 1501
2813 2029
2813 2237
2814 1502
2814 2030
2814 2238
2815 1503
2815 2031
2815 2239
2816 256
2816 592
2816 1200
2817 257
2817 593
2817 1201
2818 258
2818 594
2818 1202
2819 259
2819 595
2819 1203
2820 260
2820 596
2820 1204
2821 261
2821 597
2821 1205
2822 262
2822 598
2822 1206
2823 263
2823 599
2823 1207
2824 264
2824 600
2824 1208
2825 265
2825 601
2825 1209
2826 266
2826 602
2826 1210
2827 267
2827 603
2827 1211
2828 268
2828 604
2828 1212
2829 269
2829 605
2829 1213
2830 270
2830 606
2830 1214
2831 271
2831 607
2831 1215
2832 1328
2832 1856
2832 2464
2833 1329
2833 1857
2833 2465
2834 1330
2834 1858
2834 2466
2835 1331
2835 1859
2835 2467
2836 1332
2836 1860
2836 2468
2837 1333
2837 1861
2837 2469
2838 1334
2838 1862
2838 2470
2839 1335
2839 1863
2839 2471
2840 1336
2840 1864
2840 2472
2841 1337
2841 1865
2841 2473
2842 1338
2842 1866
2842 2474
2843 1339
2843 1867
2843 2475
2844 1340
2844 1868
2844 2476
2845 1341
2845 1869
2845 2477
2846 1342
2846 1870
2846 2478
2847 1343
2847 1871
2847 2479
2848 272
2848 832
2848 1040
2849 273
2849 833
2849 1041
2850 274
2850 834
2850 1042
2851 275
2851 835
2851 1043
2852 276
2852 836
2852 1044
2853 277
2853 837
2853 1045
2854 278
2854 838
2854 1046
2855 279
2855 839
2855 1047
2856 280
2856 840
2856 1048
2857 281
2857 841
2857 1049
2858 282
2858 842
2858 1050
2859 283
2859 843
2859 1051
2860 284
2860 844
2860 1052
2861 285
2861 845
2861 1053
2862 286
2862 846
2862 1054
2863 287
2863 847
2863 1055
2864 1568
2864 1696
2864 2304
2865 1569
2865 1697
2865 2305
2866 1570
2866 1698
2866 2306
2867 1571
2867 1699
2867 2307
2868 1572
2868 1700
2868 2308
2869 1573
2869 1701
2869 2309
2870 1574
2870 1702
2870 2310
2871 1575
2871 1703
2871 2311
2872 1576
2872 1704
2872 2312
2873 1577
2873 1705
2873 2313
2874 1578
2874 1706
2874 2314
2875 1579
2875 1707
2875 2315
2876 1580
2876 1708
2876 2316
2877 1581
2877 1709
2877 2317
2878 1582
2878 1710
2878 2318
2879 1583
2879 1711
2879 2319
2880 288
2880 672
2880 1280
2881 289
2881 673
2881 1281
2882 290
2882 674
2882 1282
2883 291
2883 675
2883 1283
2884 292
2884 676
2884 1284
2885 293
2885 677
2885 1285
2886 294
2886 678
2886 1286
2887 295
2887 679
2887 1287
2888 296
2888 680
2888 1288
2889 297
2889 681
2889 1289
2890 298
2890 682
2890 1290
2891 299
2891 683
2891 1291
2892 300
2892 684
2892 1292
2893 301
2893 685
2893 1293
2894 302
2894 686
2894 1294
2895 303
2895 687
2895 1295
2896 1408
2896 1936
2896 2144
2897 1409
2897 1937
2897 2145
2898 1410
2898 1938
2898 2146
2899 1411
2899 1939
2899 2147
2900 1412
2900 1940
2900 2148
2901 1413
2901 1941
2901 2149
2902 1414
2902 1942
2902 2150
2903 1415
2903 1943
2903 2151
2904 1416
2904 1944
2904 2152
2905 1417
2905 1945
2905 2153
2906 1418
2906 1946
2906 2154
2907 1419
2907 1947
2907 2155
2908 1420
2908 1948
2908 2156
2909 1421
2909 1949
2909 2157
2910 1422
2910 1950
2910 2158
2911 1423
2911 1951
2911 2159
2912 272
2912 528
2912 1056
2913 273
2913 529
2913 1057
2914 274
2914 530
2914 1058
2915 275
2915 531
2915 1059
2916 276
2916 532
2916 1060
2917 277
2917 533
2917 1061
2918 278
2918 534
2918 1062
2919 279
2919 535
2919 1063
2920 280
2920 536
2920 1064
2921 281
2921 537
2921 1065
2922 282
2922 538
2922 1066
2923 283
2923 539
2923 1067
2924 284
2924 540
2924 1068
2925 285
2925 541
2925 1069
2926 286
2926 542
2926 1070
2927 287
2927 543
2927 1071
2928 1664
2928 1792
2928 2400
2929 1665
2929 1793
2929 2401
2930 1666
2930 1794
2930 2402
2931 1667
2931 1795
2931 2403
2932 1668
2932 1796
2932 2404
2933 1669
2933 1797
2933 2405
2934 1670
2934 1798
2934 2406
2935 1671
2935 1799
2935 2407
2936 1672
2936 1800
2936 2408
2937 1673
2937 1801
2937 2409
2938 1674
2938 1802
2938 2410
2939 1675
2939 1803
2939 2411
2940 1676
2940 1804
2940 2412
2941 1677
2941 1805
2941 2413
2942 1678
2942 1806
2942 2414
2943 1679
2943 1807
2943 2415
2944 288
2944 768
2944 896
2945 289
2945 769
2945 897
2946 290
2946 770
2946 898
2947 291
2947 771
2947 899
2948 292
2948 772
2948 900
2949 293
2949 773
2949 901
2950 294
2950 774
2950 902
2951 295
2951 775
2951 903
2952 296
2952 776
2952 904
2953 297
2953 777
2953 905
2954 298
2954 778
2954 906
2955 299
2955 779
2955 907
2956 300
2956 780
2956 908
2957 301
2957 781
2957 909
2958 302
2958 782
2958 910
2959 303
2959 783
2959 911
2960 1504
2960 2032
2960 2240
2961 1505
2961 2033
2961 2241
2962 1506
2962 2034
2962 2242
2963 1507
2963 2035
2963 2243
2964 1508
2964 2036
2964 2244
2965 1509
2965 2037
2965 2245
2966 1510
2966 2038
2966 2246
2967 1511
2967 2039
2967 2247
2968 1512
2968 2040
2968 2248
2969 1513
2969 2041
2969 2249
2970 1514
2970 2042
2970 2250
2971 1515
2971 2043
2971 2251
2972 1516
2972 2044
2972 2252
2973 1517
2973 2045
2973 2253
2974 1518
2974 2046
2974 2254
2975 1519
2975 2047
2975 2255
2976 304
2976 608
2976 1136
2977 305
2977 609
2977 1137
2978 306
2978 610
2978 1138
2979 307
2979 611
2979 1139
2980 308
2980 612
2980 1140
2981 309
2981 613
2981 1141
2982 310
2982 614
2982 1142
2983 311
2983 615
2983 1143
2984 312
2984 616
2984 1144
2985 313
2985 617
2985 1145
2986 314
2986 618
2986 1146
2987 315
2987 619
2987 1147
2988 316
2988 620
2988 1148
2989 317
2989 621
2989 1149
2990 318
2990 622
2990 1150
2991 319
2991 623
2991 1151
2992 1344
2992 1872
2992 2480
2993 1345
2993 1873
2993 2481
2994 1346
2994 1874
2994 2482
2995 1347
2995 1875
2995 2483
2996 1348
2996 1876
2996 2484
2997 1349
2997 1877
2997 2485
2998 1350
2998 1878
2998 2486
2999 1351
2999 1879
2999 2487
3000 1352
3000 1880
3000 2488
3001 1353
3001 1881
3001 2489
3002 1354
3002 1882
3002 2490
3003 1355
3003 1883
3003 2491
3004 1356
3004 1884
3004 2492
3005 1357
3005 1885
3005 2493
3006 1358
3006 1886
3006 2494
3007 1359
3007 1887
3007 2495
3008 320
3008 848
3008 976
3009 321
3009 849
3009 977
3010 322
3010 850
3010 978
3011 323
3011 851
3011 979
3012 324
3012 852
3012 980
3013 325
3013 853
3013 981
3014 326
3014 854
3014 982
3015 327
3015 855
3015 983
3016 328
3016 856
3016 984
3017 329
3017 857
3017 985
3018 330
3018 858
3018 986
3019 331
3019 859
3019 987
3020 332
3020 860
3020 988
3021 333
3021 861
3021 989
3022 334
3022 862
3022 990
3023 335
3023 863
3023 991
3024 1584
3024 1712
3024 2320
3025 1585
3025 1713
3025 2321
3026 1586
3026 1714
3026 2322
3027 1587
3027 1715
3027 2323
3028 1588
3028 1716
3028 2324
3029 1589
3029 1717
3029 2325
3030 1590
3030 1718
3030 2326
3031 1591
3031 1719
3031 2327
3032 1592
3032 1720
3032 2328
3033 1593
3033 1721
3033 2329
3034 1594
3034 1722
3034 2330
3035 1595
3035 1723
3035 2331
3036 1596
3036 1724
3036 2332
3037 1597
3037 1725
3037 2333
3038 1598
3038 1726
3038 2334
3039 1599
3039 1727
3039 2335
3040 256
3040 688
3040 1216
3041 257
3041 689
3041 1217
3042 258
3042 690
3042 1218
3043 259
3043 691
3043 1219
3044 260
3044 692
3044 1220
3045 261
3045 693
3045 1221
3046 262
3046 694
3046 1222
3047 263
3047 695
3047 1223
3048 264
3048 696
3048 1224
3049 265
3049 697
3049 1225
3050 266
3050 698
3050 1226
3051 267
3051 699
3051 1227
3052 268
3052 700
3052 1228
3053 269
3053 701
3053 1229
3054 270
3054 702
3054 1230
3055 271
3055 703
3055 1231
3056 1424
3056 1952
3056 2160
3057 1425
3057 1953
3057 2161
3058 1426
3058 1954
3058 2162
3059 1427
3059 1955
3059 2163
3060 1428
3060 1956
3060 2164
3061 1429
3061 1957
3061 2165
3062 1430
3062 1958
3062 2166
3063 1431
3063 1959
3063 2167
3064 1432
3064 1960
3064 2168
3065 1433
3065 1961
3065 2169
3066 1434
3066 1962
3066 2170
3067 1435
3067 1963
3067 2171
3068 1436
3068 1964
3068 2172
3069 1437
3069 1965
3069 2173
3070 1438
3070 1966
3070 2174
3071 1439
3071 1967
3071 2175
3072 320
3072 544
3072 1072
3073 321
3073 545
3073 1073
3074 322
3074 546
3074 1074
3075 323
3075 547
3075 1075
3076 324
3076 548
3076 1076
3077 325
3077 549
3077 1077
3078 326
3078 550
3078 1078
3079 327
3079 551
3079 1079
3080 328
3080 552
3080 1080
3081 329
3081 553
3081 1081
3082 330
3082 554
3082 1082
3083 331
3083 555
3083 1083
3084 332
3084 556
3084 1084
3085 333
3085 557
3085 1085
3086 334
3086 558
3086 1086
3087 335
3087 559
3087 1087
3088 1680
3088 1808
3088 2336
3089 1681
3089 1809
3089 2337
3090 1682
3090 1810
3090 2338
3091 1683
3091 1811
3091 2339
3092 1684
3092 1812
3092 2340
3093 1685
3093 1813
3093 2341
3094 1686
3094 1814
3094 2342
3095 1687
3095 1815
3095 2343
3096 1688
3096 1816
3096 2344
3097 1689
3097 1817
3097 2345
3098 1690
3098 1818
3098 2346
3099 1691
3099 1819
3099 2347
3100 1692
3100 1820
3100 2348
3101 1693
3101 1821
3101 2349
3102 1694
3102 1822
3102 2350
3103 1695
3103 1823
3103 2351
3104 256
3104 784
3104 912
3105 257
3105 785
3105 913
3106 258
3106 786
3106 914
3107 259
3107 787
3107 915
3108 260
3108 788
3108 916
3109 261
3109 789
3109 917
3110 262
3110 790
3110 918
3111 263
3111 791
3111 919
3112 264
3112 792
3112 920
3113 265
3113 793
3113 921
3114 266
3114 794
3114 922
3115 267
3115 795
3115 923
3116 268
3116 796
3116 924
3117 269
3117 797
3117 925
3118 270
3118 798
3118 926
3119 271
3119 799
3119 927
3120 1520
3120 2048
3120 2176
3121 1521
3121 2049
3121 2177
3122 1522
3122 2050
3122 2178
3123 1523
3123 2051
3123 2179
3124 1524
3124 2052
3124 2180
3125 1525
3125 2053
3125 2181
3126 1526
3126 2054
3126 2182
3127 1527
3127 2055
3127 2183
3128 1528
3128 2056
3128 2184
3129 1529
3129 2057
3129 2185
3130 1530
3130 2058
3130 2186
3131 1531
3131 2059
3131 2187
3132 1532
3132 2060
3132 2188
3133 1533
3133 2061
3133 2189
3134 1534
3134 2062
3134 2190
3135 1535
3135 2063
3135 2191
3136 272
3136 624
3136 1152
3137 273
3137 625
3137 1153
3138 274
3138 626
3138 1154
3139 275
3139 627
3139 1155
3140 276
3140 628
3140 1156
3141 277
3141 629
3141 1157
3142 278
3142 630
3142 1158
3143 279
3143 631
3143 1159
3144 280
3144 632
3144 1160
3145 281
3145 633
3145 1161
3146 282
3146 634
3146 1162
3147 283
3147 635
3147 1163
3148 284
3148 636
3148 1164
3149 285
3149 637
3149 1165
3150 286
3150 638
3150 1166
3151 287
3151 639
3151 1167
3152 1360
3152 1888
3152 2416
3153 1361
3153 1889
3153 2417
3154 1362
3154 1890
3154 2418
3155 1363
3155 1891
3155 2419
3156 1364
3156 1892
3156 2420
3157 1365
3157 1893
3157 2421
3158 1366
3158 1894
3158 2422
3159 1367
3159 1895
3159 2423
3160 1368
3160 1896
3160 2424
3161 1369
3161 1897
3161 2425
3162 1370
3162 1898
3162 2426
3163 1371
3163 1899
3163 2427
3164 1372
3164 1900
3164 2428
3165 1373
3165 1901
3165 2429
3166 1374
3166 1902
3166 2430
3167 1375
3167 1903
3167 2431
3168 288
3168 864
3168 992
3169 289
3169 865
3169 993
3170 290
3170 866
3170 994
3171 291
3171 867
3171 995
3172 292
3172 868
3172 996
3173 293
3173 869
3173 997
3174 294
3174 870
3174 998
3175 295
3175 871
3175 999
3176 296
3176 872
3176 1000
3177 297
3177 873
3177 1001
3178 298
3178 874
3178 1002
3179 299
3179 875
3179 1003
3180 300
3180 876
3180 1004
3181 301
3181 877
3181 1005
3182 302
3182 878
3182 1006
3183 303
3183 879
3183 1007
3184 1600
3184 1728
3184 2256
3185 1601
3185 1729
3185 2257
3186 1602
3186 1730
3186 2258
3187 1603
3187 1731
3187 2259
3188 1604
3188 1732
3188 2260
3189 1605
3189 1733
3189 2261
3190 1606
3190 1734
3190 2262
3191 1607
3191 1735
3191 2263
3192 1608
3192 1736
3192 2264
3193 1609
3193 1737
3193 2265
3194 1610
3194 1738
3194 2266
3195 1611
3195 1739
3195 2267
3196 1612
3196 1740
3196 2268
3197 1613
3197 1741
3197 2269
3198 1614
3198 1742
3198 2270
3199 1615
3199 1743
3199 2271
3200 304
3200 704
3200 1232
3201 305
3201 705
3201 1233
3202 306
3202 706
3202 1234
3203 307
3203 707
3203 1235
3204 308
3204 708
3204 1236
3205 309
3205 709
3205 1237
3206 310
3206 710
3206 1238
3207 311
3207 711
3207 1239
3208 312
3208 712
3208 1240
3209 313
3209 713
3209 1241
3210 314
3210 714
3210 1242
3211 315
3211 715
3211 1243
3212 316
3212 716
3212 1244
3213 317
3213 717
3213 1245
3214 318
3214 718
3214 1246
3215 319
3215 719
3215 1247
3216 1440
3216 1968
3216 2096
3217 1441
3217 1969
3217 2097
3218 1442
3218 1970
3218 2098
3219 1443
3219 1971
3219 2099
3220 1444
3220 1972
3220 2100
3221 1445
3221 1973
3221 2101
3222 1446
3222 1974
3222 2102
3223 1447
3223 1975
3223 2103
3224 1448
3224 1976
3224 2104
3225 1449
3225 1977
3225 2105
3226 1450
3226 1978
3226 2106
3227 1451
3227 1979
3227 2107
3228 1452
3228 1980
3228 2108
3229 1453
3229 1981
3229 2109
3230 1454
3230 1982
3230 2110
3231 1455
3231 1983
3231 2111
3232 288
3232 560
3232 1088
3233 289
3233 561
3233 1089
3234 290
3234 562
3234 1090
3235 291
3235 563
3235 1091
3236 292
3236 564
3236 1092
3237 293
3237 565
3237 1093
3238 294
3238 566
3238 1094
3239 295
3239 567
3239 1095
3240 296
3240 568
3240 1096
3241 297
3241 569
3241 1097
3242 298
3242 570
3242 1098
3243 299
3243 571
3243 1099
3244 300
3244 572
3244 1100
3245 301
3245 573
3245 1101
3246 302
3246 574
3246 1102
3247 303
3247 575
3247 1103
3248 1616
3248 1824
3248 2352
3249 1617
3249 1825
3249 2353
3250 1618
3250 1826
3250 2354
3251 1619
3251 1827
3251 2355
3252 1620
3252 1828
3252 2356
3253 1621
3253 1829
3253 2357
3254 1622
3254 1830
3254 2358
3255 1623
3255 1831
3255 2359
3256 1624
3256 1832
3256 2360
3257 1625
3257 1833
3257 2361
3258 1626
3258 1834
3258 2362
3259 1627
3259 1835
3259 2363
3260 1628
3260 1836
3260 2364
3261 1629
3261 1837
3261 2365
3262 1630
3262 1838
3262 2366
3263 1631
3263 1839
3263 2367
3264 304
3264 800
3264 928
3265 305
3265 801
3265 929
3266 306
3266 802
3266 930
3267 307
3267 803
3267 931
3268 308
3268 804
3268 932
3269 309
3269 805
3269 933
3270 310
3270 806
3270 934
3271 311
3271 807
3271 935
3272 312
3272 808
3272 936
3273 313
3273 809
3273 937
3274 314
3274 810
3274 938
3275 315
3275 811
3275 939
3276 316
3276 812
3276 940
3277 317
3277 813
3277 941
3278 318
3278 814
3278 942
3279 319
3279 815
3279 943
3280 1456
3280 2064
3280 2192
3281 1457
3281 2065
3281 2193
3282 1458
3282 2066
3282 2194
3283 1459
3283 2067
3283 2195
3284 1460
3284 2068
3284 2196
3285 1461
3285 2069
3285 2197
3286 1462
3286 2070
3286 2198
3287 1463
3287 2071
3287 2199
3288 1464
3288 2072
3288 2200
3289 1465
3289 2073
3289 2201
3290 1466
3290 2074
3290 2202
3291 1467
3291 2075
3291 2203
3292 1468
3292 2076
3292 2204
3293 1469
3293 2077
3293 2205
3294 1470
3294 2078
3294 2206
3295 1471
3295 2079
3295 2207
3296 320
3296 640
3296 1168
3297 321
3297 641
3297 1169
3298 322
3298 642
3298 1170
3299 323
3299 643
3299 1171
3300 324
3300 644
3300 1172
3301 325
3301 645
3301 1173
3302 326
3302 646
3302 1174
3303 327
3303 647
3303 1175
3304 328
3304 648
3304 1176
3305 329
3305 649
3305 1177
3306 330
3306 650
3306 1178
3307 331
3307 651
3307 1179
3308 332
3308 652
3308 1180
3309 333
3309 653
3309 1181
3310 334
3310 654
3310 1182
3311 335
3311 655
3311 1183
3312 1296
3312 1904
3312 2432
3313 1297
3313 1905
3313 2433
3314 1298
3314 1906
3314 2434
3315 1299
3315 1907
3315 2435
3316 1300
3316 1908
3316 2436
3317 1301
3317 1909
3317 2437
3318 1302
3318 1910
3318 2438
3319 1303
3319 1911
3319 2439
3320 1304
3320 1912
3320 2440
3321 1305
3321 1913
3321 2441
3322 1306
3322 1914
3322 2442
3323 1307
3323 1915
3323 2443
3324 1308
3324 1916
3324 2444
3325 1309
3325 1917
3325 2445
3326 1310
3326 1918
3326 2446
3327 1311
3327 1919
3327 2447
3328 256
3328 880
3328 1008
3329 257
3329 881
3329 1009
3330 258
3330 882
3330 1010
3331 259
3331 883
3331 1011
3332 260
3332 884
3332 1012
3333 261
3333 885
3333 1013
3334 262
3334 886
3334 1014
3335 263
3335 887
3335 1015
3336 264
3336 888
3336 1016
3337 265
3337 889
3337 1017
3338 266
3338 890
3338 1018
3339 267
3339 891
3339 1019
3340 268
3340 892
3340 1020
3341 269
3341 893
3341 1021
3342 270
3342 894
3342 1022
3343 271
3343 895
3343 1023
3344 1536
3344 1744
3344 2272
3345 1537
3345 1745
3345 2273
3346 1538
3346 1746
3346 2274
3347 1539
3347 1747
3347 2275
3348 1540
3348 1748
3348 2276
3349 1541
3349 1749
3349 2277
3350 1542
3350 1750
3350 2278
3351 1543
3351 1751
3351 2279
3352 1544
3352 1752
3352 2280
3353 1545
3353 1753
3353 2281
3354 1546
3354 1754
3354 2282
3355 1547
3355 1755
3355 2283
3356 1548
3356 1756
3356 2284
3357 1549
3357 1757
3357 2285
3358 1550
3358 1758
3358 2286
3359 1551
3359 1759
3359 2287
3360 272
3360 720
3360 1248
3361 273
3361 721
3361 1249
3362 274
3362 722
3362 1250
3363 275
3363 723
3363 1251
3364 276
3364 724
3364 1252
3365 277
3365 725
3365 1253
3366 278
3366 726
3366 1254
3367 279
3367 727
3367 1255
3368 280
3368 728
3368 1256
3369 281
3369 729
3369 1257
3370 282
3370 730
3370 1258
3371 283
3371 731
3371 1259
3372 284
3372 732
3372 1260
3373 285
3373 733
3373 1261
3374 286
3374 734
3374 1262
3375 287
3375 735
3375 1263
3376 1376
3376 1984
3376 2112
3377 1377
3377 1985
3377 2113
3378 1378
3378 1986
3378 2114
3379 1379
3379 1987
3379 2115
3380 1380
3380 1988
3380 2116
3381 1381
3381 1989
3381 2117
3382 1382
3382 1990
3382 2118
3383 1383
3383 1991
3383 2119
3384 1384
3384 1992
3384 2120
3385 1385
3385 1993
3385 2121
3386 1386
3386 1994
3386 2122
3387 1387
3387 1995
3387 2123
3388 1388
3388 1996
3388 2124
3389 1389
3389 1997
3389 2125
3390 1390
3390 1998
3390 2126
3391 1391
3391 1999
3391 2127
3392 336
3392 496
3392 1168
3393 337
3393 497
3393 1169
3394 338
3394 498
3394 1170
3395 339
3395 499
3395 1171
3396 340
3396 500
3396 1172
3397 341
3397 501
3397 1173
3398 342
3398 502
3398 1174
3399 343
3399 503
3399 1175
3400 344
3400 504
3400 1176
3401 345
3401 505
3401 1177
3402 346
3402 506
3402 1178
3403 347
3403 507
3403 1179
3404 348
3404 508
3404 1180
3405 349
3405 509
3405 1181
3406 350
3406 510
3406 1182
3407 351
3407 511
3407 1183
3408 1440
3408 2032
3408 2304
3409 1441
3409 2033
3409 2305
3410 1442
3410 2034
3410 2306
3411 1443
3411 2035
3411 2307
3412 1444
3412 2036
3412 2308
3413 1445
3413 2037
3413 2309
3414 1446
3414 2038
3414 2310
3415 1447
3415 2039
3415 2311
3416 1448
3416 2040
3416 2312
3417 1449
3417 2041
3417 2313
3418 1450
3418 2042
3418 2314
3419 1451
3419 2043
3419 2315
3420 1452
3420 2044
3420 2316
3421 1453
3421 2045
3421 2317
3422 1454
3422 2046
3422 2318
3423 1455
3423 2047
3423 2319
3424 352
3424 656
3424 928
3425 353
3425 657
3425 929
3426 354
3426 658
3426 930
3427 355
3427 659
3427 931
3428 356
3428 660
3428 932
3429 357
3429 661
3429 933
3430 358
3430 662
3430 934
3431 359
3431 663
3431 935
3432 360
3432 664
3432 936
3433 361
3433 665
3433 937
3434 362
3434 666
3434 938
3435 363
3435 667
3435 939
3436 364
3436 668
3436 940
3437 365
3437 669
3437 941
3438 366
3438 670
3438 942
3439 367
3439 671
3439 943
3440 1600
3440 1792
3440 2464
3441 1601
3441 1793
3441 2465
3442 1602
3442 1794
3442 2466
3443 1603
3443 1795
3443 2467
3444 1604
3444 1796
3444 2468
3445 1605
3445 1797
3445 2469
3446 1606
3446 1798
3446 2470
3447 1607
3447 1799
3447 2471
3448 1608
3448 1800
3448 2472
3449 1609
3449 1801
3449 2473
3450 1610
3450 1802
3450 2474
3451 1611
3451 1803
3451 2475
3452 1612
3452 1804
3452 2476
3453 1613
3453 1805
3453 2477
3454 1614
3454 1806
3454 2478
3455 1615
3455 1807
3455 2479
3456 368
3456 816
3456 1088
3457 369
3457 817
3457 1089
3458 370
3458 818
3458 1090
3459 371
3459 819
3459 1091
3460 372
3460 820
3460 1092
3461 373
3461 821
3461 1093
3462 374
3462 822
3462 1094
3463 375
3463 823
3463 1095
3464 376
3464 824
3464 1096
3465 377
3465 825
3465 1097
3466 378
3466 826
3466 1098
3467 379
3467 827
3467 1099
3468 380
3468 828
3468 1100
3469 381
3469 829
3469 1101
3470 382
3470 830
3470 1102
3471 383
3471 831
3471 1103
3472 1360
3472 1952
3472 2224
3473 1361
3473 1953
3473 2225
3474 1362
3474 1954
3474 2226
3475 1363
3475 1955
3475 2227
3476 1364
3476 1956
3476 2228
3477 1365
3477 1957
3477 2229
3478 1366
3478 1958
3478 2230
3479 1367
3479 1959
3479 2231
3480 1368
3480 1960
3480 2232
3481 1369
3481 1961
3481 2233
3482 1370
3482 1962
3482 2234
3483 1371
3483 1963
3483 2235
3484 1372
3484 1964
3484 2236
3485 1373
3485 1965
3485 2237
3486 1374
3486 1966
3486 2238
3487 1375
3487 1967
3487 2239
3488 384
3488 576
3488 1248
3489 385
3489 577
3489 1249
3490 386
3490 578
3490 1250
3491 387
3491 579
3491 1251
3492 388
3492 580
3492 1252
3493 389
3493 581
3493 1253
3494 390
3494 582
3494 1254
3495 391
3495 583
3495 1255
3496 392
3496 584
3496 1256
3497 393
3497 585
3497 1257
3498 394
3498 586
3498 1258
3499 395
3499 587
3499 1259
3500 396
3500 588
3500 1260
3501 397
3501 589
3501 1261
3502 398
3502 590
3502 1262
3503 399
3503 591
3503 1263
3504 1520
3504 1712
3504 2384
3505 1521
3505 1713
3505 2385
3506 1522
3506 1714
3506 2386
3507 1523
3507 1715
3507 2387
3508 1524
3508 1716
3508 2388
3509 1525
3509 1717
3509 2389
3510 1526
3510 1718
3510 2390
3511 1527
3511 1719
3511 2391
3512 1528
3512 1720
3512 2392
3513 1529
3513 1721
3513 2393
3514 1530
3514 1722
3514 2394
3515 1531
3515 1723
3515 2395
3516 1532
3516 1724
3516 2396
3517 1533
3517 1725
3517 2397
3518 1534
3518 1726
3518 2398
3519 1535
3519 1727
3519 2399
3520 400
3520 736
3520 1008
3521 401
3521 737
3521 1009
3522 402
3522 738
3522 1010
3523 403
3523 739
3523 1011
3524 404
3524 740
3524 1012
3525 405
3525 741
3525 1013
3526 406
3526 742
3526 1014
3527 407
3527 743
3527 1015
3528 408
3528 744
3528 1016
3529 409
3529 745
3529 1017
3530 410
3530 746
3530 1018
3531 411
3531 747
3531 1019
3532 412
3532 748
3532 1020
3533 413
3533 749
3533 1021
3534 414
3534 750
3534 1022
3535 415
3535 751
3535 1023
3536 1680
3536 1872
3536 2144
3537 1681
3537 1873
3537 2145
3538 1682
3538 1874
3538 2146
3539 1683
3539 1875
3539 2147
3540 1684
3540 1876
3540 2148
3541 1685
3541 1877
3541 2149
3542 1686
3542 1878
3542 2150
3543 1687
3543 1879
3543 2151
3544 1688
3544 1880
3544 2152
3545 1689
3545 1881
3545 2153
3546 1690
3546 1882
3546 2154
3547 1691
3547 1883
3547 2155
3548 1692
3548 1884
3548 2156
3549 1693
3549 1885
3549 2157
3550 1694
3550 1886
3550 2158
3551 1695
3551 1887
3551 2159
3552 368
3552 512
3552 1184
3553 369
3553 513
3553 1185
3554 370
3554 514
3554 1186
3555 371
3555 515
3555 1187
3556 372
3556 516
3556 1188
3557 373
3557 517
3557 1189
3558 374
3558 518
3558 1190
3559 375
3559 519
3559 1191
3560 376
3560 520
3560 1192
3561 377
3561 521
3561 1193
3562 378
3562 522
3562 1194
3563 379
3563 523
3563 1195
3564 380
3564 524
3564 1196
3565 381
3565 525
3565 1197
3566 382
3566 526
3566 1198
3567 383
3567 527
3567 1199
3568 1376
3568 2048
3568 2320
3569 1377
3569 2049
3569 2321
3570 1378
3570 2050
3570 2322
3571 1379
3571 2051
3571 2323
3572 1380
3572 2052
3572 2324
3573 1381
3573 2053
3573 2325
3574 1382
3574 2054
3574 2326
3575 1383
3575 2055
3575 2327
3576 1384
3576 2056
3576 2328
3577 1385
3577 2057
3577 2329
3578 1386
3578 2058
3578 2330
3579 1387
3579 2059
3579 2331
3580 1388
3580 2060
3580 2332
3581 1389
3581 2061
3581 2333
3582 1390
3582 2062
3582 2334
3583 1391
3583 2063
3583 2335
3584 384
3584 672
3584 944
3585 385
3585 673
3585 945
3586 386
3586 674
3586 946
3587 387
3587 675
3587 947
3588 388
3588 676
3588 948
3589 389
3589 677
3589 949
3590 390
3590 678
3590 950
3591 391
3591 679
3591 951
3592 392
3592 680
3592 952
3593 393
3593 681
3593 953
3594 394
3594 682
3594 954
3595 395
3595 683
3595 955
3596 396
3596 684
3596 956
3597 397
3597 685
3597 957
3598 398
3598 686
3598 958
3599 399
3599 687
3599 959
3600 1536
3600 1808
3600 2480
3601 1537
3601 1809
3601 2481
3602 1538
3602 1810
3602 2482
3603 1539
3603 1811
3603 2483
3604 1540
3604 1812
3604 2484
3605 1541
3605 1813
3605 2485
3606 1542
3606 1814
3606 2486
3607 1543
3607 1815
3607 2487
3608 1544
3608 1816
3608 2488
3609 1545
3609 1817
3609 2489
3610 1546
3610 1818
3610 2490
3611 1547
3611 1819
3611 2491
3612 1548
3612 1820
3612 2492
3613 1549
3613 1821
3613 2493
3614 1550
3614 1822
3614 2494
3615 1551
3615 1823
3615 2495
3616 400
3616 832
3616 1104
3617 401
3617 833
3617 1105
3618 402
3618 834
3618 1106
3619 403
3619 835
3619 1107
3620 404
3620 836
3620 1108
3621 405
3621 837
3621 1109
3622 406
3622 838
3622 1110
3623 407
3623 839
3623 1111
3624 408
3624 840
3624 1112
3625 409
3625 841
3625 1113
3626 410
3626 842
3626 1114
3627 411
3627 843
3627 1115
3628 412
3628 844
3628 1116
3629 413
3629 845
3629 1117
3630 414
3630 846
3630 1118
3631 415
3631 847
3631 1119
3632 1296
3632 1968
3632 2240
3633 1297
3633 1969
3633 2241
3634 1298
3634 1970
3634 2242
3635 1299
3635 1971
3635 2243
3636 1300
3636 1972
3636 2244
3637 1301
3637 1973
3637 2245
3638 1302
3638 1974
3638 2246
3639 1303
3639 1975
3639 2247
3640 1304
3640 1976
3640 2248
3641 1305
3641 1977
3641 2249
3642 1306
3642 1978
3642 2250
3643 1307
3643 1979
3643 2251
3644 1308
3644 1980
3644 2252
3645 1309
3645 1981
3645 2253
3646 1310
3646 1982
3646 2254
3647 1311
3647 1983
3647 2255
3648 336
3648 592
3648 1264
3649 337
3649 593
3649 1265
3650 338
3650 594
3650 1266
3651 339
3651 595
3651 1267
3652 340
3652 596
3652 1268
3653 341
3653 597
3653 1269
3654 342
3654 598
3654 1270
3655 343
3655 599
3655 1271
3656 344
3656 600
3656 1272
3657 345
3657 601
3657 1273
3658 346
3658 602
3658 1274
3659 347
3659 603
3659 1275
3660 348
3660 604
3660 1276
3661 349
3661 605
3661 1277
3662 350
3662 606
3662 1278
3663 351
3663 607
3663 1279
3664 1456
3664 1728
3664 2400
3665 1457
3665 1729
3665 2401
3666 1458
3666 1730
3666 2402
3667 1459
3667 1731
3667 2403
3668 1460
3668 1732
3668 2404
3669 1461
3669 1733
3669 2405
3670 1462
3670 1734
3670 2406
3671 1463
3671 1735
3671 2407
3672 1464
3672 1736
3672 2408
3673 1465
3673 1737
3673 2409
3674 1466
3674 1738
3674 2410
3675 1467
3675 1739
3675 2411
3676 1468
3676 1740
3676 2412
3677 1469
3677 1741
3677 2413
3678 1470
3678 1742
3678 2414
3679 1471
3679 1743
3679 2415
3680 352
3680 752
3680 1024
3681 353
3681 753
3681 1025
3682 354
3682 754
3682 1026
3683 355
3683 755
3683 1027
3684 356
3684 756
3684 1028
3685 357
3685 757
3685 1029
3686 358
3686 758
3686 1030
3687 359
3687 759
3687 1031
3688 360
3688 760
3688 1032
3689 361
3689 761
3689 1033
3690 362
3690 762
3690 1034
3691 363
3691 763
3691 1035
3692 364
3692 764
3692 1036
3693 365
3693 765
3693 1037
3694 366
3694 766
3694 1038
3695 367
3695 767
3695 1039
3696 1616
3696 1888
3696 2160
3697 1617
3697 1889
3697 2161
3698 1618
3698 1890
3698 2162
3699 1619
3699 1891
3699 2163
3700 1620
3700 1892
3700 2164
3701 1621
3701 1893
3701 2165
3702 1622
3702 1894
3702 2166
3703 1623
3703 1895
3703 2167
3704 1624
3704 1896
3704 2168
3705 1625
3705 1897
3705 2169
3706 1626
3706 1898
3706 2170
3707 1627
3707 1899
3707 2171
3708 1628
3708 1900
3708 2172
3709 1629
3709 1901
3709 2173
3710 1630
3710 1902
3710 2174
3711 1631
3711 1903
3711 2175
3712 400
3712 528
3712 1200
3713 401
3713 529
3713 1201
3714 402
3714 530
3714 1202
3715 403
3715 531
3715 1203
3716 404
3716 532
3716 1204
3717 405
3717 533
3717 1205
3718 406
3718 534
3718 1206
3719 407
3719 535
3719 1207
3720 408
3720 536
3720 1208
3721 409
3721 537
3721 1209
3722 410
3722 538
3722 1210
3723 411
3723 539
3723 1211
3724 412
3724 540
3724 1212
3725 413
3725 541
3725 1213
3726 414
3726 542
3726 1214
3727 415
3727 543
3727 1215
3728 1392
3728 2064
3728 2256
3729 1393
3729 2065
3729 2257
3730 1394
3730 2066
3730 2258
3731 1395
3731 2067
3731 2259
3732 1396
3732 2068
3732 2260
3733 1397
3733 2069
3733 2261
3734 1398
3734 2070
3734 2262
3735 1399
3735 2071
3735 2263
3736 1400
3736 2072
3736 2264
3737 1401
3737 2073
3737 2265
3738 1402
3738 2074
3738 2266
3739 1403
3739 2075
3739 2267
3740 1404
3740 2076
3740 2268
3741 1405
3741 2077
3741 2269
3742 1406
3742 2078
3742 2270
3743 1407
3743 2079
3743 2271
3744 336
3744 688
3744 960
3745 337
3745 689
3745 961
3746 338
3746 690
3746 962
3747 339
3747 691
3747 963
3748 340
3748 692
3748 964
3749 341
3749 693
3749 965
3750 342
3750 694
3750 966
3751 343
3751 695
3751 967
3752 344
3752 696
3752 968
3753 345
3753 697
3753 969
3754 346
3754 698
3754 970
3755 347
3755 699
3755 971
3756 348
3756 700
3756 972
3757 349
3757 701
3757 973
3758 350
3758 702
3758 974
3759 351
3759 703
3759 975
3760 1552
3760 1824
3760 2416
3761 1553
3761 1825
3761 2417
3762 1554
3762 1826
3762 2418
3763 1555
3763 1827
3763 2419
3764 1556
3764 1828
3764 2420
3765 1557
3765 1829
3765 2421
3766 1558
3766 1830
3766 2422
3767 1559
3767 1831
3767 2423
3768 1560
3768 1832
3768 2424
3769 1561
3769 1833
3769 2425
3770 1562
3770 1834
3770 2426
3771 1563
3771 1835
3771 2427
3772 1564
3772 1836
3772 2428
3773 1565
3773 1837
3773 2429
3774 1566
3774 1838
3774 2430
3775 1567
3775 1839
3775 2431
3776 352
3776 848
3776 1120
3777 353
3777 849
3777 1121
3778 354
3778 850
3778 1122
3779 355
3779 851
3779 1123
3780 356
3780 852
3780 1124
3781 357
3781 853
3781 1125
3782 358
3782 854
3782 1126
3783 359
3783 855
3783 1127
3784 360
3784 856
3784 1128
3785 361
3785 857
3785 1129
3786 362
3786 858
3786 1130
3787 363
3787 859
3787 1131
3788 364
3788 860
3788 1132
3789 365
3789 861
3789 1133
3790 366
3790 862
3790 1134
3791 367
3791 863
3791 1135
3792 1312
3792 1984
3792 2176
3793 1313
3793 1985
3793 2177
3794 1314
3794 1986
3794 2178
3795 1315
3795 1987
3795 2179
3796 1316
3796 1988
3796 2180
3797 1317
3797 1989
3797 2181
3798 1318
3798 1990
3798 2182
3799 1319
3799 1991
3799 2183
3800 1320
3800 1992
3800 2184
3801 1321
3801 1993
3801 2185
3802 1322
3802 1994
3802 2186
3803 1323
3803 1995
3803 2187
3804 1324
3804 1996
3804 2188
3805 1325
3805 1997
3805 2189
3806 1326
3806 1998
3806 2190
3807 1327
3807 1999
3807 2191
3808 368
3808 608
3808 1280
3809 369
3809 609
3809 1281
3810 370
3810 610
3810 1282
3811 371
3811 611
3811 1283
3812 372
3812 612
3812 1284
3813 373
3813 613
3813 1285
3814 374
3814 614
3814 1286
3815 375
3815 615
3815 1287
3816 376
3816 616
3816 1288
3817 377
3817 617
3817 1289
3818 378
3818 618
3818 1290
3819 379
3819 619
3819 1291
3820 380
3820 620
3820 1292
3821 381
3821 621
3821 1293
3822 382
3822 622
3822 1294
3823 383
3823 623
3823 1295
3824 1472
3824 1744
3824 2336
3825 1473
3825 1745
3825 2337
3826 1474
3826 1746
3826 2338
3827 1475
3827 1747
3827 2339
3828 1476
3828 1748
3828 2340
3829 1477
3829 1749
3829 2341
3830 1478
3830 1750
3830 2342
3831 1479
3831 1751
3831 2343
3832 1480
3832 1752
3832 2344
3833 1481
3833 1753
3833 2345
3834 1482
3834 1754
3834 2346
3835 1483
3835 1755
3835 2347
3836 1484
3836 1756
3836 2348
3837 1485
3837 1757
3837 2349
3838 1486
3838 1758
3838 2350
3839 1487
3839 1759
3839 2351
3840 384
3840 768
3840 1040
3841 385
3841 769
3841 1041
3842 386
3842 770
3842 1042
3843 387
3843 771
3843 1043
3844 388
3844 772
3844 1044
3845 389
3845 773
3845 1045
3846 390
3846 774
3846 1046
3847 391
3847 775
3847 1047
3848 392
3848 776
3848 1048
3849 393
3849 777
3849 1049
3850 394
3850 778
3850 1050
3851 395
3851 779
3851 1051
3852 396
3852 780
3852 1052
3853 397
3853 781
3853 1053
3854 398
3854 782
3854 1054
3855 399
3855 783
3855 1055
3856 1632
3856 1904
3856 2096
3857 1633
3857 1905
3857 2097
3858 1634
3858 1906
3858 2098
3859 1635
3859 1907
3859 2099
3860 1636
3860 1908
3860 2100
3861 1637
3861 1909
3861 2101
3862 1638
3862 1910
3862 2102
3863 1639
3863 1911
3863 2103
3864 1640
3864 1912
3864 2104
3865 1641
3865 1913
3865 2105
3866 1642
3866 1914
3866 2106
3867 1643
3867 1915
3867 2107
3868 1644
3868 1916
3868 2108
3869 1645
3869 1917
3869 2109
3870 1646
3870 1918
3870 2110
3871 1647
3871 1919
3871 2111
3872 352
3872 544
3872 1136
3873 353
3873 545
3873 1137
3874 354
3874 546
3874 1138
3875 355
3875 547
3875 1139
3876 356
3876 548
3876 1140
3877 357
3877 549
3877 1141
3878 358
3878 550
3878 1142
3879 359
3879 551
3879 1143
3880 360
3880 552
3880 1144
3881 361
3881 553
3881 1145
3882 362
3882 554
3882 1146
3883 363
3883 555
3883 1147
3884 364
3884 556
3884 1148
3885 365
3885 557
3885 1149
3886 366
3886 558
3886 1150
3887 367
3887 559
3887 1151
3888 1408
3888 2080
3888 2272
3889 1409
3889 2081
3889 2273
3890 1410
3890 2082
3890 2274
3891 1411
3891 2083
3891 2275
3892 1412
3892 2084
3892 2276
3893 1413
3893 2085
3893 2277
3894 1414
3894 2086
3894 2278
3895 1415
3895 2087
3895 2279
3896 1416
3896 2088
3896 2280
3897 1417
3897 2089
3897 2281
3898 1418
3898 2090
3898 2282
3899 1419
3899 2091
3899 2283
3900 1420
3900 2092
3900 2284
3901 1421
3901 2093
3901 2285
3902 1422
3902 2094
3902 2286
3903 1423
3903 2095
3903 2287
3904 368
3904 704
3904 896
3905 369
3905 705
3905 897
3906 370
3906 706
3906 898
3907 371
3907 707
3907 899
3908 372
3908 708
3908 900
3909 373
3909 709
3909 901
3910 374
3910 710
3910 902
3911 375
3911 711
3911 903
3912 376
3912 712
3912 904
3913 377
3913 713
3913 905
3914 378
3914 714
3914 906
3915 379
3915 715
3915 907
3916 380
3916 716
3916 908
3917 381
3917 717
3917 909
3918 382
3918 718
3918 910
3919 383
3919 719
3919 911
3920 1568
3920 1840
3920 2432
3921 1569
3921 1841
3921 2433
3922 1570
3922 1842
3922 2434
3923 1571
3923 1843
3923 2435
3924 1572
3924 1844
3924 2436
3925 1573
3925 1845
3925 2437
3926 1574
3926 1846
3926 2438
3927 1575
3927 1847
3927 2439
3928 1576
3928 1848
3928 2440
3929 1577
3929 1849
3929 2441
3930 1578
3930 1850
3930 2442
3931 1579
3931 1851
3931 2443
3932 1580
3932 1852
3932 2444
3933 1581
3933 1853
3933 2445
3934 1582
3934 1854
3934 2446
3935 1583
3935 1855
3935 2447
3936 384
3936 864
3936 1056
3937 385
3937 865
3937 1057
3938 386
3938 866
3938 1058
3939 387
3939 867
3939 1059
3940 388
3940 868
3940 1060
3941 389
3941 869
3941 1061
3942 390
3942 870
3942 1062
3943 391
3943 871
3943 1063
3944 392
3944 872
3944 1064
3945 393
3945 873
3945 1065
3946 394
3946 874
3946 1066
3947 395
3947 875
3947 1067
3948 396
3948 876
3948 1068
3949 397
3949 877
3949 1069
3950 398
3950 878
3950 1070
3951 399
3951 879
3951 1071
3952 1328
3952 2000
3952 2192
3953 1329
3953 2001
3953 2193
3954 1330
3954 2002
3954 2194
3955 1331
3955 2003
3955 2195
3956 1332
3956 2004
3956 2196
3957 1333
3957 2005
3957 2197
3958 1334
3958 2006
3958 2198
3959 1335
3959 2007
3959 2199
3960 1336
3960 2008
3960 2200
3961 1337
3961 2009
3961 2201
3962 1338
3962 2010
3962 2202
3963 1339
3963 2011
3963 2203
3964 1340
3964 2012
3964 2204
3965 1341
3965 2013
3965 2205
3966 1342
3966 2014
3966 2206
3967 1343
3967 2015
3967 2207
3968 400
3968 624
3968 1216
3969 401
3969 625
3969 1217
3970 402
3970 626
3970 1218
3971 403
3971 627
3971 1219
3972 404
3972 628
3972 1220
3973 405
3973 629
3973 1221
3974 406
3974 630
3974 1222
3975 407
3975 631
3975 1223
3976 408
3976 632
3976 1224
3977 409
3977 633
3977 1225
3978 410
3978 634
3978 1226
3979 411
3979 635
3979 1227
3980 412
3980 636
3980 1228
3981 413
3981 637
3981 1229
3982 414
3982 638
3982 1230
3983 415
3983 639
3983 1231
3984 1488
3984 1760
3984 2352
3985 1489
3985 1761
3985 2353
3986 1490
3986 1762
3986 2354
3987 1491
3987 1763
3987 2355
3988 1492
3988 1764
3988 2356
3989 1493
3989 1765
3989 2357
3990 1494
3990 1766
3990 2358
3991 1495
3991 1767
3991 2359
3992 1496
3992 1768
3992 2360
3993 1497
3993 1769
3993 2361
3994 1498
3994 1770
3994 2362
3995 1499
3995 1771
3995 2363
3996 1500
3996 1772
3996 2364
3997 1501
3997 1773
3997 2365
3998 1502
3998 1774
3998 2366
3999 1503
3999 1775
3999 2367
4000 336
4000 784
4000 976
4001 337
4001 785
4001 977
4002 338
4002 786
4002 978
4003 339
4003 787
4003 979
4004 340
4004 788
4004 980
4005 341
4005 789
4005 981
4006 342
4006 790
4006 982
4007 343
4007 791
4007 983
4008 344
4008 792
4008 984
4009 345
4009 793
4009 985
4010 346
4010 794
4010 986
4011 347
4011 795
4011 987
4012 348
4012 796
4012 988
4013 349
4013 797
4013 989
4014 350
4014 798
4014 990
4015 351
4015 799
4015 991
4016 1648
4016 1920
4016 2112
4017 1649
4017 1921
4017 2113
4018 1650
4018 1922
4018 2114
4019 1651
4019 1923
4019 2115
4020 1652
4020 1924
4020 2116
4021 1653
4021 1925
4021 2117
4022 1654
4022 1926
4022 2118
4023 1655
4023 1927
4023 2119
4024 1656
4024 1928
4024 2120
4025 1657
4025 1929
4025 2121
4026 1658
4026 1930
4026 2122
4027 1659
4027 1931
4027 2123
4028 1660
4028 1932
4028 2124
4029 1661
4029 1933
4029 2125
4030 1662
4030 1934
4030 2126
4031 1663
4031 1935
4031 2127
4032 384
4032 560
4032 1152
4033 385
4033 561
4033 1153
4034 386
4034 562
4034 1154
4035 387
4035 563
4035 1155
4036 388
4036 564
4036 1156
4037 389
4037 565
4037 1157
4038 390
4038 566
4038 1158
4039 391
4039 567
4039 1159
4040 392
4040 568
4040 1160
4041 393
4041 569
4041 1161
4042 394
4042 570
4042 1162
4043 395
4043 571
4043 1163
4044 396
4044 572
4044 1164
4045 397
4045 573
4045 1165
4046 398
4046 574
4046 1166
4047 399
4047 575
4047 1167
4048 1424
4048 2016
4048 2288
4049 1425
4049 2017
4049 2289
4050 1426
4050 2018
4050 2290
4051 1427
4051 2019
4051 2291
4052 1428
4052 2020
4052 2292
4053 1429
4053 2021
4053 2293
4054 1430
4054 2022
4054 2294
4055 1431
4055 2023
4055 2295
4056 1432
4056 2024
4056 2296
4057 1433
4057 2025
4057 2297
4058 1434
4058 2026
4058 2298
4059 1435
4059 2027
4059 2299
4060 1436
4060 2028
4060 2300
4061 1437
4061 2029
4061 2301
4062 1438
4062 2030
4062 2302
4063 1439
4063 2031
4063 2303
4064 400
4064 720
4064 912
4065 401
4065 721
4065 913
4066 402
4066 722
4066 914
4067 403
4067 723
4067 915
4068 404
4068 724
4068 916
4069 405
4069 725
4069 917
4070 406
4070 726
4070 918
4071 407
4071 727
4071 919
4072 408
4072 728
4072 920
4073 409
4073 729
4073 921
4074 410
4074 730
4074 922
4075 411
4075 731
4075 923
4076 412
4076 732
4076 924
4077 413
4077 733
4077 925
4078 414
4078 734
4078 926
4079 415
4079 735
4079 927
4080 1584
4080 1776
4080 2448
4081 1585
4081 1777
4081 2449
4082 1586
4082 1778
4082 2450
4083 1587
4083 1779
4083 2451
4084 1588
4084 1780
4084 2452
4085 1589
4085 1781
4085 2453
4086 1590
4086 1782
4086 2454
4087 1591
4087 1783
4087 2455
4088 1592
4088 1784
4088 2456
4089 1593
4089 1785
4089 2457
4090 1594
4090 1786
4090 2458
4091 1595
4091 1787
4091 2459
4092 1596
4092 1788
4092 2460
4093 1597
4093 1789
4093 2461
4094 1598
4094 1790
4094 2462
4095 1599
4095 1791
4095 2463
4096 336
4096 880
4096 1072
4097 337
4097 881
4097 1073
4098 338
4098 882
4098 1074
4099 339
4099 883
4099 1075
4100 340
4100 884
4100 1076
4101 341
4101 885
4101 1077
4102 342
4102 886
4102 1078
4103 343
4103 887
4103 1079
4104 344
4104 888
4104 1080
4105 345
4105 889
4105 1081
4106 346
4106 890
4106 1082
4107 347
4107 891
4107 1083
4108 348
4108 892
4108 1084
4109 349
4109 893
4109 1085
4110 350
4110 894
4110 1086
4111 351
4111 895
4111 1087
4112 1344
4112 1936
4112 2208
4113 1345
4113 1937
4113 2209
4114 1346
4114 1938
4114 2210
4115 1347
4115 1939
4115 2211
4116 1348
4116 1940
4116 2212
4117 1349
4117 1941
4117 2213
4118 1350
4118 1942
4118 2214
4119 1351
4119 1943
4119 2215
4120 1352
4120 1944
4120 2216
4121 1353
4121 1945
4121 2217
4122 1354
4122 1946
4122 2218
4123 1355
4123 1947
4123 2219
4124 1356
4124 1948
4124 2220
4125 1357
4125 1949
4125 2221
4126 1358
4126 1950
4126 2222
4127 1359
4127 1951
4127 2223
4128 352
4128 640
4128 1232
4129 353
4129 641
4129 1233
4130 354
4130 642
4130 1234
4131 355
4131 643
4131 1235
4132 356
4132 644
4132 1236
4133 357
4133 645
4133 1237
4134 358
4134 646
4134 1238
4135 359
4135 647
4135 1239
4136 360
4136 648
4136 1240
4137 361
4137 649
4137 1241
4138 362
4138 650
4138 1242
4139 363
4139 651
4139 1243
4140 364
4140 652
4140 1244
4141 365
4141 653
4141 1245
4142 366
4142 654
4142 1246
4143 367
4143 655
4143 1247
4144 1504
4144 1696
4144 2368
4145 1505
4145 1697
4145 2369
4146 1506
4146 1698
4146 2370
4147 1507
4147 1699
4147 2371
4148 1508
4148 1700
4148 2372
4149 1509
4149 1701
4149 2373
4150 1510
4150 1702
4150 2374
4151 1511
4151 1703
4151 2375
4152 1512
4152 1704
4152 2376
4153 1513
4153 1705
4153 2377
4154 1514
4154 1706
4154 2378
4155 1515
4155 1707
4155 2379
4156 1516
4156 1708
4156 2380
4157 1517
4157 1709
4157 2381
4158 1518
4158 1710
4158 2382
4159 1519
4159 1711
4159 2383
4160 368
4160 800
4160 992
4161 369
4161 801
4161 993
4162 370
4162 802
4162 994
4163 371
4163 803
4163 995
4164 372
4164 804
4164 996
4165 373
4165 805
4165 997
4166 374
4166 806
4166 998
4167 375
4167 807
4167 999
4168 376
4168 808
4168 1000
4169 377
4169 809
4169 1001
4170 378
4170 810
4170 1002
4171 379
4171 811
4171 1003
4172 380
4172 812
4172 1004
4173 381
4173 813
4173 1005
4174 382
4174 814
4174 1006
4175 383
4175 815
4175 1007
4176 1664
4176 1856
4176 2128
4177 1665
4177 1857
4177 2129
4178 1666
4178 1858
4178 2130
4179 1667
4179 1859
4179 2131
4180 1668
4180 1860
4180 2132
4181 1669
4181 1861
4181 2133
4182 1670
4182 1862
4182 2134
4183 1671
4183 1863
4183 2135
4184 1672
4184 1864
4184 2136
4185 1673
4185 1865
4185 2137
4186 1674
4186 1866
4186 2138
4187 1675
4187 1867
4187 2139
4188 1676
4188 1868
4188 2140
4189 1677
4189 1869
4189 2141
4190 1678
4190 1870
4190 2142
4191 1679
4191 1871
4191 2143
4192 176
4192 496
4192 992
4193 177
4193 497
4193 993
4194 178
4194 498
4194 994
4195 179
4195 499
4195 995
4196 180
4196 500
4196 996
4197 181
4197 501
4197 997
4198 182
4198 502
4198 998
4199 183
4199 503
4199 999
4200 184
4200 504
4200 1000
4201 185
4201 505
4201 1001
4202 186
4202 506
4202 1002
4203 187
4203 507
4203 1003
4204 188
4204 508
4204 1004
4205 189
4205 509
4205 1005
4206 190
4206 510
4206 1006
4207 191
4207 511
4207 1007
4208 1488
4208 1984
4208 2480
4209 1489
4209 1985
4209 2481
4210 1490
4210 1986
4210 2482
4211 1491
4211 1987
4211 2483
4212 1492
4212 1988
4212 2484
4213 1493
4213 1989
4213 2485
4214 1494
4214 1990
4214 2486
4215 1495
4215 1991
4215 2487
4216 1496
4216 1992
4216 2488
4217 1497
4217 1993
4217 2489
4218 1498
4218 1994
4218 2490
4219 1499
4219 1995
4219 2491
4220 1500
4220 1996
4220 2492
4221 1501
4221 1997
4221 2493
4222 1502
4222 1998
4222 2494
4223 1503
4223 1999
4223 2495
4224 192
4224 816
4224 912
4225 193
4225 817
4225 913
4226 194
4226 818
4226 914
4227 195
4227 819
4227 915
4228 196
4228 820
4228 916
4229 197
4229 821
4229 917
4230 198
4230 822
4230 918
4231 199
4231 823
4231 919
4232 200
4232 824
4232 920
4233 201
4233 825
4233 921
4234 202
4234 826
4234 922
4235 203
4235 827
4235 923
4236 204
4236 828
4236 924
4237 205
4237 829
4237 925
4238 206
4238 830
4238 926
4239 207
4239 831
4239 927
4240 1408
4240 1904
4240 2400
4241 1409
4241 1905
4241 2401
4242 1410
4242 1906
4242 2402
4243 1411
4243 1907
4243 2403
4244 1412
4244 1908
4244 2404
4245 1413
4245 1909
4245 2405
4246 1414
4246 1910
4246 2406
4247 1415
4247 1911
4247 2407
4248 1416
4248 1912
4248 2408
4249 1417
4249 1913
4249 2409
4250 1418
4250 1914
4250 2410
4251 1419
4251 1915
4251 2411
4252 1420
4252 1916
4252 2412
4253 1421
4253 1917
4253 2413
4254 1422
4254 1918
4254 2414
4255 1423
4255 1919
4255 2415
4256 208
4256 736
4256 1232
4257 209
4257 737
4257 1233
4258 210
4258 738
4258 1234
4259 211
4259 739
4259 1235
4260 212
4260 740
4260 1236
4261 213
4261 741
4261 1237
4262 214
4262 742
4262 1238
4263 215
4263 743
4263 1239
4264 216
4264 744
4264 1240
4265 217
4265 745
4265 1241
4266 218
4266 746
4266 1242
4267 219
4267 747
4267 1243
4268 220
4268 748
4268 1244
4269 221
4269 749
4269 1245
4270 222
4270 750
4270 1246
4271 223
4271 751
4271 1247
4272 1328
4272 1824
4272 2320
4273 1329
4273 1825
4273 2321
4274 1330
4274 1826
4274 2322
4275 1331
4275 1827
4275 2323
4276 1332
4276 1828
4276 2324
4277 1333
4277 1829
4277 2325
4278 1334
4278 1830
4278 2326
4279 1335
4279 1831
4279 2327
4280 1336
4280 1832
4280 2328
4281 1337
4281 1833
4281 2329
4282 1338
4282 1834
4282 2330
4283 1339
4283 1835
4283 2331
4284 1340
4284 1836
4284 2332
4285 1341
4285 1837
4285 2333
4286 1342
4286 1838
4286 2334
4287 1343
4287 1839
4287 2335
4288 224
4288 656
4288 1152
4289 225
4289 657
4289 1153
4290 226
4290 658
4290 1154
4291 227
4291 659
4291 1155
4292 228
4292 660
4292 1156
4293 229
4293 661
4293 1157
4294 230
4294 662
4294 1158
4295 231
4295 663
4295 1159
4296 232
4296 664
4296 1160
4297 233
4297 665
4297 1161
4298 234
4298 666
4298 1162
4299 235
4299 667
4299 1163
4300 236
4300 668
4300 1164
4301 237
4301 669
4301 1165
4302 238
4302 670
4302 1166
4303 239
4303 671
4303 1167
4304 1648
4304 1744
4304 2240
4305 1649
4305 1745
4305 2241
4306 1650
4306 1746
4306 2242
4307 1651
4307 1747
4307 2243
4308 1652
4308 1748
4308 2244
4309 1653
4309 1749
4309 2245
4310 1654
4310 1750
4310 2246
4311 1655
4311 1751
4311 2247
4312 1656
4312 1752
4312 2248
4313 1657
4313 1753
4313 2249
4314 1658
4314 1754
4314 2250
4315 1659
4315 1755
4315 2251
4316 1660
4316 1756
4316 2252
4317 1661
4317 1757
4317 2253
4318 1662
4318 1758
4318 2254
4319 1663
4319 1759
4319 2255
4320 240
4320 576
4320 1072
4321 241
4321 577
4321 1073
4322 242
4322 578
4322 1074
4323 243
4323 579
4323 1075
4324 244
4324 580
4324 1076
4325 245
4325 581
4325 1077
4326 246
4326 582
4326 1078
4327 247
4327 583
4327 1079
4328 248
4328 584
4328 1080
4329 249
4329 585
4329 1081
4330 250
4330 586
4330 1082
4331 251
4331 587
4331 1083
4332 252
4332 588
4332 1084
4333 253
4333 589
4333 1085
4334 254
4334 590
4334 1086
4335 255
4335 591
4335 1087
4336 1568
4336 2064
4336 2160
4337 1569
4337 2065
4337 2161
4338 1570
4338 2066
4338 2162
4339 1571
4339 2067
4339 2163
4340 1572
4340 2068
4340 2164
4341 1573
4341 2069
4341 2165
4342 1574
4342 2070
4342 2166
4343 1575
4343 2071
4343 2167
4344 1576
4344 2072
4344 2168
4345 1577
4345 2073
4345 2169
4346 1578
4346 2074
4346 2170
4347 1579
4347 2075
4347 2171
4348 1580
4348 2076
4348 2172
4349 1581
4349 2077
4349 2173
4350 1582
4350 2078
4350 2174
4351 1583
4351 2079
4351 2175
4352 240
4352 512
4352 1008
4353 241
4353 513
4353 1009
4354 242
4354 514
4354 1010
4355 243
4355 515
4355 1011
4356 244
4356 516
4356 1012
4357 245
4357 517
4357 1013
4358 246
4358 518
4358 1014
4359 247
4359 519
4359 1015
4360 248
4360 520
4360 1016
4361 249
4361 521
4361 1017
4362 250
4362 522
4362 1018
4363 251
4363 523
4363 1019
4364 252
4364 524
4364 1020
4365 253
4365 525
4365 1021
4366 254
4366 526
4366 1022
4367 255
4367 527
4367 1023
4368 1504
4368 2000
4368 2416
4369 1505
4369 2001
4369 2417
4370 1506
4370 2002
4370 2418
4371 1507
4371 2003
4371 2419
4372 1508
4372 2004
4372 2420
4373 1509
4373 2005
4373 2421
4374 1510
4374 2006
4374 2422
4375 1511
4375 2007
4375 2423
4376 1512
4376 2008
4376 2424
4377 1513
4377 2009
4377 2425
4378 1514
4378 2010
4378 2426
4379 1515
4379 2011
4379 2427
4380 1516
4380 2012
4380 2428
4381 1517
4381 2013
4381 2429
4382 1518
4382 2014
4382 2430
4383 1519
4383 2015
4383 2431
4384 176
4384 832
4384 928
4385 177
4385 833
4385 929
4386 178
4386 834
4386 930
4387 179
4387 835
4387 931
4388 180
4388 836
4388 932
4389 181
4389 837
4389 933
4390 182
4390 838
4390 934
4391 183
4391 839
4391 935
4392 184
4392 840
4392 936
4393 185
4393 841
4393 937
4394 186
4394 842
4394 938
4395 187
4395 843
4395 939
4396 188
4396 844
4396 940
4397 189
4397 845
4397 941
4398 190
4398 846
4398 942
4399 191
4399 847
4399 943
4400 1424
4400 1920
4400 2336
4401 1425
4401 1921
4401 2337
4402 1426
4402 1922
4402 2338
4403 1427
4403 1923
4403 2339
4404 1428
4404 1924
4404 2340
4405 1429
4405 1925
4405 2341
4406 1430
4406 1926
4406 2342
4407 1431
4407 1927
4407 2343
4408 1432
4408 1928
4408 2344
4409 1433
4409 1929
4409 2345
4410 1434
4410 1930
4410 2346
4411 1435
4411 1931
4411 2347
4412 1436
4412 1932
4412 2348
4413 1437
4413 1933
4413 2349
4414 1438
4414 1934
4414 2350
4415 1439
4415 1935
4415 2351
4416 192
4416 752
4416 1248
4417 193
4417 753
4417 1249
4418 194
4418 754
4418 1250
4419 195
4419 755
4419 1251
4420 196
4420 756
4420 1252
4421 197
4421 757
4421 1253
4422 198
4422 758
4422 1254
4423 199
4423 759
4423 1255
4424 200
4424 760
4424 1256
4425 201
4425 761
4425 1257
4426 202
4426 762
4426 1258
4427 203
4427 763
4427 1259
4428 204
4428 764
4428 1260
4429 205
4429 765
4429 1261
4430 206
4430 766
4430 1262
4431 207
4431 767
4431 1263
4432 1344
4432 1840
4432 2256
4433 1345
4433 1841
4433 2257
4434 1346
4434 1842
4434 2258
4435 1347
4435 1843
4435 2259
4436 1348
4436 1844
4436 2260
4437 1349
4437 1845
4437 2261
4438 1350
4438 1846
4438 2262
4439 1351
4439 1847
4439 2263
4440 1352
4440 1848
4440 2264
4441 1353
4441 1849
4441 2265
4442 1354
4442 1850
4442 2266
4443 1355
4443 1851
4443 2267
4444 1356
4444 1852
4444 2268
4445 1357
4445 1853
4445 2269
4446 1358
4446 1854
4446 2270
4447 1359
4447 1855
4447 2271
4448 208
4448 672
4448 1168
4449 209
4449 673
4449 1169
4450 210
4450 674
4450 1170
4451 211
4451 675
4451 1171
4452 212
4452 676
4452 1172
4453 213
4453 677
4453 1173
4454 214
4454 678
4454 1174
4455 215
4455 679
4455 1175
4456 216
4456 680
4456 1176
4457 217
4457 681
4457 1177
4458 218
4458 682
4458 1178
4459 219
4459 683
4459 1179
4460 220
4460 684
4460 1180
4461 221
4461 685
4461 1181
4462 222
4462 686
4462 1182
4463 223
4463 687
4463 1183
4464 1664
4464 1760
4464 2176
4465 1665
4465 1761
4465 2177
4466 1666
4466 1762
4466 2178
4467 1667
4467 1763
4467 2179
4468 1668
4468 1764
4468 2180
4469 1669
4469 1765
4469 2181
4470 1670
4470 1766
4470 2182
4471 1671
4471 1767
4471 2183
4472 1672
4472 1768
4472 2184
4473 1673
4473 1769
4473 2185
4474 1674
4474 1770
4474 2186
4475 1675
4475 1771
4475 2187
4476 1676
4476 1772
4476 2188
4477 1677
4477 1773
4477 2189
4478 1678
4478 1774
4478 2190
4479 1679
4479 1775
4479 2191
4480 224
4480 592
4480 1088
4481 225
4481 593
4481 1089
4482 226
4482 594
4482 1090
4483 227
4483 595
4483 1091
4484 228
4484 596
4484 1092
4485 229
4485 597
4485 1093
4486 230
4486 598
4486 1094
4487 231
4487 599
4487 1095
4488 232
4488 600
4488 1096
4489 233
4489 601
4489 1097
4490 234
4490 602
4490 1098
4491 235
4491 603
4491 1099
4492 236
4492 604
4492 1100
4493 237
4493 605
4493 1101
4494 238
4494 606
4494 1102
4495 239
4495 607
4495 1103
4496 1584
4496 2080
4496 2096
4497 1585
4497 2081
4497 2097
4498 1586
4498 2082
4498 2098
4499 1587
4499 2083
4499 2099
4500 1588
4500 2084
4500 2100
4501 1589
4501 2085
4501 2101
4502 1590
4502 2086
4502 2102
4503 1591
4503 2087
4503 2103
4504 1592
4504 2088
4504 2104
4505 1593
4505 2089
4505 2105
4506 1594
4506 2090
4506 2106
4507 1595
4507 2091
4507 2107
4508 1596
4508 2092
4508 2108
4509 1597
4509 2093
4509 2109
4510 1598
4510 2094
4510 2110
4511 1599
4511 2095
4511 2111
4512 224
4512 528
4512 1024
4513 225
4513 529
4513 1025
4514 226
4514 530
4514 1026
4515 227
4515 531
4515 1027
4516 228
4516 532
4516 1028
4517 229
4517 533
4517 1029
4518 230
4518 534
4518 1030
4519 231
4519 535
4519 1031
4520 232
4520 536
4520 1032
4521 233
4521 537
4521 1033
4522 234
4522 538
4522 1034
4523 235
4523 539
4523 1035
4524 236
4524 540
4524 1036
4525 237
4525 541
4525 1037
4526 238
4526 542
4526 1038
4527 239
4527 543
4527 1039
4528 1520
4528 1936
4528 2432
4529 1521
4529 1937
4529 2433
4530 1522
4530 1938
4530 2434
4531 1523
4531 1939
4531 2435
4532 1524
4532 1940
4532 2436
4533 1525
4533 1941
4533 2437
4534 1526
4534 1942
4534 2438
4535 1527
4535 1943
4535 2439
4536 1528
4536 1944
4536 2440
4537 1529
4537 1945
4537 2441
4538 1530
4538 1946
4538 2442
4539 1531
4539 1947
4539 2443
4540 1532
4540 1948
4540 2444
4541 1533
4541 1949
4541 2445
4542 1534
4542 1950
4542 2446
4543 1535
4543 1951
4543 2447
4544 240
4544 848
4544 944
4545 241
4545 849
4545 945
4546 242
4546 850
4546 946
4547 243
4547 851
4547 947
4548 244
4548 852
4548 948
4549 245
4549 853
4549 949
4550 246
4550 854
4550 950
4551 247
4551 855
4551 951
4552 248
4552 856
4552 952
4553 249
4553 857
4553 953
4554 250
4554 858
4554 954
4555 251
4555 859
4555 955
4556 252
4556 860
4556 956
4557 253
4557 861
4557 957
4558 254
4558 862
4558 958
4559 255
4559 863
4559 959
4560 1440
4560 1856
4560 2352
4561 1441
4561 1857
4561 2353
4562 1442
4562 1858
4562 2354
4563 1443
4563 1859
4563 2355
4564 1444
4564 1860
4564 2356
4565 1445
4565 1861
4565 2357
4566 1446
4566 1862
4566 2358
4567 1447
4567 1863
4567 2359
4568 1448
4568 1864
4568 2360
4569 1449
4569 1865
4569 2361
4570 1450
4570 1866
4570 2362
4571 1451
4571 1867
4571 2363
4572 1452
4572 1868
4572 2364
4573 1453
4573 1869
4573 2365
4574 1454
4574 1870
4574 2366
4575 1455
4575 1871
4575 2367
4576 176
4576 768
4576 1264
4577 177
4577 769
4577 1265
4578 178
4578 770
4578 1266
4579 179
4579 771
4579 1267
4580 180
4580 772
4580 1268
4581 181
4581 773
4581 1269
4582 182
4582 774
4582 1270
4583 183
4583 775
4583 1271
4584 184
4584 776
4584 1272
4585 185
4585 777
4585 1273
4586 186
4586 778
4586 1274
4587 187
4587 779
4587 1275
4588 188
4588 780
4588 1276
4589 189
4589 781
4589 1277
4590 190
4590 782
4590 1278
4591 191
4591 783
4591 1279
4592 1360
4592 1776
4592 2272
4593 1361
4593 1777
4593 2273
4594 1362
4594 1778
4594 2274
4595 1363
4595 1779
4595 2275
4596 1364
4596 1780
4596 2276
4597 1365
4597 1781
4597 2277
4598 1366
4598 1782
4598 2278
4599 1367
4599 1783
4599 2279
4600 1368
4600 1784
4600 2280
4601 1369
4601 1785
4601 2281
4602 1370
4602 1786
4602 2282
4603 1371
4603 1787
4603 2283
4604 1372
4604 1788
4604 2284
4605 1373
4605 1789
4605 2285
4606 1374
4606 1790
4606 2286
4607 1375
4607 1791
4607 2287
4608 192
4608 688
4608 1184
4609 193
4609 689
4609 1185
4610 194
4610 690
4610 1186
4611 195
4611 691
4611 1187
4612 196
4612 692
4612 1188
4613 197
4613 693
4613 1189
4614 198
4614 694
4614 1190
4615 199
4615 695
4615 1191
4616 200
4616 696
4616 1192
4617 201
4617 697
4617 1193
4618 202
4618 698
4618 1194
4619 203
4619 699
4619 1195
4620 204
4620 700
4620 1196
4621 205
4621 701
4621 1197
4622 206
4622 702
4622 1198
4623 207
4623 703
4623 1199
4624 1680
4624 1696
4624 2192
4625 1681
4625 1697
4625 2193
4626 1682
4626 1698
4626 2194
4627 1683
4627 1699
4627 2195
4628 1684
4628 1700
4628 2196
4629 1685
4629 1701
4629 2197
4630 1686
4630 1702
4630 2198
4631 1687
4631 1703
4631 2199
4632 1688
4632 1704
4632 2200
4633 1689
4633 1705
4633 2201
4634 1690
4634 1706
4634 2202
4635 1691
4635 1707
4635 2203
4636 1692
4636 1708
4636 2204
4637 1693
4637 1709
4637 2205
4638 1694
4638 1710
4638 2206
4639 1695
4639 1711
4639 2207
4640 208
4640 608
4640 1104
4641 209
4641 609
4641 1105
4642 210
4642 610
4642 1106
4643 211
4643 611
4643 1107
4644 212
4644 612
4644 1108
4645 213
4645 613
4645 1109
4646 214
4646 614
4646 1110
4647 215
4647 615
4647 1111
4648 216
4648 616
4648 1112
4649 217
4649 617
4649 1113
4650 218
4650 618
4650 1114
4651 219
4651 619
4651 1115
4652 220
4652 620
4652 1116
4653 221
4653 621
4653 1117
4654 222
4654 622
4654 1118
4655 223
4655 623
4655 1119
4656 1600
4656 2016
4656 2112
4657 1601
4657 2017
4657 2113
4658 1602
4658 2018
4658 2114
4659 1603
4659 2019
4659 2115
4660 1604
4660 2020
4660 2116
4661 1605
4661 2021
4661 2117
4662 1606
4662 2022
4662 2118
4663 1607
4663 2023
4663 2119
4664 1608
4664 2024
4664 2120
4665 1609
4665 2025
4665 2121
4666 1610
4666 2026
4666 2122
4667 1611
4667 2027
4667 2123
4668 1612
4668 2028
4668 2124
4669 1613
4669 2029
4669 2125
4670 1614
4670 2030
4670 2126
4671 1615
4671 2031
4671 2127
4672 208
4672 544
4672 1040
4673 209
4673 545
4673 1041
4674 210
4674 546
4674 1042
4675 211
4675 547
4675 1043
4676 212
4676 548
4676 1044
4677 213
4677 549
4677 1045
4678 214
4678 550
4678 1046
4679 215
4679 551
4679 1047
4680 216
4680 552
4680 1048
4681 217
4681 553
4681 1049
4682 218
4682 554
4682 1050
4683 219
4683 555
4683 1051
4684 220
4684 556
4684 1052
4685 221
4685 557
4685 1053
4686 222
4686 558
4686 1054
4687 223
4687 559
4687 1055
4688 1456
4688 1952
4688 2448
4689 1457
4689 1953
4689 2449
4690 1458
4690 1954
4690 2450
4691 1459
4691 1955
4691 2451
4692 1460
4692 1956
4692 2452
4693 1461
4693 1957
4693 2453
4694 1462
4694 1958
4694 2454
4695 1463
4695 1959
4695 2455
4696 1464
4696 1960
4696 2456
4697 1465
4697 1961
4697 2457
4698 1466
4698 1962
4698 2458
4699 1467
4699 1963
4699 2459
4700 1468
4700 1964
4700 2460
4701 1469
4701 1965
4701 2461
4702 1470
4702 1966
4702 2462
4703 1471
4703 1967
4703 2463
4704 224
4704 864
4704 960
4705 225
4705 865
4705 961
4706 226
4706 866
4706 962
4707 227
4707 867
4707 963
4708 228
4708 868
4708 964
4709 229
4709 869
4709 965
4710 230
4710 870
4710 966
4711 231
4711 871
4711 967
4712 232
4712 872
4712 968
4713 233
4713 873
4713 969
4714 234
4714 874
4714 970
4715 235
4715 875
4715 971
4716 236
4716 876
4716 972
4717 237
4717 877
4717 973
4718 238
4718 878
4718 974
4719 239
4719 879
4719 975
4720 1376
4720 1872
4720 2368
4721 1377
4721 1873
4721 2369
4722 1378
4722 1874
4722 2370
4723 1379
4723 1875
4723 2371
4724 1380
4724 1876
4724 2372
4725 1381
4725 1877
4725 2373
4726 1382
4726 1878
4726 2374
4727 1383
4727 1879
4727 2375
4728 1384
4728 1880
4728 2376
4729 1385
4729 1881
4729 2377
4730 1386
4730 1882
4730 2378
4731 1387
4731 1883
4731 2379
4732 1388
4732 1884
4732 2380
4733 1389
4733 1885
4733 2381
4734 1390
4734 1886
4734 2382
4735 1391
4735 1887
4735 2383
4736 240
4736 784
4736 1280
4737 241
4737 785
4737 1281
4738 242
4738 786
4738 1282
4739 243
4739 787
4739 1283
4740 244
4740 788
4740 1284
4741 245
4741 789
4741 1285
4742 246
4742 790
4742 1286
4743 247
4743 791
4743 1287
4744 248
4744 792
4744 1288
4745 249
4745 793
4745 1289
4746 250
4746 794
4746 1290
4747 251
4747 795
4747 1291
4748 252
4748 796
4748 1292
4749 253
4749 797
4749 1293
4750 254
4750 798
4750 1294
4751 255
4751 799
4751 1295
4752 1296
4752 1792
4752 2288
4753 1297
4753 1793
4753 2289
4754 1298
4754 1794
4754 2290
4755 1299
4755 1795
4755 2291
4756 1300
4756 1796
4756 2292
4757 1301
4757 1797
4757 2293
4758 1302
4758 1798
4758 2294
4759 1303
4759 1799
4759 2295
4760 1304
4760 1800
4760 2296
4761 1305
4761 1801
4761 2297
4762 1306
4762 1802
4762 2298
4763 1307
4763 1803
4763 2299
4764 1308
4764 1804
4764 2300
4765 1309
4765 1805
4765 2301
4766 1310
4766 1806
4766 2302
4767 1311
4767 1807
4767 2303
4768 176
4768 704
4768 1200
4769 177
4769 705
4769 1201
4770 178
4770 706
4770 1202
4771 179
4771 707
4771 1203
4772 180
4772 708
4772 1204
4773 181
4773 709
4773 1205
4774 182
4774 710
4774 1206
4775 183
4775 711
4775 1207
4776 184
4776 712
4776 1208
4777 185
4777 713
4777 1209
4778 186
4778 714
4778 1210
4779 187
4779 715
4779 1211
4780 188
4780 716
4780 1212
4781 189
4781 717
4781 1213
4782 190
4782 718
4782 1214
4783 191
4783 719
4783 1215
4784 1616
4784 1712
4784 2208
4785 1617
4785 1713
4785 2209
4786 1618
4786 1714
4786 2210
4787 1619
4787 1715
4787 2211
4788 1620
4788 1716
4788 2212
4789 1621
4789 1717
4789 2213
4790 1622
4790 1718
4790 2214
4791 1623
4791 1719
4791 2215
4792 1624
4792 1720
4792 2216
4793 1625
4793 1721
4793 2217
4794 1626
4794 1722
4794 2218
4795 1627
4795 1723
4795 2219
4796 1628
4796 1724
4796 2220
4797 1629
4797 1725
4797 2221
4798 1630
4798 1726
4798 2222
4799 1631
4799 1727
4799 2223
4800 192
4800 624
4800 1120
4801 193
4801 625
4801 1121
4802 194
4802 626
4802 1122
4803 195
4803 627
4803 1123
4804 196
4804 628
4804 1124
4805 197
4805 629
4805 1125
4806 198
4806 630
4806 1126
4807 199
4807 631
4807 1127
4808 200
4808 632
4808 1128
4809 201
4809 633
4809 1129
4810 202
4810 634
4810 1130
4811 203
4811 635
4811 1131
4812 204
4812 636
4812 1132
4813 205
4813 637
4813 1133
4814 206
4814 638
4814 1134
4815 207
4815 639
4815 1135
4816 1536
4816 2032
4816 2128
4817 1537
4817 2033
4817 2129
4818 1538
4818 2034
4818 2130
4819 1539
4819 2035
4819 2131
4820 1540
4820 2036
4820 2132
4821 1541
4821 2037
4821 2133
4822 1542
4822 2038
4822 2134
4823 1543
4823 2039
4823 2135
4824 1544
4824 2040
4824 2136
4825 1545
4825 2041
4825 2137
4826 1546
4826 2042
4826 2138
4827 1547
4827 2043
4827 2139
4828 1548
4828 2044
4828 2140
4829 1549
4829 2045
4829 2141
4830 1550
4830 2046
4830 2142
4831 1551
4831 2047
4831 2143
4832 192
4832 560
4832 976
4833 193
4833 561
4833 977
4834 194
4834 562
4834 978
4835 195
4835 563
4835 979
4836 196
4836 564
4836 980
4837 197
4837 565
4837 981
4838 198
4838 566
4838 982
4839 199
4839 567
4839 983
4840 200
4840 568
4840 984
4841 201
4841 569
4841 985
4842 202
4842 570
4842 986
4843 203
4843 571
4843 987
4844 204
4844 572
4844 988
4845 205
4845 573
4845 989
4846 206
4846 574
4846 990
4847 207
4847 575
4847 991
4848 1472
4848 1968
4848 2464
4849 1473
4849 1969
4849 2465
4850 1474
4850 1970
4850 2466
4851 1475
4851 1971
4851 2467
4852 1476
4852 1972
4852 2468
4853 1477
4853 1973
4853 2469
4854 1478
4854 1974
4854 2470
4855 1479
4855 1975
4855 2471
4856 1480
4856 1976
4856 2472
4857 1481
4857 1977
4857 2473
4858 1482
4858 1978
4858 2474
4859 1483
4859 1979
4859 2475
4860 1484
4860 1980
4860 2476
4861 1485
4861 1981
4861 2477
4862 1486
4862 1982
4862 2478
4863 1487
4863 1983
4863 2479
4864 208
4864 880
4864 896
4865 209
4865 881
4865 897
4866 210
4866 882
4866 898
4867 211
4867 883
4867 899
4868 212
4868 884
4868 900
4869 213
4869 885
4869 901
4870 214
4870 886
4870 902
4871 215
4871 887
4871 903
4872 216
4872 888
4872 904
4873 217
4873 889
4873 905
4874 218
4874 890
4874 906
4875 219
4875 891
4875 907
4876 220
4876 892
4876 908
4877 221
4877 893
4877 909
4878 222
4878 894
4878 910
4879 223
4879 895
4879 911
4880 1392
4880 1888
4880 2384
4881 1393
4881 1889
4881 2385
4882 1394
4882 1890
4882 2386
4883 1395
4883 1891
4883 2387
4884 1396
4884 1892
4884 2388
4885 1397
4885 1893
4885 2389
4886 1398
4886 1894
4886 2390
4887 1399
4887 1895
4887 2391
4888 1400
4888 1896
4888 2392
4889 1401
4889 1897
4889 2393
4890 1402
4890 1898
4890 2394
4891 1403
4891 1899
4891 2395
4892 1404
4892 1900
4892 2396
4893 1405
4893 1901
4893 2397
4894 1406
4894 1902
4894 2398
4895 1407
4895 1903
4895 2399
4896 224
4896 800
4896 1216
4897 225
4897 801
4897 1217
4898 226
4898 802
4898 1218
4899 227
4899 803
4899 1219
4900 228
4900 804
4900 1220
4901 229
4901 805
4901 1221
4902 230
4902 806
4902 1222
4903 231
4903 807
4903 1223
4904 232
4904 808
4904 1224
4905 233
4905 809
4905 1225
4906 234
4906 810
4906 1226
4907 235
4907 811
4907 1227
4908 236
4908 812
4908 1228
4909 237
4909 813
4909 1229
4910 238
4910 814
4910 1230
4911 239
4911 815
4911 1231
4912 1312
4912 1808
4912 2304
4913 1313
4913 1809
4913 2305
4914 1314
4914 1810
4914 2306
4915 1315
4915 1811
4915 2307
4916 1316
4916 1812
4916 2308
4917 1317
4917 1813
4917 2309
4918 1318
4918 1814
4918 2310
4919 1319
4919 1815
4919 2311
4920 1320
4920 1816
4920 2312
4921 1321
4921 1817
4921 2313
4922 1322
4922 1818
4922 2314
4923 1323
4923 1819
4923 2315
4924 1324
4924 1820
4924 2316
4925 1325
4925 1821
4925 2317
4926 1326
4926 1822
4926 2318
4927 1327
4927 1823
4927 2319
4928 240
4928 720
4928 1136
4929 241
4929 721
4929 1137
4930 242
4930 722
4930 1138
4931 243
4931 723
4931 1139
4932 244
4932 724
4932 1140
4933 245
4933 725
4933 1141
4934 246
4934 726
4934 1142
4935 247
4935 727
4935 1143
4936 248
4936 728
4936 1144
4937 249
4937 729
4937 1145
4938 250
4938 730
4938 1146
4939 251
4939 731
4939 1147
4940 252
4940 732
4940 1148
4941 253
4941 733
4941 1149
4942 254
4942 734
4942 1150
4943 255
4943 735
4943 1151
4944 1632
4944 1728
4944 2224
4945 1633
4945 1729
4945 2225
4946 1634
4946 1730
4946 2226
4947 1635
4947 1731
4947 2227
4948 1636
4948 1732
4948 2228
4949 1637
4949 1733
4949 2229
4950 1638
4950 1734
4950 2230
4951 1639
4951 1735
4951 2231
4952 1640
4952 1736
4952 2232
4953 1641
4953 1737
4953 2233
4954 1642
4954 1738
4954 2234
4955 1643
4955 1739
4955 2235
4956 1644
4956 1740
4956 2236
4957 1645
4957 1741
4957 2237
4958 1646
4958 1742
4958 2238
4959 1647
4959 1743
4959 2239
4960 176
4960 640
4960 1056
4961 177
4961 641
4961 1057
4962 178
4962 642
4962 1058
4963 179
4963 643
4963 1059
4964 180
4964 644
4964 1060
4965 181
4965 645
4965 1061
4966 182
4966 646
4966 1062
4967 183
4967 647
4967 1063
4968 184
4968 648
4968 1064
4969 185
4969 649
4969 1065
4970 186
4970 650
4970 1066
4971 187
4971 651
4971 1067
4972 188
4972 652
4972 1068
4973 189
4973 653
4973 1069
4974 190
4974 654
4974 1070
4975 191
4975 655
4975 1071
4976 1552
4976 2048
4976 2144
4977 1553
4977 2049
4977 2145
4978 1554
4978 2050
4978 2146
4979 1555
4979 2051
4979 2147
4980 1556
4980 2052
4980 2148
4981 1557
4981 2053
4981 2149
4982 1558
4982 2054
4982 2150
4983 1559
4983 2055
4983 2151
4984 1560
4984 2056
4984 2152
4985 1561
4985 2057
4985 2153
4986 1562
4986 2058
4986 2154
4987 1563
4987 2059
4987 2155
4988 1564
4988 2060
4988 2156
4989 1565
4989 2061
4989 2157
4990 1566
4990 2062
4990 2158
4991 1567
4991 2063
4991 2159
