4992 2496 14976
0 5
0 22
0 32
1 13
1 31
1 39
2 7
2 25
2 43
3 0
3 21
3 36
4 12
4 23
4 34
5 9
5 19
5 41
6 4
6 27
6 40
7 10
7 26
7 33
8 1
8 24
8 35
9 14
9 16
9 42
10 3
10 20
10 47
11 6
11 29
11 38
12 11
12 18
12 45
13 8
13 30
13 37
14 2
14 17
14 46
15 15
15 28
15 44
16 63
16 73
16 81
17 48
17 77
17 86
18 49
18 71
18 94
19 60
19 78
19 82
20 56
20 76
20 91
21 50
21 69
21 80
22 59
22 67
22 85
23 55
23 79
23 93
24 62
24 74
24 84
25 51
25 66
25 83
26 54
26 68
26 87
27 52
27 64
27 90
28 58
28 65
28 95
29 57
29 70
29 92
30 61
30 72
30 88
31 53
31 75
31 89
32 11
32 107
32 127
33 1
33 105
33 120
34 4
34 102
34 113
35 7
35 96
35 116
36 8
36 97
36 112
37 0
37 111
37 117
38 9
38 106
38 115
39 13
39 100
39 123
40 10
40 99
40 114
41 14
41 109
41 119
42 15
42 103
42 121
43 6
43 108
43 126
44 12
44 98
44 122
45 3
45 104
45 124
46 2
46 101
46 125
47 5
47 110
47 118
48 130
48 149
48 170
49 133
49 155
49 165
50 135
50 145
50 162
51 136
51 153
51 161
52 132
52 159
52 174
53 138
53 158
53 169
54 129
54 151
54 163
55 128
55 146
55 172
56 141
56 157
56 173
57 140
57 148
57 175
58 134
58 156
58 160
59 131
59 147
59 164
60 143
60 152
60 167
61 139
61 144
61 168
62 137
62 150
62 171
63 142
63 154
63 166
64 7
64 188
64 207
65 2
65 177
65 195
66 13
66 183
66 206
67 5
67 185
67 200
68 15
68 178
68 194
69 3
69 190
69 192
70 9
70 189
70 202
71 1
71 184
71 204
72 4
72 176
72 197
73 14
73 182
73 196
74 0
74 180
74 199
75 12
75 191
75 205
76 6
76 187
76 201
77 10
77 181
77 203
78 11
78 186
78 193
79 8
79 179
79 198
80 211
80 224
80 248
81 208
81 238
81 249
82 219
82 229
82 247
83 213
83 233
83 242
84 215
84 239
84 255
85 212
85 230
85 254
86 217
86 226
86 245
87 216
87 232
87 240
88 218
88 234
88 246
89 223
89 228
89 253
90 210
90 227
90 252
91 209
91 236
91 241
92 221
92 225
92 244
93 222
93 235
93 243
94 220
94 237
94 250
95 214
95 231
95 251
96 7
96 264
96 283
97 6
97 265
97 287
98 2
98 259
98 284
99 14
99 260
99 278
100 9
100 263
100 277
101 11
101 266
101 274
102 10
102 268
102 276
103 13
103 271
103 285
104 15
104 258
104 280
105 4
105 262
105 279
106 8
106 270
106 286
107 3
107 256
107 281
108 0
108 269
108 272
109 12
109 267
109 282
110 5
110 257
110 275
111 1
111 261
111 273
112 297
112 309
112 322
113 299
113 307
113 331
114 289
114 305
114 329
115 291
115 316
115 335
116 301
116 319
116 321
117 302
117 318
117 320
118 303
118 306
118 328
119 295
119 312
119 327
120 290
120 317
120 325
121 293
121 310
121 332
122 298
122 313
122 333
123 294
123 315
123 324
124 296
124 314
124 330
125 300
125 304
125 334
126 288
126 311
126 323
127 292
127 308
127 326
128 2
128 349
128 352
129 5
129 348
129 359
130 14
130 351
130 367
131 3
131 340
131 356
132 12
132 347
132 357
133 15
133 337
133 362
134 9
134 345
134 366
135 13
135 350
135 360
136 4
136 338
136 364
137 11
137 339
137 358
138 6
138 343
138 363
139 7
139 344
139 365
140 1
140 342
140 355
141 8
141 346
141 361
142 0
142 336
142 354
143 10
143 341
143 353
144 373
144 387
144 410
145 379
145 386
145 400
146 383
146 392
146 411
147 369
147 396
147 409
148 371
148 390
148 404
149 375
149 388
149 403
150 368
150 384
150 405
151 382
151 399
151 413
152 380
152 393
152 402
153 378
153 394
153 415
154 370
154 397
154 408
155 381
155 398
155 412
156 376
156 391
156 407
157 372
157 395
157 401
158 377
158 389
158 406
159 374
159 385
159 414
160 6
160 420
160 438
161 11
161 431
161 444
162 0
162 417
162 445
163 3
163 428
163 442
164 14
164 418
164 441
165 15
165 426
165 446
166 4
166 416
166 437
167 10
167 425
167 440
168 1
168 422
168 439
169 2
169 419
169 433
170 13
170 423
170 443
171 12
171 424
171 436
172 5
172 421
172 447
173 7
173 429
173 432
174 9
174 430
174 434
175 8
175 427
175 435
176 457
176 474
176 482
177 460
177 467
177 487
178 462
178 464
178 494
179 451
179 470
179 489
180 454
180 476
180 490
181 463
181 465
181 480
182 450
182 477
182 484
183 448
183 475
183 483
184 456
184 466
184 493
185 458
185 468
185 486
186 452
186 471
186 492
187 449
187 472
187 495
188 455
188 469
188 481
189 461
189 479
189 485
190 459
190 473
190 491
191 453
191 478
191 488
192 100
192 501
192 527
193 105
193 497
193 519
194 108
194 507
194 518
195 110
195 496
195 526
196 104
196 504
196 517
197 111
197 500
197 515
198 101
198 498
198 523
199 107
199 510
199 513
200 106
200 502
200 524
201 102
201 499
201 521
202 103
202 505
202 512
203 96
203 511
203 525
204 109
204 509
204 522
205 99
205 508
205 514
206 98
206 506
206 516
207 97
207 503
207 520
208 538
208 558
208 565
209 530
209 557
209 568
210 531
210 548
210 575
211 535
211 553
211 571
212 534
212 545
212 566
213 529
213 547
213 572
214 543
214 546
214 570
215 536
215 544
215 563
216 532
216 551
216 560
217 528
217 552
217 564
218 533
218 556
218 561
219 541
219 554
219 569
220 537
220 550
220 567
221 542
221 559
221 574
222 540
222 549
222 562
223 539
223 555
223 573
224 124
224 577
224 594
225 117
225 582
225 601
226 122
226 583
226 596
227 119
227 587
227 607
228 114
228 579
228 603
229 127
229 581
229 599
230 121
230 585
230 598
231 125
231 576
231 600
232 120
232 580
232 595
233 115
233 578
233 602
234 118
234 588
234 604
235 126
235 590
235 593
236 113
236 591
236 605
237 123
237 589
237 592
238 112
238 584
238 606
239 116
239 586
239 597
240 621
240 631
240 650
241 613
241 635
241 655
242 619
242 636
242 645
243 617
243 625
243 649
244 614
244 632
244 646
245 609
245 633
245 640
246 620
246 634
246 652
247 618
247 624
247 643
248 615
248 630
248 647
249 623
249 639
249 642
250 612
250 627
250 648
251 608
251 628
251 653
252 622
252 638
252 654
253 611
253 629
253 644
254 610
254 637
254 641
255 616
255 626
255 651
256 128
256 665
256 674
257 131
257 668
257 673
258 134
258 663
258 676
259 138
259 669
259 686
260 133
260 656
260 679
261 141
261 671
261 687
262 139
262 661
262 677
263 135
263 662
263 678
264 143
264 664
264 683
265 142
265 659
265 672
266 130
266 657
266 685
267 137
267 670
267 682
268 136
268 667
268 681
269 129
269 666
269 684
270 132
270 658
270 675
271 140
271 660
271 680
272 701
272 712
272 730
273 699
273 713
273 724
274 693
274 706
274 735
275 698
275 708
275 728
276 700
276 717
276 733
277 692
277 707
277 722
278 694
278 715
278 731
279 697
279 719
279 721
280 689
280 714
280 720
281 690
281 704
281 723
282 688
282 718
282 727
283 691
283 716
283 725
284 703
284 711
284 726
285 702
285 705
285 734
286 696
286 709
286 732
287 695
287 710
287 729
288 159
288 745
288 760
289 157
289 737
289 755
290 147
290 751
290 757
291 144
291 747
291 754
292 156
292 749
292 761
293 152
293 739
293 763
294 146
294 740
294 753
295 151
295 736
295 759
296 158
296 743
296 752
297 149
297 741
297 758
298 145
298 738
298 767
299 155
299 750
299 762
300 153
300 748
300 764
301 150
301 744
301 765
302 154
302 746
302 766
303 148
303 742
303 756
304 773
304 792
304 800
305 781
305 793
305 812
306 775
306 790
306 801
307 776
307 796
307 810
308 768
308 789
308 803
309 783
309 794
309 815
310 780
310 787
310 806
311 777
311 798
311 809
312 771
312 797
312 807
313 778
313 784
313 813
314 779
314 791
314 802
315 769
315 799
315 805
316 782
316 786
316 804
317 774
317 795
317 814
318 772
318 785
318 811
319 770
319 788
319 808
320 167
320 820
320 832
321 164
321 830
321 845
322 172
322 824
322 844
323 161
323 831
323 837
324 160
324 823
324 835
325 169
325 818
325 841
326 174
326 828
326 846
327 162
327 822
327 842
328 175
328 829
328 847
329 168
329 826
329 838
330 173
330 821
330 836
331 171
331 816
331 839
332 170
332 817
332 843
333 166
333 827
333 840
334 163
334 825
334 834
335 165
335 819
335 833
336 848
336 864
336 885
337 855
337 873
337 894
338 852
338 865
338 893
339 863
339 875
339 882
340 860
340 879
340 892
341 854
341 877
341 891
342 856
342 866
342 890
343 853
343 870
343 889
344 858
344 874
344 887
345 851
345 867
345 881
346 859
346 876
346 886
347 850
347 878
347 883
348 857
348 868
348 895
349 861
349 872
349 884
350 849
350 869
350 888
351 862
351 871
351 880
352 105
352 910
352 921
353 100
353 904
353 917
354 97
354 896
354 922
355 109
355 907
355 920
356 108
356 911
356 916
357 107
357 901
357 926
358 104
358 906
358 915
359 106
359 902
359 925
360 98
360 899
360 912
361 103
361 903
361 919
362 99
362 900
362 918
363 110
363 908
363 923
364 101
364 898
364 924
365 111
365 909
365 913
366 102
366 905
366 914
367 96
367 897
367 927
368 935
368 953
368 963
369 941
369 957
369 975
370 940
370 944
370 966
371 931
371 959
371 968
372 943
372 949
372 974
373 928
373 950
373 969
374 930
374 947
374 970
375 932
375 946
375 961
376 933
376 945
376 967
377 937
377 948
377 960
378 939
378 951
378 971
379 938
379 958
379 964
380 942
380 954
380 972
381 936
381 956
381 973
382 934
382 955
382 965
383 929
383 952
383 962
384 116
384 981
384 1002
385 119
385 978
385 994
386 122
386 979
386 1004
387 112
387 983
387 992
388 113
388 977
388 1007
389 127
389 991
389 1000
390 120
390 980
390 995
391 126
391 982
391 993
392 125
392 986
392 1005
393 115
393 989
393 1003
394 121
394 987
394 999
395 124
395 984
395 996
396 118
396 988
396 1001
397 114
397 985
397 998
398 123
398 990
398 997
399 117
399 976
399 1006
400 1008
400 1026
400 1054
401 1014
401 1039
401 1040
402 1012
402 1038
402 1042
403 1019
403 1025
403 1046
404 1016
404 1030
404 1041
405 1021
405 1029
405 1051
406 1009
406 1027
406 1053
407 1011
407 1036
407 1047
408 1010
408 1037
408 1045
409 1017
409 1034
409 1049
410 1015
410 1024
410 1048
411 1013
411 1035
411 1050
412 1020
412 1033
412 1043
413 1022
413 1032
413 1044
414 1018
414 1031
414 1052
415 1023
415 1028
415 1055
416 128
416 1060
416 1074
417 142
417 1070
417 1075
418 143
418 1061
418 1077
419 136
419 1064
419 1080
420 133
420 1068
420 1079
421 134
421 1057
421 1084
422 138
422 1066
422 1083
423 130
423 1056
423 1085
424 140
424 1067
424 1076
425 135
425 1058
425 1087
426 131
426 1065
426 1082
427 139
427 1062
427 1078
428 141
428 1059
428 1086
429 137
429 1069
429 1073
430 132
430 1063
430 1072
431 129
431 1071
431 1081
432 1102
432 1117
432 1125
433 1088
433 1107
433 1132
434 1099
434 1118
434 1131
435 1092
435 1113
435 1126
436 1100
436 1105
436 1124
437 1093
437 1104
437 1120
438 1097
438 1115
438 1129
439 1103
439 1112
439 1122
440 1090
440 1116
440 1130
441 1094
441 1108
441 1128
442 1101
442 1109
442 1121
443 1096
443 1119
443 1123
444 1098
444 1111
444 1127
445 1095
445 1106
445 1134
446 1089
446 1110
446 1133
447 1091
447 1114
447 1135
448 145
448 1139
448 1163
449 144
449 1136
449 1152
450 156
450 1147
450 1154
451 158
451 1137
451 1153
452 148
452 1143
452 1162
453 159
453 1140
453 1157
454 147
454 1142
454 1166
455 155
455 1141
455 1161
456 146
456 1148
456 1155
457 153
457 1149
457 1160
458 151
458 1150
458 1159
459 157
459 1151
459 1167
460 152
460 1144
460 1165
461 154
461 1146
461 1156
462 149
462 1138
462 1164
463 150
463 1145
463 1158
464 1182
464 1193
464 1204
465 1177
465 1187
465 1205
466 1180
466 1199
466 1202
467 1168
467 1189
467 1214
468 1173
468 1198
468 1203
469 1171
469 1191
469 1215
470 1179
470 1197
470 1210
471 1181
471 1185
471 1206
472 1183
472 1194
472 1212
473 1172
473 1184
473 1213
474 1174
474 1188
474 1201
475 1170
475 1192
475 1208
476 1176
476 1190
476 1207
477 1175
477 1196
477 1200
478 1178
478 1195
478 1209
479 1169
479 1186
479 1211
480 173
480 1230
480 1240
481 161
481 1216
481 1235
482 166
482 1219
482 1245
483 170
483 1223
483 1246
484 167
484 1225
484 1239
485 171
485 1220
485 1236
486 174
486 1222
486 1232
487 162
487 1224
487 1237
488 169
488 1218
488 1244
489 163
489 1227
489 1242
490 168
490 1231
490 1238
491 165
491 1228
491 1247
492 175
492 1229
492 1233
493 160
493 1217
493 1234
494 164
494 1226
494 1241
495 172
495 1221
495 1243
496 1259
496 1275
496 1292
497 1250
497 1271
497 1286
498 1256
498 1265
498 1287
499 1252
499 1267
499 1285
500 1258
500 1269
500 1295
501 1249
501 1268
501 1291
502 1248
502 1278
502 1280
503 1257
503 1276
503 1281
504 1254
504 1277
504 1289
505 1262
505 1274
505 1293
506 1251
506 1264
506 1288
507 1260
507 1273
507 1282
508 1263
508 1270
508 1283
509 1253
509 1272
509 1290
510 1255
510 1279
510 1284
511 1261
511 1266
511 1294
512 110
512 1311
512 1327
513 104
513 1302
513 1313
514 107
514 1301
514 1324
515 103
515 1307
515 1320
516 96
516 1308
516 1325
517 99
517 1303
517 1318
518 111
518 1299
518 1315
519 108
519 1309
519 1317
520 98
520 1310
520 1316
521 109
521 1306
521 1321
522 101
522 1305
522 1326
523 100
523 1296
523 1322
524 106
524 1300
524 1312
525 97
525 1297
525 1319
526 102
526 1298
526 1323
527 105
527 1304
527 1314
528 1335
528 1359
528 1365
529 1336
529 1352
529 1366
530 1340
530 1344
530 1370
531 1332
531 1356
531 1360
532 1329
532 1346
532 1371
533 1339
533 1349
533 1374
534 1341
534 1355
534 1372
535 1328
535 1353
535 1362
536 1334
536 1358
536 1361
537 1343
537 1354
537 1369
538 1330
538 1347
538 1373
539 1342
539 1348
539 1368
540 1333
540 1351
540 1363
541 1337
541 1357
541 1375
542 1338
542 1345
542 1364
543 1331
543 1350
543 1367
544 116
544 1385
544 1405
545 125
545 1383
545 1406
546 120
546 1379
546 1402
547 126
547 1377
547 1392
548 122
548 1384
548 1398
549 119
549 1387
549 1399
550 117
550 1382
550 1397
551 114
551 1388
551 1393
552 113
552 1380
552 1395
553 124
553 1391
553 1401
554 121
554 1389
554 1394
555 123
555 1390
555 1396
556 115
556 1376
556 1400
557 127
557 1381
557 1404
558 112
558 1386
558 1403
559 118
559 1378
559 1407
560 1422
560 1435
560 1443
561 1417
561 1426
561 1440
562 1409
562 1437
562 1444
563 1410
563 1434
563 1448
564 1420
564 1433
564 1451
565 1415
565 1429
565 1450
566 1421
566 1424
566 1454
567 1413
567 1425
567 1442
568 1416
568 1432
568 1446
569 1418
569 1438
569 1452
570 1411
570 1439
570 1449
571 1414
571 1431
571 1445
572 1408
572 1428
572 1441
573 1423
573 1427
573 1447
574 1419
574 1436
574 1453
575 1412
575 1430
575 1455
576 137
576 1468
576 1478
577 132
577 1469
577 1480
578 134
578 1461
578 1477
579 139
579 1462
579 1479
580 133
580 1470
580 1473
581 135
581 1467
581 1486
582 131
582 1460
582 1476
583 129
583 1466
583 1485
584 143
584 1458
584 1487
585 128
585 1464
585 1482
586 138
586 1471
586 1472
587 141
587 1463
587 1484
588 130
588 1459
588 1474
589 140
589 1457
589 1481
590 142
590 1456
590 1483
591 136
591 1465
591 1475
592 1489
592 1510
592 1535
593 1499
593 1515
593 1534
594 1502
594 1513
594 1522
595 1494
595 1511
595 1529
596 1493
596 1509
596 1527
597 1498
597 1519
597 1524
598 1503
598 1518
598 1526
599 1497
599 1512
599 1523
600 1501
600 1505
600 1520
601 1490
601 1514
601 1531
602 1500
602 1508
602 1532
603 1488
603 1504
603 1521
604 1491
604 1517
604 1533
605 1492
605 1516
605 1530
606 1495
606 1506
606 1528
607 1496
607 1507
607 1525
608 153
608 1543
608 1564
609 158
609 1538
609 1554
610 146
610 1550
610 1566
611 155
611 1540
611 1557
612 150
612 1542
612 1556
613 149
613 1537
613 1567
614 144
614 1551
614 1560
615 154
615 1549
615 1553
616 145
616 1548
616 1562
617 156
617 1539
617 1565
618 152
618 1546
618 1563
619 147
619 1536
619 1559
620 157
620 1541
620 1552
621 148
621 1545
621 1561
622 151
622 1544
622 1558
623 159
623 1547
623 1555
624 1583
624 1596
624 1607
625 1575
625 1585
625 1602
626 1570
626 1588
626 1609
627 1579
627 1592
627 1605
628 1582
628 1584
628 1600
629 1572
629 1586
629 1601
630 1576
630 1593
630 1615
631 1581
631 1594
631 1604
632 1571
632 1597
632 1603
633 1574
633 1591
633 1614
634 1578
634 1587
634 1608
635 1580
635 1589
635 1606
636 1569
636 1598
636 1613
637 1573
637 1595
637 1611
638 1577
638 1599
638 1612
639 1568
639 1590
639 1610
640 166
640 1617
640 1636
641 174
641 1630
641 1632
642 161
642 1624
642 1634
643 175
643 1623
643 1645
644 165
644 1628
644 1635
645 162
645 1621
645 1644
646 160
646 1620
646 1641
647 173
647 1619
647 1637
648 170
648 1625
648 1639
649 172
649 1631
649 1638
650 163
650 1626
650 1647
651 167
651 1618
651 1646
652 171
652 1616
652 1633
653 164
653 1622
653 1640
654 168
654 1627
654 1643
655 169
655 1629
655 1642
656 1662
656 1672
656 1690
657 1654
657 1671
657 1684
658 1655
658 1669
658 1685
659 1659
659 1673
659 1695
660 1653
660 1668
660 1681
661 1649
661 1664
661 1693
662 1658
662 1670
662 1694
663 1660
663 1679
663 1691
664 1652
664 1666
664 1688
665 1650
665 1678
665 1689
666 1651
666 1676
666 1682
667 1663
667 1667
667 1686
668 1657
668 1677
668 1683
669 1656
669 1674
669 1680
670 1661
670 1665
670 1692
671 1648
671 1675
671 1687
672 107
672 1701
672 1720
673 100
673 1707
673 1717
674 102
674 1711
674 1716
675 105
675 1702
675 1719
676 111
676 1696
676 1723
677 110
677 1704
677 1714
678 96
678 1709
678 1727
679 104
679 1699
679 1721
680 97
680 1703
680 1718
681 103
681 1697
681 1726
682 101
682 1708
682 1715
683 98
683 1700
683 1712
684 108
684 1710
684 1713
685 99
685 1706
685 1724
686 109
686 1698
686 1725
687 106
687 1705
687 1722
688 1732
688 1748
688 1775
689 1734
689 1753
689 1763
690 1737
690 1754
690 1764
691 1742
691 1755
691 1766
692 1738
692 1749
692 1765
693 1733
693 1751
693 1767
694 1741
694 1744
694 1768
695 1739
695 1757
695 1760
696 1743
696 1750
696 1772
697 1728
697 1758
697 1771
698 1735
698 1745
698 1762
699 1729
699 1747
699 1770
700 1730
700 1746
700 1769
701 1740
701 1759
701 1774
702 1736
702 1756
702 1773
703 1731
703 1752
703 1761
704 124
704 1789
704 1798
705 120
705 1777
705 1807
706 123
706 1790
706 1804
707 127
707 1791
707 1805
708 113
708 1781
708 1794
709 121
709 1786
709 1803
710 115
710 1782
710 1796
711 126
711 1785
711 1800
712 125
712 1788
712 1792
713 118
713 1779
713 1797
714 122
714 1778
714 1799
715 116
715 1787
715 1795
716 117
716 1783
716 1793
717 112
717 1780
717 1802
718 114
718 1776
718 1806
719 119
719 1784
719 1801
720 1818
720 1827
720 1840
721 1813
721 1828
721 1845
722 1812
722 1834
722 1853
723 1819
723 1833
723 1841
724 1811
724 1825
724 1842
725 1810
725 1829
725 1847
726 1814
726 1838
726 1846
727 1809
727 1832
727 1852
728 1817
728 1831
728 1849
729 1821
729 1835
729 1848
730 1816
730 1836
730 1854
731 1820
731 1837
731 1851
732 1815
732 1830
732 1855
733 1822
733 1824
733 1850
734 1808
734 1826
734 1843
735 1823
735 1839
735 1844
736 137
736 1867
736 1884
737 139
737 1859
737 1881
738 135
738 1861
738 1882
739 128
739 1856
739 1886
740 130
740 1858
740 1876
741 143
741 1864
741 1874
742 136
742 1869
742 1877
743 138
743 1862
743 1878
744 141
744 1857
744 1883
745 142
745 1870
745 1875
746 129
746 1871
746 1885
747 134
747 1860
747 1880
748 140
748 1866
748 1887
749 132
749 1865
749 1873
750 133
750 1863
750 1879
751 131
751 1868
751 1872
752 1891
752 1915
752 1923
753 1896
753 1917
753 1930
754 1888
754 1916
754 1935
755 1895
755 1918
755 1920
756 1903
756 1919
756 1931
757 1894
757 1909
757 1933
758 1893
758 1914
758 1929
759 1897
759 1907
759 1926
760 1901
760 1913
760 1928
761 1889
761 1912
761 1922
762 1902
762 1904
762 1934
763 1900
763 1905
763 1927
764 1890
764 1911
764 1932
765 1899
765 1906
765 1921
766 1898
766 1910
766 1925
767 1892
767 1908
767 1924
768 156
768 1946
768 1959
769 146
769 1944
769 1962
770 152
770 1949
770 1965
771 155
771 1940
771 1953
772 148
772 1951
772 1955
773 144
773 1936
773 1958
774 150
774 1943
774 1961
775 147
775 1939
775 1952
776 153
776 1947
776 1964
777 145
777 1948
777 1954
778 158
778 1950
778 1963
779 149
779 1941
779 1956
780 154
780 1938
780 1957
781 151
781 1937
781 1967
782 157
782 1942
782 1966
783 159
783 1945
783 1960
784 1972
784 1990
784 2006
785 1975
785 1995
785 2005
786 1976
786 1993
786 2003
787 1973
787 1992
787 2012
788 1980
788 1985
788 2001
789 1977
789 1984
789 2008
790 1981
790 1989
790 2010
791 1968
791 1996
791 2002
792 1978
792 1997
792 2013
793 1971
793 1999
793 2011
794 1983
794 1987
794 2009
795 1970
795 1986
795 2014
796 1974
796 1988
796 2007
797 1982
797 1991
797 2004
798 1969
798 1994
798 2000
799 1979
799 1998
799 2015
800 173
800 2016
800 2045
801 172
801 2017
801 2039
802 167
802 2026
802 2037
803 160
803 2021
803 2043
804 174
804 2030
804 2036
805 161
805 2022
805 2044
806 171
806 2019
806 2046
807 169
807 2020
807 2041
808 164
808 2025
808 2034
809 170
809 2018
809 2035
810 166
810 2028
810 2038
811 165
811 2031
811 2042
812 163
812 2029
812 2047
813 162
813 2023
813 2032
814 168
814 2027
814 2040
815 175
815 2024
815 2033
816 2061
816 2069
816 2083
817 2051
817 2079
817 2087
818 2055
818 2078
818 2086
819 2053
819 2075
819 2093
820 2056
820 2077
820 2084
821 2052
821 2067
821 2082
822 2059
822 2073
822 2088
823 2049
823 2065
823 2085
824 2048
824 2070
824 2090
825 2063
825 2066
825 2092
826 2060
826 2068
826 2080
827 2054
827 2074
827 2095
828 2050
828 2076
828 2091
829 2058
829 2072
829 2094
830 2057
830 2071
830 2089
831 2062
831 2064
831 2081
832 111
832 2098
832 2126
833 96
833 2108
833 2116
834 108
834 2107
834 2113
835 98
835 2109
835 2127
836 107
836 2096
836 2114
837 103
837 2104
837 2124
838 99
838 2102
838 2125
839 104
839 2110
839 2118
840 110
840 2103
840 2115
841 102
841 2106
841 2122
842 109
842 2111
842 2121
843 105
843 2101
843 2112
844 100
844 2099
844 2119
845 97
845 2105
845 2123
846 106
846 2100
846 2117
847 101
847 2097
847 2120
848 2136
848 2155
848 2163
849 2138
849 2147
849 2174
850 2132
850 2153
850 2161
851 2128
851 2146
851 2164
852 2135
852 2152
852 2167
853 2140
853 2151
853 2170
854 2143
854 2157
854 2165
855 2131
855 2158
855 2172
856 2137
856 2144
856 2160
857 2133
857 2159
857 2171
858 2129
858 2150
858 2168
859 2141
859 2154
859 2169
860 2139
860 2148
860 2166
861 2142
861 2149
861 2173
862 2134
862 2145
862 2175
863 2130
863 2156
863 2162
864 116
864 2178
864 2199
865 118
865 2177
865 2197
866 126
866 2180
866 2193
867 127
867 2186
867 2201
868 124
868 2181
868 2198
869 119
869 2185
869 2196
870 125
870 2187
870 2200
871 122
871 2179
871 2207
872 120
872 2182
872 2206
873 114
873 2183
873 2204
874 121
874 2184
874 2195
875 112
875 2189
875 2205
876 113
876 2176
876 2203
877 117
877 2190
877 2194
878 123
878 2191
878 2202
879 115
879 2188
879 2192
880 2221
880 2228
880 2248
881 2216
881 2226
881 2249
882 2211
882 2227
882 2251
883 2222
883 2235
883 2250
884 2213
884 2224
884 2246
885 2209
885 2231
885 2254
886 2220
886 2238
886 2252
887 2215
887 2236
887 2247
888 2217
888 2225
888 2245
889 2214
889 2229
889 2255
890 2219
890 2234
890 2240
891 2210
891 2230
891 2242
892 2212
892 2239
892 2241
893 2218
893 2233
893 2244
894 2223
894 2237
894 2243
895 2208
895 2232
895 2253
896 134
896 2263
896 2285
897 128
897 2267
897 2275
898 129
898 2257
898 2287
899 135
899 2262
899 2281
900 141
900 2261
900 2279
901 143
901 2266
901 2280
902 139
902 2270
902 2284
903 136
903 2258
903 2274
904 140
904 2269
904 2286
905 137
905 2268
905 2272
906 132
906 2260
906 2276
907 131
907 2264
907 2283
908 133
908 2265
908 2282
909 130
909 2256
909 2277
910 138
910 2271
910 2273
911 142
911 2259
911 2278
912 2293
912 2313
912 2330
913 2292
913 2311
913 2324
914 2297
914 2319
914 2322
915 2302
915 2308
915 2321
916 2290
916 2314
916 2325
917 2294
917 2315
917 2328
918 2289
918 2310
918 2334
919 2299
919 2304
919 2335
920 2296
920 2316
920 2320
921 2291
921 2309
921 2327
922 2295
922 2307
922 2323
923 2301
923 2312
923 2332
924 2288
924 2317
924 2333
925 2303
925 2318
925 2329
926 2298
926 2305
926 2331
927 2300
927 2306
927 2326
928 157
928 2342
928 2364
929 147
929 2348
929 2365
930 154
930 2347
930 2360
931 144
931 2351
931 2358
932 158
932 2344
932 2353
933 150
933 2346
933 2363
934 145
934 2338
934 2357
935 153
935 2350
935 2367
936 156
936 2345
936 2352
937 151
937 2349
937 2356
938 148
938 2343
938 2355
939 155
939 2340
939 2366
940 152
940 2336
940 2362
941 149
941 2337
941 2361
942 146
942 2339
942 2359
943 159
943 2341
943 2354
944 2374
944 2386
944 2403
945 2379
945 2392
945 2408
946 2368
946 2394
946 2413
947 2369
947 2384
947 2402
948 2375
948 2390
948 2404
949 2372
949 2385
949 2400
950 2377
950 2391
950 2412
951 2371
951 2398
951 2414
952 2378
952 2396
952 2401
953 2376
953 2395
953 2407
954 2382
954 2399
954 2405
955 2383
955 2388
955 2409
956 2370
956 2389
956 2411
957 2381
957 2397
957 2415
958 2373
958 2387
958 2410
959 2380
959 2393
959 2406
960 162
960 2426
960 2446
961 171
961 2424
961 2437
962 160
962 2416
962 2440
963 169
963 2425
963 2439
964 165
964 2430
964 2447
965 164
965 2428
965 2442
966 161
966 2418
966 2445
967 172
967 2431
967 2433
968 168
968 2421
968 2441
969 170
969 2422
969 2432
970 173
970 2429
970 2444
971 167
971 2417
971 2438
972 175
972 2427
972 2434
973 163
973 2419
973 2443
974 166
974 2420
974 2436
975 174
975 2423
975 2435
976 2456
976 2474
976 2492
977 2460
977 2464
977 2490
978 2449
978 2478
978 2493
979 2458
979 2473
979 2489
980 2463
980 2469
980 2495
981 2459
981 2471
981 2485
982 2452
982 2477
982 2484
983 2454
983 2467
983 2486
984 2448
984 2479
984 2482
985 2450
985 2466
985 2480
986 2453
986 2470
986 2488
987 2455
987 2476
987 2483
988 2462
988 2465
988 2481
989 2451
989 2468
989 2487
990 2457
990 2475
990 2494
991 2461
991 2472
991 2491
992 25
992 498
992 578
993 16
993 496
993 587
994 23
994 509
994 588
995 21
995 502
995 582
996 30
996 503
996 581
997 27
997 510
997 590
998 17
998 504
998 585
999 26
999 500
999 584
1000 18
1000 508
1000 583
1001 31
1001 511
1001 586
1002 24
1002 505
1002 591
1003 20
1003 507
1003 576
1004 22
1004 499
1004 580
1005 29
1005 501
1005 589
1006 28
1006 497
1006 577
1007 19
1007 506
1007 579
1008 659
1008 744
1008 823
1009 670
1009 737
1009 818
1010 663
1010 749
1010 820
1011 661
1011 738
1011 824
1012 671
1012 736
1012 817
1013 664
1013 740
1013 819
1014 657
1014 746
1014 822
1015 666
1015 742
1015 829
1016 662
1016 751
1016 827
1017 665
1017 748
1017 821
1018 669
1018 747
1018 825
1019 656
1019 745
1019 828
1020 668
1020 743
1020 826
1021 658
1021 739
1021 816
1022 667
1022 741
1022 830
1023 660
1023 750
1023 831
1024 18
1024 910
1024 982
1025 25
1025 896
1025 985
1026 28
1026 903
1026 976
1027 26
1027 905
1027 986
1028 21
1028 907
1028 987
1029 29
1029 908
1029 984
1030 22
1030 900
1030 991
1031 20
1031 911
1031 989
1032 30
1032 902
1032 979
1033 16
1033 909
1033 990
1034 24
1034 904
1034 977
1035 27
1035 898
1035 983
1036 17
1036 899
1036 988
1037 23
1037 906
1037 981
1038 31
1038 901
1038 980
1039 19
1039 897
1039 978
1040 1060
1040 1145
1040 1230
1041 1068
1041 1146
1041 1219
1042 1056
1042 1149
1042 1224
1043 1057
1043 1150
1043 1231
1044 1066
1044 1141
1044 1228
1045 1059
1045 1142
1045 1229
1046 1069
1046 1140
1046 1218
1047 1065
1047 1138
1047 1226
1048 1067
1048 1137
1048 1216
1049 1063
1049 1139
1049 1225
1050 1071
1050 1148
1050 1223
1051 1058
1051 1143
1051 1227
1052 1070
1052 1144
1052 1222
1053 1064
1053 1147
1053 1221
1054 1062
1054 1136
1054 1220
1055 1061
1055 1151
1055 1217
1056 19
1056 1299
1056 1378
1057 26
1057 1311
1057 1388
1058 17
1058 1310
1058 1381
1059 25
1059 1302
1059 1386
1060 20
1060 1297
1060 1380
1061 31
1061 1306
1061 1387
1062 22
1062 1301
1062 1376
1063 24
1063 1298
1063 1391
1064 18
1064 1296
1064 1377
1065 29
1065 1300
1065 1385
1066 30
1066 1304
1066 1379
1067 23
1067 1307
1067 1382
1068 21
1068 1303
1068 1383
1069 27
1069 1309
1069 1384
1070 28
1070 1305
1070 1389
1071 16
1071 1308
1071 1390
1072 1466
1072 1540
1072 1616
1073 1468
1073 1544
1073 1631
1074 1462
1074 1537
1074 1627
1075 1467
1075 1545
1075 1629
1076 1465
1076 1539
1076 1628
1077 1470
1077 1547
1077 1622
1078 1461
1078 1551
1078 1621
1079 1457
1079 1550
1079 1624
1080 1456
1080 1549
1080 1626
1081 1464
1081 1542
1081 1620
1082 1463
1082 1536
1082 1618
1083 1459
1083 1543
1083 1625
1084 1471
1084 1548
1084 1619
1085 1469
1085 1541
1085 1623
1086 1460
1086 1538
1086 1630
1087 1458
1087 1546
1087 1617
1088 18
1088 1706
1088 1788
1089 24
1089 1705
1089 1776
1090 29
1090 1708
1090 1789
1091 21
1091 1704
1091 1782
1092 16
1092 1710
1092 1786
1093 28
1093 1699
1093 1780
1094 30
1094 1703
1094 1779
1095 25
1095 1701
1095 1790
1096 23
1096 1698
1096 1791
1097 22
1097 1702
1097 1778
1098 26
1098 1700
1098 1781
1099 19
1099 1711
1099 1784
1100 27
1100 1707
1100 1785
1101 17
1101 1697
1101 1787
1102 20
1102 1709
1102 1783
1103 31
1103 1696
1103 1777
1104 1870
1104 1943
1104 2023
1105 1868
1105 1939
1105 2021
1106 1856
1106 1945
1106 2017
1107 1869
1107 1946
1107 2028
1108 1866
1108 1949
1108 2016
1109 1861
1109 1941
1109 2022
1110 1862
1110 1950
1110 2020
1111 1860
1111 1942
1111 2019
1112 1864
1112 1947
1112 2027
1113 1857
1113 1940
1113 2030
1114 1871
1114 1936
1114 2029
1115 1863
1115 1944
1115 2024
1116 1859
1116 1948
1116 2026
1117 1858
1117 1937
1117 2025
1118 1867
1118 1951
1118 2031
1119 1865
1119 1938
1119 2018
1120 26
1120 2110
1120 2181
1121 18
1121 2096
1121 2190
1122 28
1122 2108
1122 2183
1123 24
1123 2101
1123 2191
1124 19
1124 2107
1124 2176
1125 20
1125 2104
1125 2180
1126 27
1126 2105
1126 2189
1127 23
1127 2103
1127 2182
1128 17
1128 2099
1128 2185
1129 31
1129 2102
1129 2178
1130 16
1130 2098
1130 2186
1131 25
1131 2097
1131 2179
1132 22
1132 2109
1132 2184
1133 29
1133 2100
1133 2177
1134 30
1134 2111
1134 2188
1135 21
1135 2106
1135 2187
1136 2257
1136 2338
1136 2428
1137 2259
1137 2346
1137 2422
1138 2271
1138 2348
1138 2421
1139 2267
1139 2351
1139 2429
1140 2261
1140 2350
1140 2424
1141 2262
1141 2336
1141 2416
1142 2268
1142 2342
1142 2419
1143 2263
1143 2349
1143 2430
1144 2269
1144 2347
1144 2426
1145 2270
1145 2339
1145 2423
1146 2264
1146 2343
1146 2417
1147 2260
1147 2337
1147 2420
1148 2265
1148 2341
1148 2425
1149 2258
1149 2340
1149 2418
1150 2266
1150 2344
1150 2427
1151 2256
1151 2345
1151 2431
1152 35
1152 517
1152 605
1153 34
1153 524
1153 593
1154 45
1154 516
1154 596
1155 33
1155 526
1155 597
1156 47
1156 514
1156 594
1157 36
1157 518
1157 602
1158 46
1158 519
1158 601
1159 39
1159 525
1159 598
1160 41
1160 520
1160 599
1161 42
1161 513
1161 607
1162 43
1162 523
1162 603
1163 40
1163 512
1163 595
1164 32
1164 515
1164 592
1165 37
1165 521
1165 606
1166 38
1166 527
1166 600
1167 44
1167 522
1167 604
1168 681
1168 764
1168 842
1169 678
1169 754
1169 833
1170 685
1170 767
1170 845
1171 687
1171 758
1171 835
1172 683
1172 761
1172 840
1173 674
1173 756
1173 836
1174 684
1174 753
1174 841
1175 682
1175 765
1175 837
1176 686
1176 760
1176 834
1177 675
1177 762
1177 846
1178 677
1178 766
1178 844
1179 680
1179 759
1179 832
1180 673
1180 755
1180 843
1181 676
1181 752
1181 839
1182 679
1182 757
1182 847
1183 672
1183 763
1183 838
1184 41
1184 914
1184 1006
1185 38
1185 922
1185 1002
1186 32
1186 925
1186 1007
1187 44
1187 917
1187 1005
1188 33
1188 912
1188 993
1189 39
1189 923
1189 1000
1190 40
1190 918
1190 1004
1191 34
1191 920
1191 1001
1192 43
1192 919
1192 997
1193 37
1193 924
1193 996
1194 45
1194 927
1194 1003
1195 46
1195 921
1195 992
1196 35
1196 913
1196 994
1197 47
1197 926
1197 998
1198 42
1198 916
1198 999
1199 36
1199 915
1199 995
1200 1077
1200 1167
1200 1235
1201 1073
1201 1154
1201 1246
1202 1083
1202 1161
1202 1239
1203 1081
1203 1158
1203 1232
1204 1082
1204 1155
1204 1238
1205 1085
1205 1163
1205 1237
1206 1079
1206 1166
1206 1243
1207 1086
1207 1152
1207 1233
1208 1087
1208 1156
1208 1242
1209 1074
1209 1164
1209 1247
1210 1076
1210 1160
1210 1236
1211 1072
1211 1165
1211 1240
1212 1075
1212 1159
1212 1234
1213 1084
1213 1153
1213 1241
1214 1078
1214 1157
1214 1244
1215 1080
1215 1162
1215 1245
1216 38
1216 1320
1216 1405
1217 34
1217 1317
1217 1396
1218 41
1218 1318
1218 1397
1219 46
1219 1316
1219 1406
1220 44
1220 1324
1220 1394
1221 42
1221 1319
1221 1395
1222 36
1222 1312
1222 1399
1223 35
1223 1323
1223 1400
1224 37
1224 1321
1224 1407
1225 39
1225 1314
1225 1402
1226 33
1226 1327
1226 1393
1227 47
1227 1313
1227 1403
1228 32
1228 1325
1228 1404
1229 43
1229 1322
1229 1392
1230 45
1230 1326
1230 1398
1231 40
1231 1315
1231 1401
1232 1485
1232 1558
1232 1635
1233 1483
1233 1554
1233 1637
1234 1478
1234 1567
1234 1633
1235 1482
1235 1559
1235 1643
1236 1472
1236 1553
1236 1639
1237 1486
1237 1552
1237 1636
1238 1484
1238 1566
1238 1645
1239 1487
1239 1556
1239 1644
1240 1474
1240 1555
1240 1647
1241 1475
1241 1564
1241 1641
1242 1473
1242 1557
1242 1642
1243 1476
1243 1560
1243 1632
1244 1480
1244 1562
1244 1634
1245 1481
1245 1565
1245 1646
1246 1479
1246 1561
1246 1640
1247 1477
1247 1563
1247 1638
1248 41
1248 1727
1248 1797
1249 35
1249 1719
1249 1804
1250 44
1250 1725
1250 1792
1251 34
1251 1716
1251 1799
1252 43
1252 1712
1252 1795
1253 45
1253 1718
1253 1801
1254 38
1254 1721
1254 1806
1255 42
1255 1722
1255 1794
1256 36
1256 1714
1256 1802
1257 40
1257 1723
1257 1807
1258 37
1258 1720
1258 1793
1259 46
1259 1713
1259 1796
1260 39
1260 1715
1260 1803
1261 47
1261 1717
1261 1800
1262 33
1262 1724
1262 1798
1263 32
1263 1726
1263 1805
1264 1883
1264 1963
1264 2041
1265 1886
1265 1964
1265 2043
1266 1876
1266 1954
1266 2033
1267 1884
1267 1953
1267 2034
1268 1873
1268 1960
1268 2032
1269 1878
1269 1955
1269 2038
1270 1872
1270 1966
1270 2044
1271 1885
1271 1959
1271 2042
1272 1881
1272 1961
1272 2035
1273 1879
1273 1967
1273 2045
1274 1882
1274 1956
1274 2037
1275 1875
1275 1965
1275 2046
1276 1887
1276 1957
1276 2036
1277 1877
1277 1952
1277 2047
1278 1874
1278 1958
1278 2039
1279 1880
1279 1962
1279 2040
1280 47
1280 2127
1280 2193
1281 32
1281 2121
1281 2203
1282 40
1282 2126
1282 2194
1283 37
1283 2115
1283 2199
1284 34
1284 2119
1284 2207
1285 38
1285 2117
1285 2195
1286 45
1286 2118
1286 2197
1287 43
1287 2124
1287 2192
1288 35
1288 2123
1288 2204
1289 36
1289 2116
1289 2205
1290 44
1290 2122
1290 2202
1291 42
1291 2113
1291 2196
1292 39
1292 2112
1292 2200
1293 46
1293 2120
1293 2201
1294 41
1294 2125
1294 2198
1295 33
1295 2114
1295 2206
1296 2287
1296 2354
1296 2446
1297 2273
1297 2353
1297 2434
1298 2286
1298 2364
1298 2437
1299 2279
1299 2356
1299 2440
1300 2283
1300 2361
1300 2442
1301 2274
1301 2360
1301 2439
1302 2275
1302 2367
1302 2447
1303 2278
1303 2352
1303 2433
1304 2285
1304 2355
1304 2435
1305 2272
1305 2366
1305 2432
1306 2284
1306 2362
1306 2445
1307 2282
1307 2363
1307 2444
1308 2277
1308 2358
1308 2438
1309 2281
1309 2357
1309 2436
1310 2276
1310 2365
1310 2441
1311 2280
1311 2359
1311 2443
1312 52
1312 540
1312 608
1313 60
1313 543
1313 616
1314 51
1314 542
1314 613
1315 57
1315 534
1315 619
1316 59
1316 533
1316 611
1317 54
1317 541
1317 617
1318 50
1318 539
1318 622
1319 56
1319 532
1319 609
1320 62
1320 535
1320 620
1321 55
1321 528
1321 612
1322 61
1322 537
1322 614
1323 58
1323 531
1323 621
1324 48
1324 530
1324 610
1325 49
1325 529
1325 615
1326 53
1326 538
1326 623
1327 63
1327 536
1327 618
1328 697
1328 773
1328 854
1329 693
1329 774
1329 853
1330 702
1330 768
1330 851
1331 696
1331 771
1331 849
1332 694
1332 776
1332 857
1333 695
1333 777
1333 859
1334 701
1334 770
1334 855
1335 692
1335 778
1335 858
1336 700
1336 783
1336 863
1337 698
1337 779
1337 852
1338 703
1338 782
1338 860
1339 699
1339 772
1339 856
1340 689
1340 780
1340 861
1341 688
1341 781
1341 848
1342 690
1342 769
1342 850
1343 691
1343 775
1343 862
1344 59
1344 934
1344 1013
1345 49
1345 939
1345 1020
1346 51
1346 938
1346 1016
1347 56
1347 928
1347 1015
1348 58
1348 941
1348 1008
1349 63
1349 940
1349 1010
1350 62
1350 942
1350 1017
1351 55
1351 935
1351 1018
1352 53
1352 932
1352 1019
1353 54
1353 943
1353 1012
1354 61
1354 929
1354 1022
1355 57
1355 936
1355 1023
1356 48
1356 930
1356 1009
1357 60
1357 933
1357 1011
1358 50
1358 931
1358 1014
1359 52
1359 937
1359 1021
1360 1089
1360 1179
1360 1257
1361 1090
1361 1172
1361 1250
1362 1088
1362 1177
1362 1248
1363 1091
1363 1175
1363 1258
1364 1100
1364 1181
1364 1262
1365 1095
1365 1174
1365 1255
1366 1102
1366 1183
1366 1252
1367 1093
1367 1176
1367 1261
1368 1097
1368 1178
1368 1256
1369 1096
1369 1173
1369 1259
1370 1092
1370 1168
1370 1253
1371 1101
1371 1180
1371 1249
1372 1099
1372 1171
1372 1263
1373 1103
1373 1169
1373 1260
1374 1098
1374 1170
1374 1254
1375 1094
1375 1182
1375 1251
1376 56
1376 1331
1376 1409
1377 54
1377 1329
1377 1412
1378 60
1378 1330
1378 1411
1379 57
1379 1343
1379 1419
1380 49
1380 1336
1380 1417
1381 55
1381 1338
1381 1414
1382 61
1382 1342
1382 1420
1383 52
1383 1334
1383 1421
1384 59
1384 1341
1384 1418
1385 53
1385 1328
1385 1423
1386 62
1386 1332
1386 1416
1387 50
1387 1335
1387 1413
1388 58
1388 1340
1388 1408
1389 63
1389 1337
1389 1422
1390 48
1390 1333
1390 1410
1391 51
1391 1339
1391 1415
1392 1491
1392 1581
1392 1653
1393 1493
1393 1582
1393 1654
1394 1488
1394 1573
1394 1659
1395 1500
1395 1577
1395 1660
1396 1498
1396 1578
1396 1650
1397 1497
1397 1570
1397 1663
1398 1494
1398 1568
1398 1661
1399 1502
1399 1575
1399 1658
1400 1495
1400 1583
1400 1649
1401 1492
1401 1579
1401 1656
1402 1499
1402 1574
1402 1648
1403 1489
1403 1576
1403 1651
1404 1496
1404 1572
1404 1657
1405 1490
1405 1571
1405 1662
1406 1501
1406 1580
1406 1652
1407 1503
1407 1569
1407 1655
1408 60
1408 1729
1408 1822
1409 52
1409 1737
1409 1808
1410 63
1410 1728
1410 1812
1411 55
1411 1731
1411 1809
1412 54
1412 1733
1412 1817
1413 48
1413 1735
1413 1816
1414 50
1414 1743
1414 1811
1415 51
1415 1738
1415 1810
1416 56
1416 1732
1416 1820
1417 61
1417 1736
1417 1813
1418 62
1418 1730
1418 1814
1419 57
1419 1734
1419 1823
1420 59
1420 1740
1420 1815
1421 53
1421 1739
1421 1818
1422 49
1422 1741
1422 1821
1423 58
1423 1742
1423 1819
1424 1894
1424 1980
1424 2048
1425 1895
1425 1972
1425 2061
1426 1893
1426 1976
1426 2050
1427 1903
1427 1981
1427 2051
1428 1896
1428 1975
1428 2052
1429 1901
1429 1968
1429 2055
1430 1897
1430 1969
1430 2057
1431 1902
1431 1978
1431 2059
1432 1889
1432 1970
1432 2062
1433 1900
1433 1973
1433 2054
1434 1892
1434 1977
1434 2053
1435 1891
1435 1983
1435 2056
1436 1899
1436 1974
1436 2063
1437 1888
1437 1982
1437 2049
1438 1898
1438 1971
1438 2060
1439 1890
1439 1979
1439 2058
1440 59
1440 2141
1440 2211
1441 48
1441 2142
1441 2223
1442 55
1442 2133
1442 2213
1443 58
1443 2129
1443 2210
1444 61
1444 2137
1444 2208
1445 60
1445 2138
1445 2209
1446 56
1446 2128
1446 2219
1447 54
1447 2134
1447 2222
1448 53
1448 2130
1448 2220
1449 57
1449 2140
1449 2215
1450 63
1450 2136
1450 2221
1451 62
1451 2132
1451 2218
1452 52
1452 2135
1452 2214
1453 49
1453 2143
1453 2217
1454 51
1454 2131
1454 2212
1455 50
1455 2139
1455 2216
1456 2292
1456 2368
1456 2456
1457 2291
1457 2371
1457 2453
1458 2301
1458 2374
1458 2458
1459 2300
1459 2378
1459 2457
1460 2294
1460 2376
1460 2460
1461 2290
1461 2375
1461 2463
1462 2299
1462 2381
1462 2462
1463 2289
1463 2380
1463 2450
1464 2302
1464 2373
1464 2455
1465 2297
1465 2372
1465 2449
1466 2296
1466 2379
1466 2451
1467 2298
1467 2382
1467 2459
1468 2303
1468 2369
1468 2448
1469 2293
1469 2370
1469 2452
1470 2288
1470 2383
1470 2454
1471 2295
1471 2377
1471 2461
1472 75
1472 548
1472 636
1473 70
1473 546
1473 625
1474 74
1474 550
1474 630
1475 64
1475 545
1475 639
1476 67
1476 551
1476 633
1477 65
1477 556
1477 627
1478 66
1478 553
1478 638
1479 69
1479 547
1479 637
1480 78
1480 557
1480 632
1481 73
1481 554
1481 635
1482 77
1482 558
1482 624
1483 72
1483 559
1483 634
1484 79
1484 544
1484 626
1485 68
1485 555
1485 629
1486 71
1486 552
1486 631
1487 76
1487 549
1487 628
1488 708
1488 786
1488 871
1489 713
1489 796
1489 878
1490 705
1490 799
1490 869
1491 717
1491 798
1491 875
1492 714
1492 788
1492 864
1493 704
1493 784
1493 867
1494 718
1494 790
1494 866
1495 710
1495 793
1495 873
1496 711
1496 791
1496 877
1497 715
1497 795
1497 879
1498 709
1498 787
1498 865
1499 707
1499 789
1499 876
1500 719
1500 794
1500 872
1501 716
1501 792
1501 870
1502 706
1502 797
1502 868
1503 712
1503 785
1503 874
1504 75
1504 945
1504 1032
1505 68
1505 948
1505 1028
1506 72
1506 953
1506 1037
1507 77
1507 958
1507 1025
1508 74
1508 956
1508 1033
1509 65
1509 959
1509 1027
1510 78
1510 954
1510 1031
1511 71
1511 950
1511 1039
1512 69
1512 946
1512 1038
1513 67
1513 957
1513 1034
1514 64
1514 947
1514 1030
1515 70
1515 952
1515 1029
1516 73
1516 955
1516 1036
1517 79
1517 944
1517 1026
1518 66
1518 949
1518 1024
1519 76
1519 951
1519 1035
1520 1104
1520 1190
1520 1268
1521 1113
1521 1189
1521 1276
1522 1110
1522 1198
1522 1270
1523 1117
1523 1194
1523 1264
1524 1108
1524 1186
1524 1266
1525 1112
1525 1193
1525 1278
1526 1119
1526 1195
1526 1275
1527 1105
1527 1187
1527 1277
1528 1107
1528 1196
1528 1279
1529 1106
1529 1188
1529 1271
1530 1116
1530 1191
1530 1274
1531 1118
1531 1184
1531 1269
1532 1109
1532 1192
1532 1265
1533 1111
1533 1185
1533 1272
1534 1115
1534 1197
1534 1273
1535 1114
1535 1199
1535 1267
1536 66
1536 1344
1536 1426
1537 64
1537 1356
1537 1435
1538 79
1538 1354
1538 1437
1539 68
1539 1358
1539 1436
1540 75
1540 1346
1540 1430
1541 73
1541 1353
1541 1433
1542 70
1542 1359
1542 1432
1543 72
1543 1357
1543 1439
1544 67
1544 1355
1544 1425
1545 65
1545 1347
1545 1424
1546 71
1546 1351
1546 1429
1547 76
1547 1345
1547 1427
1548 74
1548 1352
1548 1434
1549 78
1549 1348
1549 1431
1550 69
1550 1349
1550 1428
1551 77
1551 1350
1551 1438
1552 1505
1552 1598
1552 1673
1553 1507
1553 1591
1553 1665
1554 1511
1554 1596
1554 1677
1555 1508
1555 1592
1555 1669
1556 1517
1556 1590
1556 1664
1557 1510
1557 1588
1557 1674
1558 1509
1558 1599
1558 1666
1559 1506
1559 1586
1559 1671
1560 1519
1560 1594
1560 1668
1561 1518
1561 1584
1561 1672
1562 1512
1562 1585
1562 1678
1563 1513
1563 1597
1563 1667
1564 1514
1564 1587
1564 1675
1565 1516
1565 1589
1565 1679
1566 1504
1566 1595
1566 1670
1567 1515
1567 1593
1567 1676
1568 73
1568 1746
1568 1827
1569 68
1569 1753
1569 1839
1570 75
1570 1756
1570 1830
1571 74
1571 1757
1571 1834
1572 69
1572 1747
1572 1837
1573 67
1573 1751
1573 1829
1574 65
1574 1758
1574 1836
1575 79
1575 1745
1575 1826
1576 70
1576 1749
1576 1835
1577 76
1577 1755
1577 1824
1578 66
1578 1752
1578 1833
1579 71
1579 1748
1579 1828
1580 64
1580 1754
1580 1825
1581 77
1581 1759
1581 1831
1582 72
1582 1750
1582 1838
1583 78
1583 1744
1583 1832
1584 1912
1584 1995
1584 2072
1585 1918
1585 1999
1585 2068
1586 1917
1586 1985
1586 2064
1587 1904
1587 1992
1587 2075
1588 1916
1588 1987
1588 2071
1589 1907
1589 1984
1589 2067
1590 1910
1590 1990
1590 2076
1591 1909
1591 1994
1591 2065
1592 1919
1592 1998
1592 2073
1593 1906
1593 1993
1593 2079
1594 1915
1594 1988
1594 2078
1595 1908
1595 1989
1595 2066
1596 1914
1596 1997
1596 2069
1597 1911
1597 1991
1597 2070
1598 1913
1598 1986
1598 2077
1599 1905
1599 1996
1599 2074
1600 78
1600 2147
1600 2233
1601 66
1601 2159
1601 2231
1602 69
1602 2144
1602 2224
1603 68
1603 2146
1603 2225
1604 77
1604 2157
1604 2235
1605 73
1605 2148
1605 2227
1606 79
1606 2149
1606 2238
1607 71
1607 2151
1607 2232
1608 67
1608 2158
1608 2226
1609 72
1609 2152
1609 2230
1610 75
1610 2155
1610 2237
1611 76
1611 2150
1611 2236
1612 65
1612 2153
1612 2234
1613 70
1613 2154
1613 2229
1614 64
1614 2145
1614 2239
1615 74
1615 2156
1615 2228
1616 2309
1616 2395
1616 2476
1617 2313
1617 2398
1617 2465
1618 2306
1618 2386
1618 2477
1619 2307
1619 2387
1619 2469
1620 2308
1620 2388
1620 2479
1621 2310
1621 2394
1621 2467
1622 2311
1622 2397
1622 2474
1623 2312
1623 2392
1623 2464
1624 2305
1624 2396
1624 2475
1625 2319
1625 2391
1625 2478
1626 2314
1626 2390
1626 2473
1627 2317
1627 2384
1627 2472
1628 2316
1628 2389
1628 2470
1629 2315
1629 2385
1629 2471
1630 2318
1630 2399
1630 2468
1631 2304
1631 2393
1631 2466
1632 94
1632 566
1632 647
1633 84
1633 574
1633 646
1634 81
1634 560
1634 655
1635 88
1635 575
1635 649
1636 93
1636 562
1636 642
1637 87
1637 573
1637 654
1638 90
1638 561
1638 650
1639 80
1639 567
1639 645
1640 85
1640 565
1640 652
1641 89
1641 572
1641 643
1642 82
1642 563
1642 653
1643 86
1643 568
1643 641
1644 91
1644 570
1644 651
1645 95
1645 569
1645 640
1646 92
1646 571
1646 644
1647 83
1647 564
1647 648
1648 721
1648 814
1648 884
1649 722
1649 815
1649 888
1650 731
1650 810
1650 890
1651 725
1651 805
1651 889
1652 727
1652 806
1652 894
1653 728
1653 804
1653 881
1654 729
1654 800
1654 880
1655 726
1655 802
1655 885
1656 730
1656 803
1656 886
1657 723
1657 811
1657 895
1658 734
1658 807
1658 891
1659 724
1659 808
1659 892
1660 732
1660 812
1660 893
1661 720
1661 809
1661 887
1662 733
1662 801
1662 882
1663 735
1663 813
1663 883
1664 92
1664 969
1664 1051
1665 93
1665 972
1665 1048
1666 89
1666 962
1666 1050
1667 82
1667 973
1667 1041
1668 81
1668 960
1668 1052
1669 85
1669 964
1669 1040
1670 80
1670 971
1670 1055
1671 87
1671 961
1671 1044
1672 83
1672 967
1672 1045
1673 95
1673 965
1673 1047
1674 90
1674 968
1674 1042
1675 91
1675 974
1675 1049
1676 94
1676 975
1676 1054
1677 88
1677 970
1677 1046
1678 84
1678 963
1678 1053
1679 86
1679 966
1679 1043
1680 1128
1680 1211
1680 1295
1681 1126
1681 1203
1681 1286
1682 1121
1682 1207
1682 1281
1683 1131
1683 1208
1683 1293
1684 1132
1684 1209
1684 1288
1685 1134
1685 1212
1685 1284
1686 1123
1686 1206
1686 1289
1687 1135
1687 1214
1687 1290
1688 1122
1688 1210
1688 1287
1689 1130
1689 1202
1689 1285
1690 1124
1690 1204
1690 1282
1691 1120
1691 1215
1691 1283
1692 1129
1692 1213
1692 1280
1693 1133
1693 1205
1693 1292
1694 1125
1694 1200
1694 1294
1695 1127
1695 1201
1695 1291
1696 81
1696 1372
1696 1440
1697 87
1697 1367
1697 1447
1698 95
1698 1375
1698 1445
1699 83
1699 1361
1699 1446
1700 93
1700 1360
1700 1441
1701 85
1701 1363
1701 1453
1702 80
1702 1369
1702 1454
1703 91
1703 1370
1703 1450
1704 94
1704 1373
1704 1442
1705 89
1705 1362
1705 1455
1706 90
1706 1364
1706 1451
1707 92
1707 1374
1707 1448
1708 86
1708 1366
1708 1452
1709 88
1709 1371
1709 1444
1710 84
1710 1368
1710 1443
1711 82
1711 1365
1711 1449
1712 1527
1712 1604
1712 1685
1713 1526
1713 1613
1713 1684
1714 1521
1714 1608
1714 1692
1715 1529
1715 1600
1715 1682
1716 1528
1716 1602
1716 1680
1717 1524
1717 1614
1717 1695
1718 1525
1718 1607
1718 1687
1719 1534
1719 1609
1719 1688
1720 1523
1720 1601
1720 1691
1721 1532
1721 1605
1721 1690
1722 1520
1722 1615
1722 1694
1723 1533
1723 1606
1723 1681
1724 1530
1724 1603
1724 1683
1725 1531
1725 1610
1725 1689
1726 1535
1726 1612
1726 1686
1727 1522
1727 1611
1727 1693
1728 86
1728 1765
1728 1853
1729 83
1729 1760
1729 1841
1730 90
1730 1770
1730 1843
1731 89
1731 1775
1731 1840
1732 80
1732 1771
1732 1852
1733 95
1733 1767
1733 1851
1734 94
1734 1761
1734 1844
1735 93
1735 1773
1735 1848
1736 87
1736 1762
1736 1854
1737 82
1737 1764
1737 1842
1738 84
1738 1772
1738 1849
1739 92
1739 1768
1739 1847
1740 91
1740 1769
1740 1845
1741 85
1741 1763
1741 1850
1742 88
1742 1766
1742 1855
1743 81
1743 1774
1743 1846
1744 1935
1744 2005
1744 2087
1745 1920
1745 2006
1745 2092
1746 1933
1746 2001
1746 2090
1747 1927
1747 2008
1747 2088
1748 1921
1748 2015
1748 2084
1749 1924
1749 2002
1749 2093
1750 1934
1750 2014
1750 2091
1751 1929
1751 2004
1751 2089
1752 1925
1752 2012
1752 2082
1753 1931
1753 2009
1753 2095
1754 1926
1754 2000
1754 2081
1755 1922
1755 2013
1755 2086
1756 1930
1756 2007
1756 2080
1757 1923
1757 2003
1757 2083
1758 1928
1758 2011
1758 2094
1759 1932
1759 2010
1759 2085
1760 85
1760 2172
1760 2248
1761 90
1761 2162
1761 2254
1762 82
1762 2164
1762 2247
1763 83
1763 2169
1763 2251
1764 81
1764 2174
1764 2246
1765 95
1765 2173
1765 2242
1766 88
1766 2163
1766 2244
1767 92
1767 2165
1767 2249
1768 93
1768 2168
1768 2255
1769 91
1769 2166
1769 2243
1770 87
1770 2170
1770 2245
1771 84
1771 2167
1771 2241
1772 94
1772 2171
1772 2253
1773 86
1773 2161
1773 2250
1774 89
1774 2160
1774 2252
1775 80
1775 2175
1775 2240
1776 2321
1776 2402
1776 2487
1777 2322
1777 2409
1777 2483
1778 2324
1778 2401
1778 2486
1779 2331
1779 2407
1779 2495
1780 2325
1780 2405
1780 2491
1781 2332
1781 2412
1781 2481
1782 2335
1782 2415
1782 2482
1783 2328
1783 2403
1783 2485
1784 2320
1784 2414
1784 2492
1785 2334
1785 2406
1785 2494
1786 2330
1786 2408
1786 2484
1787 2333
1787 2404
1787 2488
1788 2329
1788 2400
1788 2490
1789 2323
1789 2413
1789 2489
1790 2326
1790 2410
1790 2480
1791 2327
1791 2411
1791 2493
1792 431
1792 509
1792 1294
1793 425
1793 499
1793 1293
1794 420
1794 502
1794 1282
1795 417
1795 510
1795 1295
1796 421
1796 507
1796 1290
1797 424
1797 508
1797 1285
1798 418
1798 496
1798 1281
1799 427
1799 501
1799 1287
1800 419
1800 503
1800 1283
1801 426
1801 498
1801 1291
1802 423
1802 506
1802 1286
1803 416
1803 500
1803 1292
1804 422
1804 504
1804 1284
1805 430
1805 511
1805 1288
1806 429
1806 505
1806 1289
1807 428
1807 497
1807 1280
1808 1594
1808 1896
1808 2192
1809 1584
1809 1902
1809 2196
1810 1588
1810 1895
1810 2206
1811 1599
1811 1898
1811 2203
1812 1586
1812 1889
1812 2204
1813 1597
1813 1899
1813 2199
1814 1589
1814 1888
1814 2201
1815 1590
1815 1897
1815 2195
1816 1598
1816 1903
1816 2197
1817 1595
1817 1892
1817 2207
1818 1585
1818 1891
1818 2198
1819 1592
1819 1893
1819 2205
1820 1591
1820 1901
1820 2202
1821 1593
1821 1890
1821 2194
1822 1587
1822 1894
1822 2200
1823 1596
1823 1900
1823 2193
1824 446
1824 576
1824 960
1825 445
1825 579
1825 968
1826 447
1826 591
1826 974
1827 438
1827 578
1827 961
1828 439
1828 588
1828 972
1829 444
1829 583
1829 975
1830 441
1830 586
1830 962
1831 433
1831 580
1831 963
1832 435
1832 589
1832 970
1833 432
1833 581
1833 966
1834 437
1834 577
1834 973
1835 443
1835 585
1835 964
1836 440
1836 590
1836 971
1837 436
1837 587
1837 969
1838 442
1838 582
1838 967
1839 434
1839 584
1839 965
1840 1669
1840 1972
1840 2278
1841 1664
1841 1983
1841 2286
1842 1676
1842 1980
1842 2277
1843 1671
1843 1978
1843 2283
1844 1670
1844 1976
1844 2275
1845 1666
1845 1977
1845 2276
1846 1667
1846 1979
1846 2272
1847 1674
1847 1970
1847 2284
1848 1677
1848 1982
1848 2273
1849 1678
1849 1975
1849 2281
1850 1673
1850 1968
1850 2287
1851 1668
1851 1973
1851 2285
1852 1672
1852 1981
1852 2282
1853 1679
1853 1969
1853 2279
1854 1675
1854 1971
1854 2280
1855 1665
1855 1974
1855 2274
1856 448
1856 671
1856 1054
1857 450
1857 665
1857 1045
1858 457
1858 663
1858 1042
1859 460
1859 661
1859 1041
1860 459
1860 657
1860 1050
1861 462
1861 659
1861 1049
1862 461
1862 662
1862 1040
1863 454
1863 666
1863 1046
1864 449
1864 668
1864 1053
1865 451
1865 656
1865 1043
1866 455
1866 667
1866 1052
1867 453
1867 660
1867 1048
1868 456
1868 670
1868 1055
1869 463
1869 669
1869 1051
1870 458
1870 658
1870 1044
1871 452
1871 664
1871 1047
1872 1351
1872 2055
1872 2355
1873 1355
1873 2050
1873 2358
1874 1348
1874 2056
1874 2366
1875 1350
1875 2057
1875 2364
1876 1349
1876 2048
1876 2360
1877 1345
1877 2060
1877 2365
1878 1358
1878 2061
1878 2359
1879 1353
1879 2054
1879 2361
1880 1344
1880 2052
1880 2363
1881 1347
1881 2051
1881 2353
1882 1357
1882 2053
1882 2352
1883 1356
1883 2049
1883 2357
1884 1346
1884 2059
1884 2362
1885 1354
1885 2062
1885 2367
1886 1359
1886 2058
1886 2356
1887 1352
1887 2063
1887 2354
1888 475
1888 740
1888 1130
1889 472
1889 739
1889 1131
1890 464
1890 741
1890 1132
1891 476
1891 738
1891 1121
1892 474
1892 749
1892 1133
1893 479
1893 751
1893 1128
1894 471
1894 747
1894 1123
1895 478
1895 743
1895 1122
1896 467
1896 744
1896 1124
1897 469
1897 746
1897 1126
1898 473
1898 736
1898 1129
1899 470
1899 750
1899 1120
1900 477
1900 748
1900 1135
1901 466
1901 745
1901 1134
1902 465
1902 742
1902 1127
1903 468
1903 737
1903 1125
1904 1439
1904 1737
1904 2444
1905 1425
1905 1731
1905 2436
1906 1427
1906 1735
1906 2446
1907 1431
1907 1736
1907 2447
1908 1434
1908 1732
1908 2439
1909 1430
1909 1740
1909 2432
1910 1432
1910 1743
1910 2445
1911 1428
1911 1728
1911 2440
1912 1438
1912 1741
1912 2442
1913 1429
1913 1738
1913 2443
1914 1435
1914 1733
1914 2435
1915 1437
1915 1742
1915 2437
1916 1433
1916 1729
1916 2434
1917 1424
1917 1730
1917 2441
1918 1426
1918 1734
1918 2433
1919 1436
1919 1739
1919 2438
1920 482
1920 825
1920 1201
1921 480
1921 824
1921 1212
1922 495
1922 819
1922 1206
1923 487
1923 820
1923 1215
1924 484
1924 818
1924 1205
1925 493
1925 829
1925 1203
1926 485
1926 826
1926 1210
1927 489
1927 828
1927 1213
1928 490
1928 817
1928 1200
1929 494
1929 831
1929 1208
1930 488
1930 830
1930 1214
1931 492
1931 827
1931 1211
1932 481
1932 822
1932 1202
1933 486
1933 823
1933 1207
1934 491
1934 821
1934 1204
1935 483
1935 816
1935 1209
1936 1514
1936 1814
1936 2120
1937 1504
1937 1819
1937 2112
1938 1508
1938 1815
1938 2118
1939 1507
1939 1812
1939 2113
1940 1506
1940 1818
1940 2119
1941 1512
1941 1813
1941 2116
1942 1510
1942 1822
1942 2115
1943 1515
1943 1809
1943 2114
1944 1518
1944 1823
1944 2121
1945 1513
1945 1808
1945 2122
1946 1517
1946 1821
1946 2126
1947 1511
1947 1817
1947 2125
1948 1505
1948 1820
1948 2124
1949 1516
1949 1811
1949 2117
1950 1519
1950 1816
1950 2123
1951 1509
1951 1810
1951 2127
1952 436
1952 527
1952 1216
1953 443
1953 513
1953 1227
1954 440
1954 523
1954 1219
1955 437
1955 512
1955 1220
1956 447
1956 525
1956 1229
1957 433
1957 524
1957 1225
1958 434
1958 521
1958 1230
1959 438
1959 516
1959 1224
1960 444
1960 519
1960 1222
1961 439
1961 526
1961 1231
1962 442
1962 520
1962 1228
1963 441
1963 515
1963 1221
1964 435
1964 518
1964 1217
1965 432
1965 514
1965 1218
1966 446
1966 522
1966 1226
1967 445
1967 517
1967 1223
1968 1600
1968 1910
1968 2222
1969 1606
1969 1916
1969 2218
1970 1608
1970 1907
1970 2215
1971 1609
1971 1914
1971 2214
1972 1604
1972 1917
1972 2208
1973 1603
1973 1912
1973 2209
1974 1614
1974 1909
1974 2220
1975 1613
1975 1918
1975 2210
1976 1615
1976 1915
1976 2211
1977 1605
1977 1919
1977 2219
1978 1607
1978 1913
1978 2216
1979 1601
1979 1906
1979 2213
1980 1612
1980 1904
1980 2223
1981 1610
1981 1911
1981 2212
1982 1611
1982 1908
1982 2221
1983 1602
1983 1905
1983 2217
1984 459
1984 598
1984 908
1985 450
1985 595
1985 897
1986 449
1986 603
1986 896
1987 451
1987 594
1987 906
1988 461
1988 604
1988 905
1989 455
1989 599
1989 898
1990 458
1990 592
1990 911
1991 457
1991 607
1991 909
1992 454
1992 596
1992 907
1993 452
1993 593
1993 910
1994 453
1994 597
1994 900
1995 456
1995 602
1995 904
1996 460
1996 605
1996 902
1997 462
1997 606
1997 901
1998 448
1998 600
1998 903
1999 463
1999 601
1999 899
2000 1684
2000 1997
2000 2292
2001 1690
2001 1998
2001 2300
2002 1688
2002 1992
2002 2303
2003 1691
2003 1985
2003 2296
2004 1687
2004 1994
2004 2291
2005 1692
2005 1990
2005 2289
2006 1693
2006 1986
2006 2298
2007 1683
2007 1988
2007 2297
2008 1680
2008 1984
2008 2294
2009 1686
2009 1993
2009 2301
2010 1689
2010 1999
2010 2302
2011 1695
2011 1989
2011 2299
2012 1685
2012 1995
2012 2288
2013 1694
2013 1987
2013 2290
2014 1681
2014 1996
2014 2295
2015 1682
2015 1991
2015 2293
2016 474
2016 681
2016 985
2017 470
2017 678
2017 981
2018 478
2018 685
2018 980
2019 473
2019 673
2019 983
2020 475
2020 676
2020 987
2021 466
2021 682
2021 979
2022 468
2022 677
2022 988
2023 471
2023 684
2023 976
2024 476
2024 683
2024 982
2025 469
2025 674
2025 986
2026 477
2026 679
2026 977
2027 464
2027 672
2027 978
2028 472
2028 675
2028 991
2029 479
2029 686
2029 989
2030 465
2030 687
2030 984
2031 467
2031 680
2031 990
2032 1367
2032 2077
2032 2368
2033 1363
2033 2068
2033 2373
2034 1365
2034 2078
2034 2382
2035 1375
2035 2076
2035 2378
2036 1362
2036 2073
2036 2371
2037 1366
2037 2066
2037 2377
2038 1364
2038 2074
2038 2380
2039 1369
2039 2072
2039 2381
2040 1361
2040 2071
2040 2369
2041 1373
2041 2070
2041 2372
2042 1372
2042 2075
2042 2379
2043 1370
2043 2069
2043 2370
2044 1368
2044 2065
2044 2383
2045 1371
2045 2067
2045 2374
2046 1360
2046 2079
2046 2376
2047 1374
2047 2064
2047 2375
2048 492
2048 764
2048 1064
2049 484
2049 763
2049 1060
2050 483
2050 762
2050 1062
2051 489
2051 765
2051 1067
2052 494
2052 767
2052 1065
2053 482
2053 753
2053 1061
2054 488
2054 752
2054 1070
2055 486
2055 760
2055 1069
2056 493
2056 759
2056 1066
2057 495
2057 761
2057 1068
2058 480
2058 766
2058 1059
2059 490
2059 755
2059 1057
2060 491
2060 754
2060 1058
2061 481
2061 758
2061 1063
2062 487
2062 756
2062 1056
2063 485
2063 757
2063 1071
2064 1445
2064 1749
2064 2448
2065 1452
2065 1759
2065 2450
2066 1450
2066 1755
2066 2451
2067 1455
2067 1753
2067 2454
2068 1440
2068 1752
2068 2461
2069 1441
2069 1751
2069 2459
2070 1454
2070 1757
2070 2456
2071 1446
2071 1748
2071 2463
2072 1448
2072 1758
2072 2449
2073 1444
2073 1756
2073 2457
2074 1442
2074 1746
2074 2458
2075 1443
2075 1745
2075 2452
2076 1449
2076 1744
2076 2460
2077 1447
2077 1754
2077 2462
2078 1453
2078 1750
2078 2455
2079 1451
2079 1747
2079 2453
2080 417
2080 836
2080 1136
2081 427
2081 832
2081 1143
2082 421
2082 835
2082 1146
2083 426
2083 840
2083 1141
2084 429
2084 846
2084 1138
2085 431
2085 847
2085 1151
2086 416
2086 837
2086 1147
2087 418
2087 839
2087 1140
2088 422
2088 834
2088 1150
2089 428
2089 843
2089 1149
2090 423
2090 844
2090 1142
2091 425
2091 838
2091 1148
2092 420
2092 842
2092 1145
2093 430
2093 845
2093 1137
2094 424
2094 841
2094 1144
2095 419
2095 833
2095 1139
2096 1521
2096 1834
2096 2140
2097 1523
2097 1835
2097 2130
2098 1524
2098 1828
2098 2138
2099 1530
2099 1832
2099 2143
2100 1528
2100 1824
2100 2137
2101 1522
2101 1838
2101 2141
2102 1525
2102 1833
2102 2131
2103 1520
2103 1826
2103 2128
2104 1534
2104 1839
2104 2139
2105 1532
2105 1825
2105 2136
2106 1535
2106 1829
2106 2134
2107 1531
2107 1836
2107 2132
2108 1527
2108 1827
2108 2129
2109 1533
2109 1830
2109 2133
2110 1529
2110 1837
2110 2142
2111 1526
2111 1831
2111 2135
2112 460
2112 536
2112 1243
2113 463
2113 541
2113 1238
2114 453
2114 535
2114 1244
2115 450
2115 537
2115 1245
2116 449
2116 531
2116 1239
2117 451
2117 542
2117 1233
2118 456
2118 540
2118 1242
2119 461
2119 538
2119 1247
2120 458
2120 534
2120 1246
2121 462
2121 543
2121 1234
2122 454
2122 529
2122 1232
2123 448
2123 532
2123 1235
2124 452
2124 530
2124 1237
2125 455
2125 539
2125 1241
2126 457
2126 533
2126 1236
2127 459
2127 528
2127 1240
2128 1536
2128 1926
2128 2225
2129 1544
2129 1927
2129 2236
2130 1546
2130 1925
2130 2230
2131 1540
2131 1921
2131 2239
2132 1547
2132 1931
2132 2231
2133 1549
2133 1935
2133 2229
2134 1550
2134 1929
2134 2237
2135 1537
2135 1923
2135 2227
2136 1539
2136 1930
2136 2226
2137 1548
2137 1922
2137 2232
2138 1541
2138 1928
2138 2234
2139 1538
2139 1933
2139 2224
2140 1542
2140 1920
2140 2228
2141 1545
2141 1924
2141 2235
2142 1551
2142 1934
2142 2233
2143 1543
2143 1932
2143 2238
2144 468
2144 608
2144 917
2145 478
2145 622
2145 919
2146 466
2146 616
2146 924
2147 467
2147 609
2147 915
2148 472
2148 614
2148 922
2149 465
2149 610
2149 913
2150 479
2150 619
2150 918
2151 471
2151 612
2151 914
2152 474
2152 613
2152 925
2153 476
2153 618
2153 926
2154 477
2154 615
2154 920
2155 470
2155 623
2155 916
2156 475
2156 620
2156 921
2157 469
2157 611
2157 912
2158 464
2158 617
2158 927
2159 473
2159 621
2159 923
2160 1627
2160 2003
2160 2318
2161 1628
2161 2001
2161 2306
2162 1623
2162 2014
2162 2309
2163 1629
2163 2004
2163 2314
2164 1616
2164 2002
2164 2316
2165 1619
2165 2007
2165 2307
2166 1618
2166 2013
2166 2317
2167 1617
2167 2010
2167 2319
2168 1631
2168 2000
2168 2304
2169 1626
2169 2009
2169 2310
2170 1630
2170 2015
2170 2311
2171 1624
2171 2008
2171 2312
2172 1622
2172 2005
2172 2308
2173 1621
2173 2011
2173 2315
2174 1625
2174 2012
2174 2313
2175 1620
2175 2006
2175 2305
2176 494
2176 697
2176 994
2177 482
2177 692
2177 1003
2178 480
2178 700
2178 998
2179 491
2179 702
2179 1001
2180 488
2180 701
2180 1004
2181 492
2181 690
2181 992
2182 495
2182 698
2182 999
2183 481
2183 688
2183 1000
2184 485
2184 693
2184 993
2185 486
2185 691
2185 997
2186 489
2186 696
2186 1002
2187 487
2187 695
2187 996
2188 483
2188 703
2188 995
2189 484
2189 689
2189 1005
2190 490
2190 694
2190 1006
2191 493
2191 699
2191 1007
2192 1310
2192 2092
2192 2387
2193 1304
2193 2093
2193 2396
2194 1296
2194 2083
2194 2397
2195 1305
2195 2095
2195 2398
2196 1298
2196 2081
2196 2389
2197 1306
2197 2087
2197 2390
2198 1300
2198 2080
2198 2395
2199 1308
2199 2089
2199 2384
2200 1303
2200 2086
2200 2392
2201 1297
2201 2088
2201 2385
2202 1309
2202 2082
2202 2388
2203 1311
2203 2094
2203 2386
2204 1307
2204 2084
2204 2391
2205 1299
2205 2090
2205 2399
2206 1302
2206 2091
2206 2394
2207 1301
2207 2085
2207 2393
2208 430
2208 782
2208 1082
2209 429
2209 769
2209 1085
2210 418
2210 779
2210 1077
2211 416
2211 770
2211 1076
2212 423
2212 771
2212 1084
2213 421
2213 776
2213 1072
2214 426
2214 778
2214 1081
2215 431
2215 773
2215 1075
2216 422
2216 774
2216 1079
2217 427
2217 775
2217 1080
2218 428
2218 781
2218 1083
2219 425
2219 780
2219 1087
2220 420
2220 772
2220 1074
2221 424
2221 777
2221 1078
2222 417
2222 768
2222 1073
2223 419
2223 783
2223 1086
2224 1379
2224 1769
2224 2478
2225 1384
2225 1765
2225 2475
2226 1387
2226 1775
2226 2476
2227 1388
2227 1770
2227 2469
2228 1376
2228 1768
2228 2470
2229 1383
2229 1771
2229 2464
2230 1381
2230 1774
2230 2474
2231 1386
2231 1773
2231 2477
2232 1385
2232 1766
2232 2472
2233 1382
2233 1772
2233 2473
2234 1389
2234 1760
2234 2471
2235 1380
2235 1762
2235 2466
2236 1391
2236 1763
2236 2467
2237 1378
2237 1767
2237 2465
2238 1390
2238 1764
2238 2479
2239 1377
2239 1761
2239 2468
2240 447
2240 853
2240 1164
2241 434
2241 856
2241 1165
2242 441
2242 862
2242 1167
2243 438
2243 860
2243 1158
2244 437
2244 855
2244 1166
2245 440
2245 859
2245 1156
2246 445
2246 861
2246 1157
2247 435
2247 851
2247 1163
2248 446
2248 863
2248 1159
2249 436
2249 849
2249 1153
2250 432
2250 852
2250 1162
2251 442
2251 850
2251 1152
2252 433
2252 857
2252 1160
2253 443
2253 848
2253 1154
2254 439
2254 854
2254 1155
2255 444
2255 858
2255 1161
2256 1465
2256 1852
2256 2159
2257 1460
2257 1843
2257 2158
2258 1468
2258 1841
2258 2156
2259 1462
2259 1855
2259 2151
2260 1456
2260 1848
2260 2157
2261 1461
2261 1846
2261 2144
2262 1470
2262 1842
2262 2148
2263 1459
2263 1840
2263 2147
2264 1466
2264 1854
2264 2155
2265 1457
2265 1850
2265 2145
2266 1471
2266 1845
2266 2146
2267 1469
2267 1851
2267 2150
2268 1463
2268 1849
2268 2152
2269 1464
2269 1847
2269 2154
2270 1467
2270 1844
2270 2153
2271 1458
2271 1853
2271 2149
2272 474
2272 547
2272 1252
2273 468
2273 550
2273 1261
2274 464
2274 556
2274 1258
2275 466
2275 549
2275 1249
2276 465
2276 546
2276 1248
2277 479
2277 557
2277 1256
2278 473
2278 552
2278 1250
2279 476
2279 545
2279 1257
2280 475
2280 559
2280 1262
2281 471
2281 548
2281 1255
2282 470
2282 553
2282 1254
2283 477
2283 544
2283 1263
2284 467
2284 551
2284 1259
2285 478
2285 554
2285 1260
2286 469
2286 555
2286 1253
2287 472
2287 558
2287 1251
2288 1567
2288 1867
2288 2248
2289 1554
2289 1868
2289 2240
2290 1553
2290 1869
2290 2249
2291 1555
2291 1860
2291 2251
2292 1561
2292 1859
2292 2247
2293 1562
2293 1861
2293 2253
2294 1564
2294 1865
2294 2252
2295 1565
2295 1862
2295 2244
2296 1563
2296 1870
2296 2255
2297 1556
2297 1863
2297 2250
2298 1559
2298 1864
2298 2246
2299 1566
2299 1871
2299 2241
2300 1552
2300 1856
2300 2242
2301 1557
2301 1857
2301 2245
2302 1560
2302 1866
2302 2243
2303 1558
2303 1858
2303 2254
2304 481
2304 631
2304 931
2305 486
2305 634
2305 938
2306 483
2306 633
2306 933
2307 484
2307 636
2307 941
2308 482
2308 635
2308 934
2309 490
2309 629
2309 943
2310 495
2310 624
2310 939
2311 485
2311 625
2311 929
2312 487
2312 637
2312 935
2313 491
2313 639
2313 936
2314 492
2314 630
2314 928
2315 494
2315 628
2315 932
2316 489
2316 632
2316 942
2317 493
2317 627
2317 940
2318 488
2318 638
2318 937
2319 480
2319 626
2319 930
2320 1634
2320 1949
2320 2327
2321 1632
2321 1943
2321 2333
2322 1643
2322 1942
2322 2321
2323 1638
2323 1951
2323 2331
2324 1633
2324 1950
2324 2329
2325 1637
2325 1948
2325 2330
2326 1640
2326 1936
2326 2332
2327 1644
2327 1945
2327 2320
2328 1639
2328 1947
2328 2334
2329 1642
2329 1940
2329 2322
2330 1646
2330 1944
2330 2325
2331 1636
2331 1939
2331 2323
2332 1641
2332 1938
2332 2328
2333 1645
2333 1946
2333 2326
2334 1635
2334 1941
2334 2324
2335 1647
2335 1937
2335 2335
2336 425
2336 715
2336 1021
2337 430
2337 706
2337 1011
2338 419
2338 713
2338 1013
2339 416
2339 717
2339 1010
2340 422
2340 710
2340 1009
2341 417
2341 716
2341 1017
2342 424
2342 719
2342 1015
2343 431
2343 704
2343 1019
2344 423
2344 711
2344 1020
2345 420
2345 709
2345 1023
2346 428
2346 714
2346 1008
2347 427
2347 708
2347 1022
2348 421
2348 705
2348 1016
2349 418
2349 712
2349 1012
2350 429
2350 718
2350 1018
2351 426
2351 707
2351 1014
2352 1327
2352 2021
2352 2401
2353 1325
2353 2025
2353 2405
2354 1312
2354 2020
2354 2402
2355 1320
2355 2026
2355 2415
2356 1313
2356 2027
2356 2403
2357 1315
2357 2028
2357 2413
2358 1322
2358 2018
2358 2406
2359 1314
2359 2016
2359 2410
2360 1324
2360 2029
2360 2404
2361 1326
2361 2019
2361 2407
2362 1323
2362 2030
2362 2412
2363 1321
2363 2023
2363 2400
2364 1317
2364 2031
2364 2408
2365 1319
2365 2024
2365 2409
2366 1318
2366 2022
2366 2414
2367 1316
2367 2017
2367 2411
2368 435
2368 786
2368 1094
2369 436
2369 794
2369 1096
2370 445
2370 792
2370 1101
2371 447
2371 790
2371 1097
2372 440
2372 788
2372 1089
2373 434
2373 787
2373 1102
2374 439
2374 796
2374 1093
2375 446
2375 785
2375 1088
2376 444
2376 799
2376 1091
2377 437
2377 795
2377 1092
2378 441
2378 798
2378 1090
2379 438
2379 797
2379 1098
2380 433
2380 793
2380 1099
2381 443
2381 784
2381 1100
2382 442
2382 789
2382 1103
2383 432
2383 791
2383 1095
2384 1403
2384 1702
2384 2481
2385 1407
2385 1709
2385 2488
2386 1395
2386 1699
2386 2490
2387 1397
2387 1700
2387 2486
2388 1396
2388 1698
2388 2493
2389 1402
2389 1705
2389 2485
2390 1393
2390 1710
2390 2487
2391 1399
2391 1701
2391 2482
2392 1404
2392 1704
2392 2484
2393 1400
2393 1708
2393 2483
2394 1392
2394 1707
2394 2480
2395 1405
2395 1697
2395 2492
2396 1398
2396 1703
2396 2494
2397 1401
2397 1706
2397 2495
2398 1406
2398 1696
2398 2489
2399 1394
2399 1711
2399 2491
2400 459
2400 866
2400 1178
2401 463
2401 864
2401 1181
2402 453
2402 871
2402 1183
2403 451
2403 879
2403 1169
2404 457
2404 873
2404 1172
2405 450
2405 867
2405 1180
2406 460
2406 872
2406 1176
2407 454
2407 877
2407 1182
2408 449
2408 870
2408 1179
2409 458
2409 878
2409 1174
2410 456
2410 869
2410 1175
2411 455
2411 865
2411 1170
2412 452
2412 868
2412 1171
2413 462
2413 875
2413 1177
2414 461
2414 874
2414 1173
2415 448
2415 876
2415 1168
2416 1477
2416 1779
2416 2172
2417 1474
2417 1786
2417 2164
2418 1479
2418 1789
2418 2168
2419 1472
2419 1788
2419 2162
2420 1487
2420 1777
2420 2170
2421 1482
2421 1778
2421 2165
2422 1483
2422 1790
2422 2173
2423 1478
2423 1782
2423 2167
2424 1476
2424 1781
2424 2166
2425 1484
2425 1785
2425 2169
2426 1485
2426 1784
2426 2161
2427 1486
2427 1791
2427 2160
2428 1473
2428 1776
2428 2163
2429 1480
2429 1780
2429 2175
2430 1475
2430 1787
2430 2174
2431 1481
2431 1783
2431 2171
2432 486
2432 567
2432 1277
2433 488
2433 566
2433 1266
2434 480
2434 560
2434 1275
2435 487
2435 574
2435 1268
2436 490
2436 570
2436 1273
2437 481
2437 571
2437 1272
2438 483
2438 562
2438 1278
2439 482
2439 564
2439 1279
2440 493
2440 569
2440 1264
2441 492
2441 565
2441 1267
2442 485
2442 573
2442 1274
2443 484
2443 561
2443 1276
2444 494
2444 575
2444 1265
2445 491
2445 572
2445 1270
2446 495
2446 563
2446 1271
2447 489
2447 568
2447 1269
2448 1580
2448 1887
2448 2183
2449 1571
2449 1886
2449 2190
2450 1582
2450 1880
2450 2178
2451 1578
2451 1874
2451 2188
2452 1574
2452 1885
2452 2182
2453 1576
2453 1877
2453 2191
2454 1569
2454 1875
2454 2187
2455 1583
2455 1873
2455 2181
2456 1572
2456 1872
2456 2180
2457 1570
2457 1883
2457 2184
2458 1581
2458 1876
2458 2176
2459 1575
2459 1878
2459 2185
2460 1568
2460 1879
2460 2179
2461 1577
2461 1884
2461 2186
2462 1573
2462 1881
2462 2189
2463 1579
2463 1882
2463 2177
2464 426
2464 647
2464 946
2465 418
2465 640
2465 944
2466 421
2466 644
2466 955
2467 431
2467 651
2467 945
2468 427
2468 650
2468 954
2469 429
2469 654
2469 959
2470 423
2470 645
2470 958
2471 425
2471 653
2471 947
2472 424
2472 655
2472 948
2473 416
2473 641
2473 952
2474 419
2474 646
2474 957
2475 430
2475 652
2475 956
2476 428
2476 649
2476 953
2477 420
2477 643
2477 949
2478 417
2478 648
2478 950
2479 422
2479 642
2479 951
2480 1654
2480 1953
2480 2265
2481 1661
2481 1957
2481 2264
2482 1662
2482 1966
2482 2269
2483 1651
2483 1965
2483 2267
2484 1652
2484 1964
2484 2256
2485 1658
2485 1960
2485 2266
2486 1653
2486 1954
2486 2268
2487 1657
2487 1967
2487 2261
2488 1650
2488 1956
2488 2257
2489 1649
2489 1952
2489 2263
2490 1648
2490 1961
2490 2262
2491 1655
2491 1963
2491 2270
2492 1659
2492 1962
2492 2260
2493 1656
2493 1955
2493 2259
2494 1663
2494 1958
2494 2271
2495 1660
2495 1959
2495 2258
2496 444
2496 723
2496 1024
2497 446
2497 730
2497 1027
2498 439
2498 726
2498 1038
2499 434
2499 727
2499 1025
2500 440
2500 724
2500 1034
2501 433
2501 731
2501 1026
2502 445
2502 721
2502 1037
2503 447
2503 725
2503 1033
2504 438
2504 729
2504 1030
2505 441
2505 720
2505 1029
2506 437
2506 728
2506 1036
2507 435
2507 734
2507 1031
2508 436
2508 722
2508 1028
2509 443
2509 732
2509 1032
2510 432
2510 735
2510 1039
2511 442
2511 733
2511 1035
2512 1334
2512 2038
2512 2346
2513 1333
2513 2033
2513 2345
2514 1338
2514 2045
2514 2339
2515 1343
2515 2037
2515 2350
2516 1331
2516 2036
2516 2342
2517 1337
2517 2034
2517 2348
2518 1329
2518 2046
2518 2347
2519 1336
2519 2042
2519 2349
2520 1335
2520 2035
2520 2337
2521 1332
2521 2043
2521 2351
2522 1341
2522 2044
2522 2336
2523 1340
2523 2039
2523 2344
2524 1330
2524 2047
2524 2340
2525 1328
2525 2040
2525 2338
2526 1342
2526 2041
2526 2341
2527 1339
2527 2032
2527 2343
2528 452
2528 810
2528 1106
2529 453
2529 809
2529 1107
2530 450
2530 814
2530 1104
2531 458
2531 812
2531 1111
2532 454
2532 807
2532 1118
2533 457
2533 805
2533 1115
2534 455
2534 811
2534 1112
2535 460
2535 804
2535 1105
2536 448
2536 815
2536 1116
2537 456
2537 806
2537 1119
2538 463
2538 808
2538 1110
2539 451
2539 801
2539 1108
2540 449
2540 802
2540 1113
2541 461
2541 803
2541 1109
2542 462
2542 813
2542 1114
2543 459
2543 800
2543 1117
2544 1411
2544 1714
2544 2429
2545 1418
2545 1716
2545 2423
2546 1416
2546 1713
2546 2431
2547 1420
2547 1725
2547 2420
2548 1419
2548 1727
2548 2418
2549 1408
2549 1718
2549 2417
2550 1410
2550 1722
2550 2427
2551 1423
2551 1712
2551 2428
2552 1415
2552 1724
2552 2430
2553 1422
2553 1723
2553 2416
2554 1414
2554 1726
2554 2422
2555 1417
2555 1720
2555 2426
2556 1413
2556 1717
2556 2425
2557 1409
2557 1721
2557 2419
2558 1421
2558 1715
2558 2421
2559 1412
2559 1719
2559 2424
2560 464
2560 892
2560 1185
2561 467
2561 888
2561 1187
2562 468
2562 893
2562 1190
2563 466
2563 894
2563 1194
2564 465
2564 889
2564 1197
2565 476
2565 881
2565 1189
2566 471
2566 895
2566 1193
2567 478
2567 883
2567 1184
2568 479
2568 885
2568 1196
2569 477
2569 882
2569 1188
2570 469
2570 884
2570 1199
2571 473
2571 890
2571 1191
2572 470
2572 891
2572 1192
2573 475
2573 886
2573 1195
2574 472
2574 880
2574 1198
2575 474
2575 887
2575 1186
2576 1491
2576 1803
2576 2111
2577 1500
2577 1800
2577 2100
2578 1496
2578 1807
2578 2109
2579 1494
2579 1798
2579 2107
2580 1493
2580 1797
2580 2099
2581 1497
2581 1801
2581 2105
2582 1501
2582 1793
2582 2103
2583 1498
2583 1794
2583 2096
2584 1502
2584 1795
2584 2097
2585 1492
2585 1799
2585 2101
2586 1490
2586 1805
2586 2110
2587 1503
2587 1792
2587 2102
2588 1489
2588 1806
2588 2098
2589 1488
2589 1802
2589 2104
2590 1499
2590 1804
2590 2106
2591 1495
2591 1796
2591 2108
2592 269
2592 504
2592 1112
2593 266
2593 506
2593 1113
2594 260
2594 497
2594 1117
2595 268
2595 503
2595 1107
2596 256
2596 509
2596 1105
2597 267
2597 508
2597 1119
2598 262
2598 500
2598 1111
2599 270
2599 510
2599 1106
2600 259
2600 507
2600 1110
2601 258
2601 499
2601 1116
2602 271
2602 498
2602 1118
2603 265
2603 501
2603 1104
2604 261
2604 511
2604 1114
2605 264
2605 496
2605 1115
2606 257
2606 505
2606 1109
2607 263
2607 502
2607 1108
2608 1642
2608 1852
2608 2380
2609 1635
2609 1851
2609 2375
2610 1634
2610 1846
2610 2378
2611 1647
2611 1843
2611 2382
2612 1643
2612 1853
2612 2369
2613 1638
2613 1854
2613 2368
2614 1639
2614 1855
2614 2377
2615 1646
2615 1845
2615 2383
2616 1640
2616 1847
2616 2371
2617 1632
2617 1848
2617 2372
2618 1641
2618 1840
2618 2376
2619 1636
2619 1841
2619 2373
2620 1645
2620 1849
2620 2374
2621 1637
2621 1842
2621 2379
2622 1644
2622 1844
2622 2381
2623 1633
2623 1850
2623 2370
2624 287
2624 744
2624 959
2625 273
2625 749
2625 950
2626 285
2626 745
2626 947
2627 283
2627 738
2627 948
2628 276
2628 743
2628 946
2629 284
2629 751
2629 953
2630 282
2630 748
2630 945
2631 277
2631 746
2631 954
2632 278
2632 736
2632 952
2633 281
2633 740
2633 949
2634 272
2634 737
2634 944
2635 280
2635 739
2635 955
2636 275
2636 742
2636 951
2637 274
2637 750
2637 957
2638 279
2638 741
2638 956
2639 286
2639 747
2639 958
2640 1482
2640 2091
2640 2211
2641 1480
2641 2093
2641 2216
2642 1474
2642 2085
2642 2217
2643 1476
2643 2082
2643 2213
2644 1481
2644 2086
2644 2208
2645 1486
2645 2080
2645 2221
2646 1485
2646 2088
2646 2220
2647 1483
2647 2087
2647 2212
2648 1479
2648 2095
2648 2218
2649 1478
2649 2089
2649 2210
2650 1473
2650 2094
2650 2219
2651 1487
2651 2092
2651 2223
2652 1477
2652 2084
2652 2214
2653 1472
2653 2081
2653 2215
2654 1484
2654 2090
2654 2209
2655 1475
2655 2083
2655 2222
2656 301
2656 579
2656 1185
2657 300
2657 586
2657 1192
2658 290
2658 589
2658 1199
2659 292
2659 577
2659 1190
2660 288
2660 588
2660 1197
2661 295
2661 591
2661 1186
2662 291
2662 587
2662 1191
2663 299
2663 582
2663 1194
2664 289
2664 576
2664 1195
2665 297
2665 583
2665 1187
2666 294
2666 581
2666 1188
2667 302
2667 585
2667 1198
2668 296
2668 580
2668 1184
2669 303
2669 590
2669 1196
2670 293
2670 584
2670 1193
2671 298
2671 578
2671 1189
2672 1316
2672 1922
2672 2460
2673 1315
2673 1933
2673 2453
2674 1322
2674 1923
2674 2458
2675 1324
2675 1927
2675 2462
2676 1321
2676 1924
2676 2461
2677 1313
2677 1934
2677 2454
2678 1325
2678 1935
2678 2459
2679 1319
2679 1921
2679 2452
2680 1320
2680 1920
2680 2455
2681 1317
2681 1931
2681 2456
2682 1323
2682 1928
2682 2450
2683 1327
2683 1930
2683 2449
2684 1314
2684 1932
2684 2457
2685 1318
2685 1926
2685 2451
2686 1326
2686 1925
2686 2448
2687 1312
2687 1929
2687 2463
2688 305
2688 819
2688 1036
2689 315
2689 826
2689 1030
2690 317
2690 829
2690 1025
2691 306
2691 825
2691 1029
2692 308
2692 816
2692 1035
2693 318
2693 828
2693 1024
2694 319
2694 827
2694 1038
2695 316
2695 820
2695 1031
2696 313
2696 823
2696 1027
2697 309
2697 817
2697 1039
2698 312
2698 818
2698 1034
2699 304
2699 830
2699 1037
2700 307
2700 824
2700 1033
2701 314
2701 831
2701 1028
2702 310
2702 821
2702 1032
2703 311
2703 822
2703 1026
2704 1554
2704 1762
2704 2301
2705 1556
2705 1774
2705 2289
2706 1562
2706 1760
2706 2296
2707 1560
2707 1763
2707 2303
2708 1566
2708 1766
2708 2291
2709 1563
2709 1775
2709 2294
2710 1559
2710 1773
2710 2292
2711 1558
2711 1771
2711 2302
2712 1567
2712 1765
2712 2293
2713 1553
2713 1761
2713 2299
2714 1557
2714 1772
2714 2297
2715 1552
2715 1770
2715 2288
2716 1555
2716 1767
2716 2295
2717 1561
2717 1764
2717 2298
2718 1564
2718 1768
2718 2300
2719 1565
2719 1769
2719 2290
2720 322
2720 670
2720 1269
2721 321
2721 669
2721 1270
2722 323
2722 666
2722 1267
2723 326
2723 659
2723 1276
2724 325
2724 661
2724 1268
2725 331
2725 658
2725 1272
2726 332
2726 665
2726 1265
2727 335
2727 667
2727 1266
2728 327
2728 664
2728 1274
2729 320
2729 668
2729 1275
2730 333
2730 663
2730 1278
2731 329
2731 660
2731 1277
2732 330
2732 662
2732 1273
2733 328
2733 671
2733 1264
2734 334
2734 656
2734 1271
2735 324
2735 657
2735 1279
2736 1395
2736 2006
2736 2131
2737 1392
2737 2012
2737 2134
2738 1404
2738 2008
2738 2133
2739 1402
2739 2007
2739 2139
2740 1400
2740 2004
2740 2128
2741 1403
2741 2013
2741 2142
2742 1405
2742 2009
2742 2138
2743 1401
2743 2010
2743 2136
2744 1407
2744 2011
2744 2129
2745 1397
2745 2002
2745 2135
2746 1406
2746 2005
2746 2141
2747 1396
2747 2015
2747 2140
2748 1393
2748 2014
2748 2132
2749 1394
2749 2001
2749 2130
2750 1399
2750 2000
2750 2143
2751 1398
2751 2003
2751 2137
2752 305
2752 525
2752 1129
2753 313
2753 522
2753 1124
2754 318
2754 519
2754 1125
2755 308
2755 517
2755 1133
2756 304
2756 526
2756 1132
2757 315
2757 513
2757 1126
2758 310
2758 524
2758 1122
2759 316
2759 527
2759 1135
2760 312
2760 520
2760 1121
2761 306
2761 521
2761 1127
2762 309
2762 523
2762 1120
2763 311
2763 516
2763 1134
2764 314
2764 515
2764 1128
2765 319
2765 514
2765 1131
2766 317
2766 512
2766 1123
2767 307
2767 518
2767 1130
2768 1661
2768 1787
2768 2391
2769 1655
2769 1786
2769 2392
2770 1656
2770 1785
2770 2388
2771 1649
2771 1790
2771 2398
2772 1648
2772 1788
2772 2389
2773 1659
2773 1778
2773 2399
2774 1663
2774 1789
2774 2390
2775 1662
2775 1779
2775 2394
2776 1658
2776 1777
2776 2393
2777 1651
2777 1782
2777 2395
2778 1653
2778 1784
2778 2385
2779 1650
2779 1791
2779 2396
2780 1657
2780 1776
2780 2387
2781 1660
2781 1783
2781 2397
2782 1652
2782 1781
2782 2384
2783 1654
2783 1780
2783 2386
2784 328
2784 767
2784 961
2785 323
2785 753
2785 969
2786 331
2786 763
2786 970
2787 325
2787 757
2787 971
2788 335
2788 765
2788 965
2789 327
2789 766
2789 960
2790 334
2790 755
2790 973
2791 322
2791 758
2791 967
2792 332
2792 754
2792 962
2793 333
2793 759
2793 972
2794 324
2794 752
2794 968
2795 330
2795 756
2795 975
2796 326
2796 760
2796 974
2797 329
2797 762
2797 966
2798 320
2798 761
2798 963
2799 321
2799 764
2799 964
2800 1490
2800 2026
2800 2224
2801 1497
2801 2029
2801 2225
2802 1503
2802 2024
2802 2229
2803 1493
2803 2023
2803 2230
2804 1496
2804 2025
2804 2231
2805 1502
2805 2017
2805 2236
2806 1491
2806 2022
2806 2233
2807 1494
2807 2030
2807 2226
2808 1488
2808 2016
2808 2237
2809 1489
2809 2020
2809 2227
2810 1501
2810 2028
2810 2238
2811 1495
2811 2027
2811 2234
2812 1492
2812 2018
2812 2239
2813 1499
2813 2021
2813 2232
2814 1498
2814 2031
2814 2228
2815 1500
2815 2019
2815 2235
2816 257
2816 592
2816 1208
2817 261
2817 601
2817 1212
2818 266
2818 594
2818 1203
2819 265
2819 596
2819 1211
2820 259
2820 607
2820 1204
2821 264
2821 604
2821 1210
2822 269
2822 599
2822 1206
2823 270
2823 595
2823 1213
2824 267
2824 605
2824 1215
2825 256
2825 603
2825 1209
2826 262
2826 598
2826 1214
2827 260
2827 602
2827 1201
2828 268
2828 600
2828 1202
2829 263
2829 597
2829 1207
2830 258
2830 593
2830 1205
2831 271
2831 606
2831 1200
2832 1340
2832 1856
2832 2472
2833 1330
2833 1870
2833 2471
2834 1334
2834 1863
2834 2464
2835 1337
2835 1867
2835 2476
2836 1332
2836 1860
2836 2466
2837 1329
2837 1862
2837 2467
2838 1336
2838 1858
2838 2477
2839 1331
2839 1859
2839 2470
2840 1339
2840 1864
2840 2479
2841 1335
2841 1865
2841 2474
2842 1328
2842 1868
2842 2473
2843 1333
2843 1871
2843 2465
2844 1342
2844 1861
2844 2469
2845 1341
2845 1866
2845 2478
2846 1338
2846 1857
2846 2468
2847 1343
2847 1869
2847 2475
2848 282
2848 833
2848 1052
2849 278
2849 837
2849 1041
2850 280
2850 832
2850 1047
2851 272
2851 838
2851 1050
2852 277
2852 844
2852 1042
2853 279
2853 845
2853 1049
2854 273
2854 846
2854 1048
2855 286
2855 835
2855 1045
2856 276
2856 843
2856 1051
2857 281
2857 847
2857 1044
2858 275
2858 840
2858 1040
2859 283
2859 842
2859 1053
2860 287
2860 836
2860 1055
2861 274
2861 841
2861 1054
2862 284
2862 839
2862 1043
2863 285
2863 834
2863 1046
2864 1583
2864 1696
2864 2308
2865 1582
2865 1708
2865 2305
2866 1578
2866 1697
2866 2312
2867 1570
2867 1710
2867 2306
2868 1574
2868 1700
2868 2316
2869 1569
2869 1706
2869 2309
2870 1573
2870 1699
2870 2317
2871 1568
2871 1705
2871 2310
2872 1580
2872 1707
2872 2318
2873 1571
2873 1698
2873 2307
2874 1579
2874 1701
2874 2311
2875 1581
2875 1702
2875 2319
2876 1576
2876 1703
2876 2315
2877 1575
2877 1711
2877 2314
2878 1572
2878 1709
2878 2313
2879 1577
2879 1704
2879 2304
2880 301
2880 674
2880 1284
2881 291
2881 687
2881 1294
2882 297
2882 680
2882 1292
2883 288
2883 672
2883 1290
2884 290
2884 686
2884 1280
2885 289
2885 681
2885 1295
2886 298
2886 682
2886 1293
2887 295
2887 676
2887 1285
2888 299
2888 677
2888 1288
2889 294
2889 679
2889 1281
2890 293
2890 673
2890 1286
2891 300
2891 675
2891 1289
2892 296
2892 685
2892 1282
2893 292
2893 683
2893 1291
2894 303
2894 684
2894 1287
2895 302
2895 678
2895 1283
2896 1422
2896 1940
2896 2144
2897 1412
2897 1939
2897 2145
2898 1410
2898 1948
2898 2159
2899 1414
2899 1947
2899 2148
2900 1411
2900 1943
2900 2149
2901 1421
2901 1950
2901 2156
2902 1416
2902 1936
2902 2153
2903 1415
2903 1945
2903 2147
2904 1420
2904 1949
2904 2158
2905 1408
2905 1941
2905 2151
2906 1413
2906 1937
2906 2152
2907 1409
2907 1942
2907 2157
2908 1419
2908 1946
2908 2146
2909 1418
2909 1951
2909 2155
2910 1423
2910 1938
2910 2154
2911 1417
2911 1944
2911 2150
2912 280
2912 534
2912 1057
2913 285
2913 531
2913 1061
2914 272
2914 530
2914 1060
2915 275
2915 542
2915 1056
2916 282
2916 528
2916 1064
2917 279
2917 533
2917 1070
2918 273
2918 529
2918 1066
2919 276
2919 536
2919 1071
2920 277
2920 543
2920 1059
2921 283
2921 538
2921 1058
2922 278
2922 537
2922 1068
2923 274
2923 541
2923 1063
2924 284
2924 540
2924 1067
2925 286
2925 535
2925 1069
2926 281
2926 539
2926 1065
2927 287
2927 532
2927 1062
2928 1671
2928 1806
2928 2404
2929 1675
2929 1793
2929 2411
2930 1668
2930 1802
2930 2400
2931 1679
2931 1795
2931 2413
2932 1667
2932 1804
2932 2409
2933 1672
2933 1796
2933 2403
2934 1665
2934 1794
2934 2407
2935 1664
2935 1803
2935 2405
2936 1666
2936 1801
2936 2406
2937 1670
2937 1797
2937 2414
2938 1676
2938 1799
2938 2412
2939 1674
2939 1792
2939 2401
2940 1678
2940 1798
2940 2402
2941 1677
2941 1805
2941 2415
2942 1673
2942 1807
2942 2410
2943 1669
2943 1800
2943 2408
2944 294
2944 768
2944 910
2945 298
2945 774
2945 907
2946 295
2946 769
2946 906
2947 302
2947 778
2947 909
2948 292
2948 772
2948 905
2949 303
2949 771
2949 899
2950 288
2950 779
2950 900
2951 299
2951 773
2951 911
2952 301
2952 770
2952 903
2953 289
2953 783
2953 896
2954 293
2954 782
2954 904
2955 296
2955 777
2955 901
2956 297
2956 775
2956 902
2957 291
2957 781
2957 897
2958 290
2958 776
2958 898
2959 300
2959 780
2959 908
2960 1519
2960 2032
2960 2253
2961 1513
2961 2045
2961 2251
2962 1515
2962 2037
2962 2254
2963 1512
2963 2034
2963 2244
2964 1504
2964 2042
2964 2250
2965 1508
2965 2035
2965 2247
2966 1510
2966 2047
2966 2249
2967 1518
2967 2043
2967 2255
2968 1505
2968 2036
2968 2245
2969 1507
2969 2038
2969 2241
2970 1509
2970 2040
2970 2252
2971 1511
2971 2033
2971 2240
2972 1506
2972 2044
2972 2246
2973 1514
2973 2046
2973 2248
2974 1516
2974 2041
2974 2242
2975 1517
2975 2039
2975 2243
2976 312
2976 608
2976 1140
2977 305
2977 612
2977 1143
2978 310
2978 610
2978 1151
2979 308
2979 613
2979 1144
2980 316
2980 615
2980 1142
2981 306
2981 618
2981 1145
2982 317
2982 617
2982 1137
2983 307
2983 609
2983 1141
2984 318
2984 614
2984 1149
2985 304
2985 621
2985 1146
2986 319
2986 622
2986 1138
2987 313
2987 623
2987 1148
2988 309
2988 620
2988 1150
2989 315
2989 611
2989 1139
2990 314
2990 616
2990 1147
2991 311
2991 619
2991 1136
2992 1359
2992 1882
2992 2482
2993 1349
2993 1874
2993 2493
2994 1352
2994 1872
2994 2492
2995 1345
2995 1883
2995 2489
2996 1347
2996 1877
2996 2480
2997 1357
2997 1887
2997 2487
2998 1355
2998 1879
2998 2488
2999 1353
2999 1875
2999 2491
3000 1350
3000 1886
3000 2481
3001 1344
3001 1885
3001 2490
3002 1351
3002 1880
3002 2485
3003 1354
3003 1878
3003 2483
3004 1348
3004 1884
3004 2494
3005 1356
3005 1873
3005 2495
3006 1346
3006 1881
3006 2486
3007 1358
3007 1876
3007 2484
3008 326
3008 849
3008 982
3009 331
3009 856
3009 985
3010 330
3010 857
3010 983
3011 333
3011 858
3011 991
3012 323
3012 862
3012 980
3013 322
3013 850
3013 984
3014 334
3014 855
3014 988
3015 329
3015 860
3015 987
3016 321
3016 861
3016 989
3017 327
3017 853
3017 978
3018 320
3018 852
3018 981
3019 325
3019 848
3019 986
3020 332
3020 859
3020 977
3021 328
3021 854
3021 976
3022 335
3022 863
3022 990
3023 324
3023 851
3023 979
3024 1590
3024 1716
3024 2327
3025 1594
3025 1719
3025 2331
3026 1591
3026 1717
3026 2332
3027 1584
3027 1721
3027 2321
3028 1589
3028 1723
3028 2322
3029 1593
3029 1713
3029 2325
3030 1598
3030 1720
3030 2328
3031 1596
3031 1725
3031 2333
3032 1586
3032 1715
3032 2330
3033 1592
3033 1722
3033 2326
3034 1599
3034 1714
3034 2334
3035 1585
3035 1712
3035 2324
3036 1595
3036 1724
3036 2335
3037 1587
3037 1718
3037 2323
3038 1588
3038 1727
3038 2329
3039 1597
3039 1726
3039 2320
3040 260
3040 691
3040 1222
3041 259
3041 693
3041 1221
3042 258
3042 697
3042 1231
3043 271
3043 689
3043 1223
3044 266
3044 690
3044 1227
3045 264
3045 699
3045 1229
3046 262
3046 700
3046 1228
3047 268
3047 688
3047 1218
3048 269
3048 701
3048 1220
3049 261
3049 692
3049 1217
3050 263
3050 703
3050 1224
3051 267
3051 694
3051 1226
3052 256
3052 696
3052 1219
3053 265
3053 695
3053 1225
3054 257
3054 698
3054 1230
3055 270
3055 702
3055 1216
3056 1436
3056 1955
3056 2174
3057 1425
3057 1953
3057 2160
3058 1424
3058 1958
3058 2162
3059 1432
3059 1966
3059 2172
3060 1431
3060 1964
3060 2170
3061 1438
3061 1956
3061 2166
3062 1437
3062 1954
3062 2168
3063 1439
3063 1959
3063 2164
3064 1435
3064 1957
3064 2169
3065 1434
3065 1965
3065 2175
3066 1426
3066 1952
3066 2171
3067 1427
3067 1963
3067 2163
3068 1428
3068 1967
3068 2165
3069 1429
3069 1961
3069 2173
3070 1433
3070 1962
3070 2161
3071 1430
3071 1960
3071 2167
3072 326
3072 550
3072 1076
3073 328
3073 546
3073 1080
3074 321
3074 557
3074 1085
3075 330
3075 555
3075 1078
3076 335
3076 548
3076 1073
3077 323
3077 558
3077 1074
3078 329
3078 556
3078 1087
3079 331
3079 545
3079 1082
3080 334
3080 552
3080 1077
3081 320
3081 553
3081 1079
3082 324
3082 554
3082 1081
3083 332
3083 559
3083 1083
3084 322
3084 544
3084 1086
3085 333
3085 551
3085 1072
3086 325
3086 547
3086 1084
3087 327
3087 549
3087 1075
3088 1685
3088 1817
3088 2339
3089 1693
3089 1815
3089 2342
3090 1686
3090 1819
3090 2344
3091 1692
3091 1820
3091 2337
3092 1684
3092 1810
3092 2351
3093 1681
3093 1818
3093 2345
3094 1687
3094 1813
3094 2348
3095 1694
3095 1812
3095 2349
3096 1680
3096 1808
3096 2338
3097 1690
3097 1816
3097 2341
3098 1688
3098 1811
3098 2336
3099 1695
3099 1814
3099 2346
3100 1682
3100 1821
3100 2340
3101 1689
3101 1823
3101 2347
3102 1691
3102 1822
3102 2343
3103 1683
3103 1809
3103 2350
3104 267
3104 784
3104 926
3105 269
3105 797
3105 922
3106 266
3106 788
3106 917
3107 270
3107 790
3107 915
3108 257
3108 793
3108 921
3109 261
3109 796
3109 913
3110 256
3110 791
3110 924
3111 271
3111 789
3111 914
3112 260
3112 785
3112 918
3113 264
3113 798
3113 916
3114 268
3114 794
3114 927
3115 258
3115 787
3115 923
3116 263
3116 795
3116 919
3117 262
3117 786
3117 920
3118 259
3118 799
3118 912
3119 265
3119 792
3119 925
3120 1532
3120 2054
3120 2184
3121 1535
3121 2061
3121 2180
3122 1521
3122 2059
3122 2186
3123 1525
3123 2063
3123 2182
3124 1530
3124 2062
3124 2176
3125 1527
3125 2049
3125 2177
3126 1528
3126 2060
3126 2181
3127 1522
3127 2055
3127 2187
3128 1524
3128 2058
3128 2189
3129 1534
3129 2053
3129 2183
3130 1529
3130 2057
3130 2185
3131 1526
3131 2052
3131 2178
3132 1531
3132 2051
3132 2190
3133 1533
3133 2056
3133 2188
3134 1523
3134 2050
3134 2191
3135 1520
3135 2048
3135 2179
3136 286
3136 626
3136 1162
3137 273
3137 639
3137 1156
3138 272
3138 627
3138 1153
3139 284
3139 634
3139 1160
3140 287
3140 630
3140 1159
3141 276
3141 638
3141 1155
3142 278
3142 628
3142 1165
3143 283
3143 624
3143 1167
3144 280
3144 629
3144 1164
3145 274
3145 631
3145 1157
3146 285
3146 636
3146 1152
3147 277
3147 632
3147 1166
3148 275
3148 625
3148 1154
3149 279
3149 633
3149 1161
3150 281
3150 637
3150 1158
3151 282
3151 635
3151 1163
3152 1368
3152 1895
3152 2416
3153 1366
3153 1891
3153 2426
3154 1362
3154 1893
3154 2428
3155 1365
3155 1903
3155 2421
3156 1374
3156 1901
3156 2430
3157 1370
3157 1896
3157 2419
3158 1373
3158 1889
3158 2424
3159 1371
3159 1899
3159 2425
3160 1369
3160 1894
3160 2420
3161 1360
3161 1900
3161 2423
3162 1375
3162 1898
3162 2427
3163 1361
3163 1892
3163 2417
3164 1363
3164 1888
3164 2431
3165 1364
3165 1902
3165 2429
3166 1367
3166 1897
3166 2422
3167 1372
3167 1890
3167 2418
3168 299
3168 878
3168 1006
3169 297
3169 867
3169 992
3170 291
3170 869
3170 1003
3171 303
3171 871
3171 998
3172 288
3172 879
3172 1005
3173 289
3173 874
3173 996
3174 300
3174 873
3174 1004
3175 293
3175 864
3175 995
3176 298
3176 868
3176 1001
3177 296
3177 876
3177 997
3178 292
3178 866
3178 1000
3179 301
3179 872
3179 994
3180 295
3180 870
3180 1002
3181 302
3181 875
3181 999
3182 290
3182 877
3182 993
3183 294
3183 865
3183 1007
3184 1612
3184 1732
3184 2266
3185 1604
3185 1739
3185 2257
3186 1608
3186 1740
3186 2269
3187 1605
3187 1737
3187 2258
3188 1606
3188 1736
3188 2261
3189 1603
3189 1743
3189 2270
3190 1615
3190 1735
3190 2264
3191 1609
3191 1731
3191 2265
3192 1614
3192 1738
3192 2262
3193 1607
3193 1742
3193 2267
3194 1610
3194 1734
3194 2256
3195 1601
3195 1730
3195 2260
3196 1602
3196 1741
3196 2268
3197 1613
3197 1733
3197 2259
3198 1611
3198 1728
3198 2263
3199 1600
3199 1729
3199 2271
3200 314
3200 713
3200 1236
3201 310
3201 706
3201 1242
3202 317
3202 719
3202 1234
3203 311
3203 710
3203 1239
3204 307
3204 707
3204 1245
3205 319
3205 717
3205 1235
3206 309
3206 711
3206 1238
3207 318
3207 712
3207 1244
3208 304
3208 709
3208 1240
3209 312
3209 714
3209 1233
3210 316
3210 716
3210 1232
3211 306
3211 705
3211 1246
3212 315
3212 704
3212 1243
3213 305
3213 708
3213 1237
3214 313
3214 715
3214 1247
3215 308
3215 718
3215 1241
3216 1448
3216 1975
3216 2109
3217 1454
3217 1982
3217 2101
3218 1445
3218 1979
3218 2105
3219 1449
3219 1976
3219 2110
3220 1450
3220 1983
3220 2099
3221 1443
3221 1977
3221 2111
3222 1455
3222 1973
3222 2096
3223 1446
3223 1969
3223 2097
3224 1441
3224 1978
3224 2103
3225 1444
3225 1974
3225 2100
3226 1442
3226 1968
3226 2104
3227 1447
3227 1980
3227 2106
3228 1440
3228 1972
3228 2107
3229 1453
3229 1971
3229 2102
3230 1452
3230 1981
3230 2108
3231 1451
3231 1970
3231 2098
3232 294
3232 569
3232 1097
3233 295
3233 563
3233 1090
3234 298
3234 574
3234 1098
3235 300
3235 566
3235 1088
3236 292
3236 573
3236 1093
3237 299
3237 560
3237 1100
3238 297
3238 568
3238 1101
3239 301
3239 572
3239 1099
3240 296
3240 564
3240 1102
3241 303
3241 570
3241 1094
3242 291
3242 575
3242 1096
3243 289
3243 567
3243 1095
3244 302
3244 561
3244 1089
3245 290
3245 571
3245 1091
3246 293
3246 565
3246 1103
3247 288
3247 562
3247 1092
3248 1630
3248 1827
3248 2363
3249 1627
3249 1839
3249 2361
3250 1621
3250 1837
3250 2357
3251 1626
3251 1829
3251 2367
3252 1622
3252 1835
3252 2359
3253 1625
3253 1836
3253 2354
3254 1629
3254 1834
3254 2356
3255 1618
3255 1830
3255 2352
3256 1619
3256 1824
3256 2362
3257 1620
3257 1828
3257 2355
3258 1617
3258 1826
3258 2365
3259 1624
3259 1838
3259 2360
3260 1631
3260 1832
3260 2364
3261 1616
3261 1825
3261 2358
3262 1628
3262 1833
3262 2353
3263 1623
3263 1831
3263 2366
3264 304
3264 813
3264 940
3265 310
3265 807
3265 930
3266 318
3266 812
3266 942
3267 305
3267 802
3267 935
3268 319
3268 804
3268 943
3269 315
3269 811
3269 934
3270 317
3270 805
3270 936
3271 309
3271 809
3271 933
3272 311
3272 808
3272 939
3273 308
3273 800
3273 932
3274 316
3274 810
3274 928
3275 314
3275 801
3275 937
3276 307
3276 806
3276 929
3277 313
3277 814
3277 931
3278 312
3278 803
3278 941
3279 306
3279 815
3279 938
3280 1461
3280 2077
3280 2202
3281 1462
3281 2066
3281 2206
3282 1470
3282 2075
3282 2198
3283 1471
3283 2067
3283 2194
3284 1463
3284 2069
3284 2201
3285 1458
3285 2070
3285 2203
3286 1456
3286 2076
3286 2204
3287 1460
3287 2072
3287 2196
3288 1457
3288 2065
3288 2193
3289 1464
3289 2074
3289 2192
3290 1469
3290 2078
3290 2197
3291 1466
3291 2073
3291 2200
3292 1465
3292 2079
3292 2195
3293 1468
3293 2071
3293 2205
3294 1459
3294 2068
3294 2199
3295 1467
3295 2064
3295 2207
3296 332
3296 646
3296 1180
3297 325
3297 651
3297 1177
3298 331
3298 650
3298 1183
3299 323
3299 649
3299 1168
3300 326
3300 645
3300 1172
3301 333
3301 644
3301 1182
3302 321
3302 653
3302 1169
3303 327
3303 654
3303 1173
3304 320
3304 642
3304 1171
3305 329
3305 648
3305 1176
3306 334
3306 647
3306 1181
3307 328
3307 643
3307 1178
3308 324
3308 655
3308 1179
3309 335
3309 641
3309 1175
3310 330
3310 640
3310 1170
3311 322
3311 652
3311 1174
3312 1298
3312 1915
3312 2444
3313 1305
3313 1905
3313 2442
3314 1311
3314 1916
3314 2438
3315 1306
3315 1908
3315 2437
3316 1296
3316 1913
3316 2445
3317 1301
3317 1918
3317 2441
3318 1308
3318 1919
3318 2435
3319 1300
3319 1909
3319 2446
3320 1299
3320 1906
3320 2434
3321 1309
3321 1917
3321 2447
3322 1302
3322 1910
3322 2432
3323 1310
3323 1912
3323 2433
3324 1297
3324 1911
3324 2440
3325 1304
3325 1914
3325 2443
3326 1303
3326 1904
3326 2439
3327 1307
3327 1907
3327 2436
3328 257
3328 894
3328 1009
3329 262
3329 884
3329 1020
3330 264
3330 890
3330 1018
3331 270
3331 885
3331 1010
3332 259
3332 882
3332 1023
3333 266
3333 891
3333 1022
3334 271
3334 883
3334 1016
3335 267
3335 893
3335 1013
3336 265
3336 895
3336 1008
3337 260
3337 886
3337 1019
3338 268
3338 880
3338 1012
3339 263
3339 887
3339 1021
3340 269
3340 888
3340 1014
3341 258
3341 889
3341 1011
3342 256
3342 881
3342 1015
3343 261
3343 892
3343 1017
3344 1546
3344 1745
3344 2278
3345 1538
3345 1759
3345 2272
3346 1551
3346 1757
3346 2275
3347 1540
3347 1749
3347 2287
3348 1536
3348 1758
3348 2279
3349 1541
3349 1750
3349 2280
3350 1550
3350 1753
3350 2273
3351 1549
3351 1748
3351 2282
3352 1548
3352 1751
3352 2283
3353 1542
3353 1744
3353 2284
3354 1537
3354 1746
3354 2285
3355 1547
3355 1754
3355 2276
3356 1544
3356 1752
3356 2277
3357 1545
3357 1747
3357 2274
3358 1543
3358 1756
3358 2286
3359 1539
3359 1755
3359 2281
3360 282
3360 728
3360 1248
3361 274
3361 723
3361 1263
3362 276
3362 733
3362 1261
3363 280
3363 725
3363 1260
3364 281
3364 732
3364 1254
3365 285
3365 735
3365 1250
3366 278
3366 720
3366 1258
3367 287
3367 734
3367 1259
3368 283
3368 727
3368 1251
3369 284
3369 722
3369 1262
3370 277
3370 724
3370 1257
3371 279
3371 721
3371 1252
3372 272
3372 731
3372 1255
3373 286
3373 726
3373 1249
3374 275
3374 730
3374 1256
3375 273
3375 729
3375 1253
3376 1379
3376 1994
3376 2114
3377 1381
3377 1995
3377 2126
3378 1385
3378 1988
3378 2113
3379 1384
3379 1992
3379 2116
3380 1387
3380 1990
3380 2125
3381 1388
3381 1991
3381 2122
3382 1380
3382 1987
3382 2123
3383 1382
3383 1996
3383 2112
3384 1376
3384 1986
3384 2118
3385 1389
3385 1989
3385 2121
3386 1383
3386 1993
3386 2124
3387 1386
3387 1998
3387 2120
3388 1377
3388 1985
3388 2117
3389 1390
3389 1984
3389 2115
3390 1378
3390 1997
3390 2119
3391 1391
3391 1999
3391 2127
3392 344
3392 509
3392 1175
3393 338
3393 506
3393 1169
3394 342
3394 497
3394 1168
3395 339
3395 508
3395 1174
3396 343
3396 511
3396 1173
3397 347
3397 503
3397 1179
3398 348
3398 499
3398 1181
3399 351
3399 496
3399 1182
3400 349
3400 500
3400 1183
3401 350
3401 505
3401 1176
3402 337
3402 504
3402 1172
3403 336
3403 507
3403 1170
3404 341
3404 498
3404 1171
3405 340
3405 502
3405 1177
3406 345
3406 510
3406 1178
3407 346
3407 501
3407 1180
3408 1440
3408 2038
3408 2319
3409 1443
3409 2034
3409 2307
3410 1444
3410 2040
3410 2316
3411 1445
3411 2041
3411 2304
3412 1450
3412 2036
3412 2305
3413 1446
3413 2035
3413 2308
3414 1447
3414 2042
3414 2314
3415 1451
3415 2045
3415 2313
3416 1448
3416 2047
3416 2310
3417 1454
3417 2044
3417 2315
3418 1455
3418 2037
3418 2311
3419 1449
3419 2033
3419 2309
3420 1441
3420 2039
3420 2318
3421 1442
3421 2043
3421 2312
3422 1453
3422 2032
3422 2306
3423 1452
3423 2046
3423 2317
3424 354
3424 666
3424 929
3425 356
3425 663
3425 930
3426 366
3426 671
3426 937
3427 352
3427 667
3427 932
3428 359
3428 660
3428 940
3429 367
3429 658
3429 936
3430 360
3430 670
3430 942
3431 353
3431 668
3431 943
3432 363
3432 656
3432 938
3433 364
3433 664
3433 934
3434 361
3434 659
3434 928
3435 355
3435 657
3435 935
3436 357
3436 661
3436 939
3437 365
3437 669
3437 931
3438 362
3438 665
3438 941
3439 358
3439 662
3439 933
3440 1607
3440 1794
3440 2466
3441 1608
3441 1800
3441 2471
3442 1615
3442 1801
3442 2475
3443 1601
3443 1804
3443 2470
3444 1602
3444 1793
3444 2474
3445 1603
3445 1805
3445 2464
3446 1611
3446 1797
3446 2473
3447 1606
3447 1795
3447 2465
3448 1600
3448 1799
3448 2472
3449 1604
3449 1802
3449 2479
3450 1610
3450 1798
3450 2468
3451 1613
3451 1792
3451 2477
3452 1609
3452 1796
3452 2469
3453 1605
3453 1806
3453 2478
3454 1612
3454 1803
3454 2476
3455 1614
3455 1807
3455 2467
3456 372
3456 826
3456 1089
3457 378
3457 820
3457 1096
3458 381
3458 816
3458 1088
3459 383
3459 829
3459 1091
3460 375
3460 824
3460 1100
3461 382
3461 831
3461 1098
3462 374
3462 821
3462 1103
3463 371
3463 819
3463 1099
3464 380
3464 830
3464 1095
3465 377
3465 817
3465 1094
3466 368
3466 825
3466 1090
3467 376
3467 828
3467 1097
3468 370
3468 822
3468 1092
3469 369
3469 827
3469 1093
3470 373
3470 818
3470 1101
3471 379
3471 823
3471 1102
3472 1363
3472 1953
3472 2233
3473 1375
3473 1964
3473 2235
3474 1374
3474 1958
3474 2228
3475 1370
3475 1962
3475 2238
3476 1373
3476 1957
3476 2236
3477 1362
3477 1965
3477 2231
3478 1365
3478 1959
3478 2237
3479 1372
3479 1963
3479 2227
3480 1371
3480 1967
3480 2224
3481 1366
3481 1966
3481 2225
3482 1367
3482 1952
3482 2226
3483 1364
3483 1954
3483 2239
3484 1369
3484 1961
3484 2234
3485 1361
3485 1960
3485 2230
3486 1360
3486 1955
3486 2232
3487 1368
3487 1956
3487 2229
3488 399
3488 580
3488 1259
3489 384
3489 577
3489 1250
3490 385
3490 589
3490 1248
3491 387
3491 588
3491 1255
3492 395
3492 576
3492 1260
3493 396
3493 578
3493 1261
3494 398
3494 590
3494 1262
3495 394
3495 582
3495 1252
3496 392
3496 583
3496 1258
3497 390
3497 585
3497 1249
3498 389
3498 579
3498 1251
3499 397
3499 584
3499 1254
3500 391
3500 591
3500 1253
3501 393
3501 586
3501 1257
3502 388
3502 587
3502 1263
3503 386
3503 581
3503 1256
3504 1520
3504 1723
3504 2394
3505 1527
3505 1715
3505 2390
3506 1523
3506 1719
3506 2397
3507 1526
3507 1726
3507 2393
3508 1524
3508 1721
3508 2387
3509 1521
3509 1724
3509 2388
3510 1535
3510 1718
3510 2398
3511 1532
3511 1717
3511 2399
3512 1529
3512 1712
3512 2386
3513 1533
3513 1714
3513 2392
3514 1531
3514 1727
3514 2389
3515 1534
3515 1725
3515 2384
3516 1530
3516 1722
3516 2395
3517 1525
3517 1720
3517 2391
3518 1528
3518 1713
3518 2385
3519 1522
3519 1716
3519 2396
3520 408
3520 749
3520 1021
3521 403
3521 736
3521 1020
3522 406
3522 737
3522 1015
3523 401
3523 741
3523 1022
3524 415
3524 751
3524 1010
3525 404
3525 742
3525 1017
3526 402
3526 745
3526 1011
3527 414
3527 740
3527 1023
3528 400
3528 747
3528 1014
3529 411
3529 738
3529 1009
3530 407
3530 744
3530 1018
3531 412
3531 743
3531 1008
3532 413
3532 746
3532 1016
3533 405
3533 748
3533 1012
3534 410
3534 739
3534 1013
3535 409
3535 750
3535 1019
3536 1695
3536 1878
3536 2158
3537 1694
3537 1886
3537 2145
3538 1680
3538 1875
3538 2157
3539 1693
3539 1876
3539 2155
3540 1684
3540 1877
3540 2154
3541 1686
3541 1882
3541 2144
3542 1688
3542 1884
3542 2150
3543 1687
3543 1874
3543 2146
3544 1683
3544 1881
3544 2151
3545 1682
3545 1872
3545 2147
3546 1681
3546 1883
3546 2159
3547 1690
3547 1887
3547 2153
3548 1685
3548 1873
3548 2156
3549 1691
3549 1880
3549 2148
3550 1689
3550 1879
3550 2149
3551 1692
3551 1885
3551 2152
3552 380
3552 525
3552 1199
3553 382
3553 520
3553 1193
3554 383
3554 519
3554 1197
3555 378
3555 512
3555 1190
3556 377
3556 516
3556 1189
3557 370
3557 521
3557 1196
3558 368
3558 514
3558 1188
3559 376
3559 517
3559 1198
3560 372
3560 513
3560 1194
3561 373
3561 524
3561 1187
3562 371
3562 518
3562 1184
3563 379
3563 527
3563 1191
3564 375
3564 526
3564 1192
3565 374
3565 522
3565 1185
3566 369
3566 515
3566 1186
3567 381
3567 523
3567 1195
3568 1388
3568 2054
3568 2332
3569 1383
3569 2053
3569 2320
3570 1376
3570 2061
3570 2322
3571 1384
3571 2055
3571 2333
3572 1377
3572 2052
3572 2329
3573 1378
3573 2048
3573 2331
3574 1386
3574 2049
3574 2324
3575 1391
3575 2050
3575 2327
3576 1385
3576 2059
3576 2321
3577 1387
3577 2062
3577 2326
3578 1390
3578 2051
3578 2335
3579 1379
3579 2058
3579 2325
3580 1380
3580 2057
3580 2328
3581 1381
3581 2056
3581 2334
3582 1382
3582 2060
3582 2330
3583 1389
3583 2063
3583 2323
3584 392
3584 683
3584 954
3585 393
3585 686
3585 953
3586 387
3586 687
3586 951
3587 398
3587 680
3587 958
3588 391
3588 677
3588 952
3589 390
3589 672
3589 959
3590 386
3590 674
3590 957
3591 385
3591 679
3591 946
3592 388
3592 685
3592 955
3593 397
3593 678
3593 950
3594 399
3594 684
3594 949
3595 394
3595 676
3595 944
3596 389
3596 673
3596 945
3597 396
3597 675
3597 948
3598 384
3598 682
3598 956
3599 395
3599 681
3599 947
3600 1539
3600 1810
3600 2481
3601 1540
3601 1812
3601 2486
3602 1536
3602 1822
3602 2482
3603 1547
3603 1823
3603 2483
3604 1549
3604 1820
3604 2492
3605 1543
3605 1813
3605 2493
3606 1551
3606 1818
3606 2485
3607 1542
3607 1814
3607 2491
3608 1544
3608 1815
3608 2490
3609 1548
3609 1817
3609 2480
3610 1541
3610 1819
3610 2487
3611 1538
3611 1816
3611 2494
3612 1537
3612 1811
3612 2484
3613 1545
3613 1808
3613 2488
3614 1550
3614 1809
3614 2495
3615 1546
3615 1821
3615 2489
3616 413
3616 846
3616 1116
3617 406
3617 833
3617 1108
3618 414
3618 841
3618 1109
3619 404
3619 843
3619 1106
3620 400
3620 837
3620 1117
3621 403
3621 842
3621 1119
3622 407
3622 847
3622 1107
3623 401
3623 838
3623 1114
3624 402
3624 835
3624 1104
3625 405
3625 836
3625 1118
3626 415
3626 845
3626 1112
3627 411
3627 844
3627 1111
3628 409
3628 840
3628 1110
3629 412
3629 832
3629 1105
3630 410
3630 834
3630 1115
3631 408
3631 839
3631 1113
3632 1298
3632 1978
3632 2248
3633 1309
3633 1972
3633 2243
3634 1305
3634 1971
3634 2244
3635 1310
3635 1973
3635 2253
3636 1303
3636 1968
3636 2250
3637 1301
3637 1977
3637 2246
3638 1302
3638 1975
3638 2254
3639 1306
3639 1980
3639 2252
3640 1307
3640 1969
3640 2241
3641 1297
3641 1970
3641 2255
3642 1299
3642 1976
3642 2251
3643 1300
3643 1982
3643 2240
3644 1304
3644 1983
3644 2249
3645 1311
3645 1974
3645 2242
3646 1308
3646 1981
3646 2247
3647 1296
3647 1979
3647 2245
3648 336
3648 607
3648 1279
3649 339
3649 597
3649 1271
3650 342
3650 603
3650 1267
3651 348
3651 601
3651 1270
3652 341
3652 599
3652 1268
3653 346
3653 596
3653 1274
3654 351
3654 598
3654 1276
3655 347
3655 595
3655 1269
3656 337
3656 593
3656 1273
3657 350
3657 605
3657 1266
3658 340
3658 600
3658 1272
3659 345
3659 592
3659 1277
3660 349
3660 602
3660 1264
3661 338
3661 594
3661 1265
3662 343
3662 606
3662 1278
3663 344
3663 604
3663 1275
3664 1457
3664 1728
3664 2407
3665 1469
3665 1737
3665 2412
3666 1463
3666 1739
3666 2410
3667 1468
3667 1730
3667 2401
3668 1470
3668 1732
3668 2403
3669 1456
3669 1731
3669 2404
3670 1471
3670 1733
3670 2402
3671 1459
3671 1729
3671 2405
3672 1461
3672 1738
3672 2411
3673 1464
3673 1742
3673 2414
3674 1458
3674 1740
3674 2409
3675 1462
3675 1743
3675 2413
3676 1460
3676 1741
3676 2406
3677 1465
3677 1736
3677 2415
3678 1466
3678 1735
3678 2408
3679 1467
3679 1734
3679 2400
3680 362
3680 767
3680 1029
3681 352
3681 760
3681 1036
3682 361
3682 757
3682 1032
3683 353
3683 756
3683 1034
3684 363
3684 755
3684 1038
3685 358
3685 753
3685 1026
3686 354
3686 761
3686 1035
3687 360
3687 758
3687 1039
3688 355
3688 759
3688 1030
3689 356
3689 752
3689 1031
3690 364
3690 765
3690 1027
3691 357
3691 766
3691 1033
3692 359
3692 763
3692 1025
3693 366
3693 754
3693 1028
3694 367
3694 764
3694 1024
3695 365
3695 762
3695 1037
3696 1617
3696 1890
3696 2175
3697 1618
3697 1894
3697 2160
3698 1620
3698 1892
3698 2163
3699 1616
3699 1893
3699 2164
3700 1623
3700 1895
3700 2166
3701 1626
3701 1889
3701 2170
3702 1627
3702 1901
3702 2168
3703 1630
3703 1899
3703 2172
3704 1631
3704 1896
3704 2174
3705 1622
3705 1903
3705 2171
3706 1621
3706 1897
3706 2161
3707 1628
3707 1891
3707 2167
3708 1619
3708 1902
3708 2165
3709 1629
3709 1898
3709 2169
3710 1624
3710 1900
3710 2173
3711 1625
3711 1888
3711 2162
3712 409
3712 541
3712 1209
3713 400
3713 532
3713 1206
3714 403
3714 540
3714 1213
3715 407
3715 531
3715 1201
3716 402
3716 543
3716 1207
3717 408
3717 542
3717 1212
3718 401
3718 530
3718 1204
3719 415
3719 534
3719 1215
3720 414
3720 536
3720 1200
3721 410
3721 533
3721 1214
3722 413
3722 537
3722 1202
3723 405
3723 529
3723 1203
3724 411
3724 539
3724 1210
3725 412
3725 538
3725 1208
3726 406
3726 528
3726 1211
3727 404
3727 535
3727 1205
3728 1399
3728 2070
3728 2261
3729 1407
3729 2071
3729 2266
3730 1404
3730 2066
3730 2268
3731 1406
3731 2064
3731 2263
3732 1392
3732 2073
3732 2257
3733 1403
3733 2074
3733 2259
3734 1396
3734 2079
3734 2267
3735 1393
3735 2075
3735 2262
3736 1400
3736 2068
3736 2256
3737 1398
3737 2065
3737 2271
3738 1405
3738 2076
3738 2265
3739 1395
3739 2077
3739 2269
3740 1401
3740 2078
3740 2258
3741 1397
3741 2072
3741 2270
3742 1394
3742 2069
3742 2260
3743 1402
3743 2067
3743 2264
3744 351
3744 690
3744 975
3745 350
3745 688
3745 974
3746 346
3746 701
3746 973
3747 339
3747 703
3747 961
3748 344
3748 693
3748 971
3749 345
3749 699
3749 964
3750 342
3750 695
3750 972
3751 338
3751 702
3751 962
3752 340
3752 691
3752 968
3753 336
3753 689
3753 969
3754 349
3754 697
3754 960
3755 343
3755 698
3755 966
3756 348
3756 696
3756 970
3757 341
3757 692
3757 967
3758 347
3758 694
3758 963
3759 337
3759 700
3759 965
3760 1557
3760 1839
3760 2416
3761 1555
3761 1829
3761 2417
3762 1558
3762 1832
3762 2421
3763 1561
3763 1836
3763 2430
3764 1566
3764 1828
3764 2422
3765 1567
3765 1837
3765 2431
3766 1563
3766 1824
3766 2425
3767 1562
3767 1825
3767 2418
3768 1565
3768 1834
3768 2419
3769 1559
3769 1833
3769 2426
3770 1554
3770 1831
3770 2423
3771 1552
3771 1827
3771 2424
3772 1553
3772 1835
3772 2428
3773 1556
3773 1838
3773 2420
3774 1564
3774 1826
3774 2427
3775 1560
3775 1830
3775 2429
3776 365
3776 851
3776 1131
3777 366
3777 859
3777 1132
3778 367
3778 862
3778 1124
3779 361
3779 855
3779 1127
3780 354
3780 850
3780 1130
3781 355
3781 854
3781 1122
3782 364
3782 858
3782 1121
3783 362
3783 853
3783 1129
3784 356
3784 852
3784 1123
3785 363
3785 849
3785 1133
3786 357
3786 856
3786 1126
3787 360
3787 861
3787 1125
3788 358
3788 863
3788 1128
3789 353
3789 860
3789 1135
3790 359
3790 857
3790 1120
3791 352
3791 848
3791 1134
3792 1313
3792 1998
3792 2177
3793 1324
3793 1999
3793 2183
3794 1323
3794 1984
3794 2178
3795 1320
3795 1991
3795 2186
3796 1322
3796 1995
3796 2190
3797 1325
3797 1989
3797 2184
3798 1316
3798 1997
3798 2187
3799 1326
3799 1994
3799 2188
3800 1319
3800 1992
3800 2191
3801 1317
3801 1986
3801 2189
3802 1315
3802 1985
3802 2180
3803 1314
3803 1993
3803 2179
3804 1318
3804 1990
3804 2182
3805 1321
3805 1988
3805 2181
3806 1327
3806 1996
3806 2185
3807 1312
3807 1987
3807 2176
3808 380
3808 608
3808 1288
3809 371
3809 619
3809 1281
3810 373
3810 610
3810 1292
3811 368
3811 614
3811 1280
3812 383
3812 620
3812 1284
3813 375
3813 621
3813 1290
3814 377
3814 611
3814 1283
3815 382
3815 609
3815 1285
3816 372
3816 617
3816 1293
3817 378
3817 616
3817 1294
3818 379
3818 622
3818 1295
3819 374
3819 618
3819 1282
3820 381
3820 623
3820 1291
3821 376
3821 612
3821 1286
3822 369
3822 615
3822 1287
3823 370
3823 613
3823 1289
3824 1484
3824 1752
3824 2338
3825 1486
3825 1758
3825 2347
3826 1472
3826 1749
3826 2343
3827 1482
3827 1751
3827 2336
3828 1478
3828 1746
3828 2337
3829 1481
3829 1759
3829 2341
3830 1474
3830 1747
3830 2339
3831 1477
3831 1756
3831 2344
3832 1475
3832 1753
3832 2349
3833 1480
3833 1744
3833 2345
3834 1479
3834 1755
3834 2340
3835 1485
3835 1750
3835 2351
3836 1483
3836 1754
3836 2348
3837 1487
3837 1745
3837 2342
3838 1476
3838 1748
3838 2346
3839 1473
3839 1757
3839 2350
3840 390
3840 780
3840 1043
3841 398
3841 778
3841 1044
3842 397
3842 783
3842 1045
3843 399
3843 768
3843 1048
3844 396
3844 776
3844 1051
3845 393
3845 775
3845 1055
3846 385
3846 771
3846 1041
3847 384
3847 773
3847 1053
3848 389
3848 777
3848 1040
3849 391
3849 774
3849 1047
3850 387
3850 782
3850 1042
3851 395
3851 770
3851 1046
3852 386
3852 781
3852 1052
3853 394
3853 779
3853 1049
3854 392
3854 772
3854 1050
3855 388
3855 769
3855 1054
3856 1639
3856 1910
3856 2096
3857 1635
3857 1912
3857 2098
3858 1636
3858 1904
3858 2111
3859 1634
3859 1909
3859 2103
3860 1637
3860 1906
3860 2102
3861 1645
3861 1911
3861 2108
3862 1641
3862 1905
3862 2101
3863 1632
3863 1914
3863 2110
3864 1644
3864 1913
3864 2106
3865 1633
3865 1919
3865 2105
3866 1647
3866 1915
3866 2109
3867 1643
3867 1918
3867 2104
3868 1646
3868 1916
3868 2107
3869 1640
3869 1908
3869 2100
3870 1642
3870 1917
3870 2099
3871 1638
3871 1907
3871 2097
3872 353
3872 553
3872 1143
3873 361
3873 551
3873 1138
3874 356
3874 547
3874 1140
3875 352
3875 550
3875 1151
3876 366
3876 554
3876 1144
3877 360
3877 548
3877 1145
3878 363
3878 559
3878 1137
3879 359
3879 546
3879 1139
3880 358
3880 557
3880 1141
3881 364
3881 552
3881 1136
3882 354
3882 549
3882 1142
3883 362
3883 558
3883 1146
3884 367
3884 544
3884 1149
3885 365
3885 555
3885 1148
3886 357
3886 545
3886 1150
3887 355
3887 556
3887 1147
3888 1415
3888 2082
3888 2275
3889 1416
3889 2092
3889 2286
3890 1411
3890 2090
3890 2282
3891 1422
3891 2093
3891 2280
3892 1412
3892 2081
3892 2285
3893 1408
3893 2091
3893 2283
3894 1409
3894 2085
3894 2277
3895 1420
3895 2084
3895 2281
3896 1418
3896 2089
3896 2278
3897 1413
3897 2083
3897 2272
3898 1419
3898 2080
3898 2274
3899 1417
3899 2095
3899 2276
3900 1410
3900 2087
3900 2284
3901 1421
3901 2088
3901 2279
3902 1414
3902 2086
3902 2273
3903 1423
3903 2094
3903 2287
3904 379
3904 719
3904 904
3905 370
3905 704
3905 910
3906 375
3906 709
3906 897
3907 381
3907 706
3907 896
3908 368
3908 717
3908 901
3909 374
3909 711
3909 902
3910 371
3910 710
3910 899
3911 372
3911 716
3911 903
3912 373
3912 708
3912 906
3913 377
3913 712
3913 909
3914 383
3914 714
3914 908
3915 380
3915 705
3915 907
3916 369
3916 715
3916 898
3917 376
3917 707
3917 911
3918 382
3918 718
3918 900
3919 378
3919 713
3919 905
3920 1573
3920 1853
3920 2445
3921 1576
3921 1845
3921 2440
3922 1570
3922 1851
3922 2442
3923 1571
3923 1840
3923 2439
3924 1575
3924 1849
3924 2446
3925 1577
3925 1850
3925 2436
3926 1569
3926 1854
3926 2435
3927 1568
3927 1848
3927 2434
3928 1583
3928 1855
3928 2437
3929 1572
3929 1841
3929 2441
3930 1580
3930 1846
3930 2447
3931 1578
3931 1852
3931 2432
3932 1574
3932 1847
3932 2443
3933 1582
3933 1843
3933 2433
3934 1579
3934 1844
3934 2444
3935 1581
3935 1842
3935 2438
3936 395
3936 871
3936 1057
3937 399
3937 879
3937 1060
3938 393
3938 866
3938 1066
3939 396
3939 876
3939 1059
3940 385
3940 873
3940 1071
3941 390
3941 877
3941 1067
3942 386
3942 875
3942 1063
3943 387
3943 868
3943 1062
3944 389
3944 864
3944 1061
3945 397
3945 869
3945 1065
3946 384
3946 878
3946 1064
3947 392
3947 872
3947 1069
3948 394
3948 867
3948 1058
3949 398
3949 874
3949 1070
3950 391
3950 870
3950 1068
3951 388
3951 865
3951 1056
3952 1338
3952 2006
3952 2204
3953 1337
3953 2014
3953 2197
3954 1333
3954 2011
3954 2199
3955 1342
3955 2004
3955 2195
3956 1341
3956 2008
3956 2194
3957 1336
3957 2001
3957 2206
3958 1330
3958 2005
3958 2202
3959 1329
3959 2015
3959 2198
3960 1335
3960 2012
3960 2201
3961 1332
3961 2013
3961 2200
3962 1339
3962 2002
3962 2192
3963 1343
3963 2000
3963 2196
3964 1328
3964 2010
3964 2205
3965 1331
3965 2009
3965 2193
3966 1334
3966 2003
3966 2203
3967 1340
3967 2007
3967 2207
3968 408
3968 625
3968 1219
3969 409
3969 629
3969 1220
3970 413
3970 626
3970 1218
3971 404
3971 635
3971 1226
3972 414
3972 638
3972 1225
3973 412
3973 627
3973 1222
3974 410
3974 634
3974 1227
3975 401
3975 633
3975 1229
3976 403
3976 624
3976 1217
3977 400
3977 631
3977 1224
3978 405
3978 630
3978 1228
3979 411
3979 639
3979 1221
3980 415
3980 637
3980 1223
3981 406
3981 628
3981 1230
3982 402
3982 632
3982 1216
3983 407
3983 636
3983 1231
3984 1493
3984 1773
3984 2360
3985 1489
3985 1765
3985 2366
3986 1488
3986 1760
3986 2353
3987 1500
3987 1762
3987 2352
3988 1497
3988 1771
3988 2363
3989 1503
3989 1764
3989 2362
3990 1495
3990 1769
3990 2355
3991 1494
3991 1767
3991 2354
3992 1498
3992 1761
3992 2357
3993 1490
3993 1774
3993 2365
3994 1496
3994 1768
3994 2356
3995 1491
3995 1775
3995 2358
3996 1492
3996 1772
3996 2364
3997 1501
3997 1763
3997 2367
3998 1502
3998 1770
3998 2359
3999 1499
3999 1766
3999 2361
4000 344
4000 793
4000 984
4001 347
4001 799
4001 986
4002 340
4002 798
4002 982
4003 350
4003 792
4003 978
4004 342
4004 789
4004 977
4005 349
4005 794
4005 987
4006 345
4006 795
4006 981
4007 348
4007 788
4007 983
4008 346
4008 784
4008 980
4009 351
4009 785
4009 976
4010 339
4010 786
4010 985
4011 338
4011 797
4011 989
4012 343
4012 787
4012 988
4013 336
4013 796
4013 990
4014 337
4014 791
4014 979
4015 341
4015 790
4015 991
4016 1653
4016 1926
4016 2116
4017 1651
4017 1929
4017 2122
4018 1649
4018 1934
4018 2118
4019 1660
4019 1930
4019 2127
4020 1657
4020 1932
4020 2112
4021 1656
4021 1921
4021 2125
4022 1655
4022 1924
4022 2126
4023 1663
4023 1920
4023 2117
4024 1658
4024 1923
4024 2119
4025 1661
4025 1933
4025 2114
4026 1662
4026 1935
4026 2121
4027 1652
4027 1927
4027 2113
4028 1654
4028 1928
4028 2115
4029 1648
4029 1922
4029 2124
4030 1659
4030 1925
4030 2123
4031 1650
4031 1931
4031 2120
4032 388
4032 575
4032 1166
4033 391
4033 569
4033 1165
4034 394
4034 570
4034 1154
4035 390
4035 561
4035 1156
4036 393
4036 574
4036 1155
4037 397
4037 562
4037 1157
4038 385
4038 567
4038 1160
4039 389
4039 560
4039 1162
4040 386
4040 564
4040 1159
4041 398
4041 563
4041 1161
4042 395
4042 568
4042 1152
4043 387
4043 571
4043 1164
4044 399
4044 573
4044 1158
4045 396
4045 572
4045 1167
4046 384
4046 565
4046 1153
4047 392
4047 566
4047 1163
4048 1427
4048 2028
4048 2293
4049 1432
4049 2024
4049 2303
4050 1429
4050 2021
4050 2300
4051 1431
4051 2027
4051 2297
4052 1430
4052 2030
4052 2294
4053 1435
4053 2020
4053 2299
4054 1425
4054 2023
4054 2292
4055 1434
4055 2025
4055 2296
4056 1438
4056 2018
4056 2289
4057 1426
4057 2016
4057 2290
4058 1436
4058 2022
4058 2302
4059 1424
4059 2031
4059 2291
4060 1428
4060 2026
4060 2298
4061 1433
4061 2029
4061 2288
4062 1437
4062 2017
4062 2301
4063 1439
4063 2019
4063 2295
4064 410
4064 727
4064 918
4065 408
4065 723
4065 915
4066 413
4066 730
4066 921
4067 414
4067 722
4067 914
4068 415
4068 735
4068 923
4069 404
4069 728
4069 919
4070 409
4070 731
4070 927
4071 407
4071 733
4071 926
4072 400
4072 724
4072 916
4073 402
4073 725
4073 912
4074 412
4074 732
4074 913
4075 403
4075 726
4075 925
4076 406
4076 734
4076 920
4077 401
4077 729
4077 917
4078 405
4078 720
4078 922
4079 411
4079 721
4079 924
4080 1585
4080 1785
4080 2456
4081 1596
4081 1787
4081 2451
4082 1591
4082 1776
4082 2462
4083 1590
4083 1777
4083 2449
4084 1594
4084 1790
4084 2460
4085 1597
4085 1778
4085 2459
4086 1593
4086 1784
4086 2455
4087 1595
4087 1779
4087 2450
4088 1598
4088 1786
4088 2457
4089 1584
4089 1788
4089 2454
4090 1592
4090 1781
4090 2461
4091 1587
4091 1782
4091 2463
4092 1588
4092 1791
4092 2452
4093 1599
4093 1783
4093 2453
4094 1586
4094 1789
4094 2458
4095 1589
4095 1780
4095 2448
4096 347
4096 885
4096 1072
4097 346
4097 890
4097 1084
4098 345
4098 894
4098 1083
4099 344
4099 892
4099 1082
4100 338
4100 886
4100 1086
4101 351
4101 880
4101 1074
4102 342
4102 884
4102 1073
4103 340
4103 888
4103 1079
4104 349
4104 883
4104 1078
4105 339
4105 882
4105 1085
4106 341
4106 893
4106 1080
4107 343
4107 887
4107 1076
4108 336
4108 881
4108 1075
4109 350
4109 891
4109 1087
4110 337
4110 889
4110 1081
4111 348
4111 895
4111 1077
4112 1346
4112 1940
4112 2220
4113 1352
4113 1936
4113 2216
4114 1348
4114 1949
4114 2221
4115 1345
4115 1941
4115 2213
4116 1349
4116 1942
4116 2218
4117 1344
4117 1943
4117 2217
4118 1355
4118 1951
4118 2222
4119 1354
4119 1938
4119 2215
4120 1359
4120 1950
4120 2223
4121 1356
4121 1948
4121 2214
4122 1347
4122 1945
4122 2208
4123 1351
4123 1939
4123 2209
4124 1357
4124 1944
4124 2211
4125 1350
4125 1947
4125 2219
4126 1358
4126 1937
4126 2212
4127 1353
4127 1946
4127 2210
4128 352
4128 654
4128 1239
4129 364
4129 646
4129 1236
4130 359
4130 640
4130 1247
4131 361
4131 643
4131 1237
4132 357
4132 650
4132 1232
4133 354
4133 641
4133 1241
4134 353
4134 644
4134 1244
4135 365
4135 653
4135 1243
4136 362
4136 655
4136 1233
4137 367
4137 649
4137 1245
4138 360
4138 645
4138 1242
4139 358
4139 647
4139 1234
4140 355
4140 642
4140 1246
4141 366
4141 648
4141 1238
4142 363
4142 652
4142 1240
4143 356
4143 651
4143 1235
4144 1517
4144 1697
4144 2368
4145 1512
4145 1705
4145 2375
4146 1510
4146 1707
4146 2369
4147 1515
4147 1710
4147 2376
4148 1508
4148 1703
4148 2380
4149 1518
4149 1696
4149 2372
4150 1505
4150 1702
4150 2370
4151 1516
4151 1698
4151 2382
4152 1514
4152 1711
4152 2383
4153 1506
4153 1701
4153 2377
4154 1513
4154 1704
4154 2371
4155 1507
4155 1699
4155 2378
4156 1504
4156 1700
4156 2379
4157 1509
4157 1709
4157 2381
4158 1519
4158 1706
4158 2374
4159 1511
4159 1708
4159 2373
4160 380
4160 810
4160 994
4161 382
4161 804
4161 993
4162 370
4162 803
4162 1000
4163 381
4163 815
4163 1001
4164 374
4164 805
4164 997
4165 372
4165 808
4165 999
4166 369
4166 814
4166 1007
4167 371
4167 807
4167 1002
4168 379
4168 812
4168 992
4169 376
4169 813
4169 995
4170 373
4170 809
4170 998
4171 368
4171 811
4171 1006
4172 383
4172 806
4172 1003
4173 378
4173 801
4173 1005
4174 377
4174 800
4174 1004
4175 375
4175 802
4175 996
4176 1668
4176 1864
4176 2135
4177 1676
4177 1869
4177 2133
4178 1664
4178 1858
4178 2130
4179 1671
4179 1859
4179 2137
4180 1674
4180 1861
4180 2143
4181 1667
4181 1862
4181 2129
4182 1673
4182 1860
4182 2128
4183 1677
4183 1863
4183 2142
4184 1675
4184 1871
4184 2140
4185 1669
4185 1857
4185 2131
4186 1672
4186 1867
4186 2141
4187 1678
4187 1870
4187 2132
4188 1670
4188 1866
4188 2138
4189 1666
4189 1865
4189 2139
4190 1679
4190 1856
4190 2134
4191 1665
4191 1868
4191 2136
4192 176
4192 507
4192 998
4193 189
4193 511
4193 1000
4194 182
4194 508
4194 1001
4195 181
4195 509
4195 1005
4196 184
4196 510
4196 993
4197 179
4197 499
4197 1004
4198 177
4198 498
4198 1006
4199 191
4199 497
4199 996
4200 185
4200 506
4200 997
4201 186
4201 496
4201 1007
4202 178
4202 502
4202 999
4203 188
4203 504
4203 992
4204 183
4204 505
4204 1003
4205 190
4205 501
4205 1002
4206 187
4206 500
4206 994
4207 180
4207 503
4207 995
4208 1490
4208 1998
4208 2493
4209 1493
4209 1992
4209 2486
4210 1497
4210 1984
4210 2483
4211 1488
4211 1994
4211 2481
4212 1491
4212 1991
4212 2495
4213 1498
4213 1993
4213 2491
4214 1495
4214 1997
4214 2490
4215 1501
4215 1999
4215 2489
4216 1492
4216 1988
4216 2488
4217 1503
4217 1995
4217 2492
4218 1499
4218 1996
4218 2482
4219 1489
4219 1990
4219 2494
4220 1502
4220 1989
4220 2480
4221 1496
4221 1985
4221 2484
4222 1494
4222 1987
4222 2487
4223 1500
4223 1986
4223 2485
4224 204
4224 826
4224 923
4225 197
4225 822
4225 920
4226 200
4226 817
4226 927
4227 201
4227 821
4227 925
4228 195
4228 827
4228 922
4229 203
4229 819
4229 917
4230 196
4230 829
4230 912
4231 207
4231 828
4231 918
4232 192
4232 830
4232 924
4233 194
4233 825
4233 919
4234 198
4234 816
4234 913
4235 193
4235 831
4235 915
4236 199
4236 824
4236 926
4237 206
4237 818
4237 916
4238 202
4238 823
4238 914
4239 205
4239 820
4239 921
4240 1408
4240 1918
4240 2400
4241 1410
4241 1910
4241 2407
4242 1412
4242 1919
4242 2406
4243 1418
4243 1906
4243 2403
4244 1421
4244 1913
4244 2402
4245 1420
4245 1915
4245 2410
4246 1422
4246 1914
4246 2415
4247 1417
4247 1916
4247 2412
4248 1415
4248 1911
4248 2401
4249 1419
4249 1905
4249 2414
4250 1413
4250 1907
4250 2408
4251 1414
4251 1904
4251 2404
4252 1416
4252 1908
4252 2413
4253 1411
4253 1909
4253 2405
4254 1423
4254 1912
4254 2409
4255 1409
4255 1917
4255 2411
4256 212
4256 739
4256 1246
4257 219
4257 741
4257 1245
4258 216
4258 745
4258 1238
4259 223
4259 748
4259 1239
4260 208
4260 751
4260 1240
4261 215
4261 747
4261 1233
4262 210
4262 746
4262 1242
4263 221
4263 740
4263 1235
4264 214
4264 743
4264 1236
4265 217
4265 742
4265 1241
4266 222
4266 736
4266 1247
4267 218
4267 749
4267 1237
4268 209
4268 744
4268 1243
4269 220
4269 737
4269 1232
4270 213
4270 738
4270 1244
4271 211
4271 750
4271 1234
4272 1334
4272 1826
4272 2327
4273 1331
4273 1829
4273 2326
4274 1340
4274 1830
4274 2335
4275 1330
4275 1838
4275 2324
4276 1338
4276 1836
4276 2331
4277 1335
4277 1831
4277 2330
4278 1332
4278 1835
4278 2329
4279 1337
4279 1833
4279 2325
4280 1336
4280 1824
4280 2321
4281 1333
4281 1828
4281 2328
4282 1341
4282 1832
4282 2320
4283 1342
4283 1837
4283 2334
4284 1339
4284 1839
4284 2322
4285 1329
4285 1834
4285 2332
4286 1328
4286 1827
4286 2323
4287 1343
4287 1825
4287 2333
4288 227
4288 663
4288 1166
4289 237
4289 657
4289 1158
4290 229
4290 659
4290 1161
4291 238
4291 664
4291 1153
4292 224
4292 671
4292 1164
4293 235
4293 666
4293 1155
4294 232
4294 668
4294 1163
4295 226
4295 662
4295 1154
4296 234
4296 661
4296 1165
4297 231
4297 658
4297 1157
4298 236
4298 656
4298 1159
4299 233
4299 665
4299 1162
4300 225
4300 670
4300 1160
4301 239
4301 669
4301 1156
4302 230
4302 660
4302 1167
4303 228
4303 667
4303 1152
4304 1659
4304 1754
4304 2254
4305 1657
4305 1758
4305 2246
4306 1651
4306 1748
4306 2242
4307 1661
4307 1753
4307 2247
4308 1656
4308 1746
4308 2243
4309 1655
4309 1744
4309 2245
4310 1653
4310 1745
4310 2250
4311 1660
4311 1752
4311 2249
4312 1649
4312 1749
4312 2244
4313 1654
4313 1757
4313 2255
4314 1650
4314 1756
4314 2248
4315 1648
4315 1751
4315 2252
4316 1658
4316 1747
4316 2240
4317 1663
4317 1755
4317 2241
4318 1652
4318 1750
4318 2253
4319 1662
4319 1759
4319 2251
4320 243
4320 588
4320 1086
4321 242
4321 580
4321 1085
4322 245
4322 586
4322 1087
4323 246
4323 590
4323 1078
4324 248
4324 582
4324 1081
4325 244
4325 578
4325 1074
4326 241
4326 587
4326 1084
4327 240
4327 584
4327 1080
4328 255
4328 579
4328 1075
4329 249
4329 583
4329 1073
4330 251
4330 581
4330 1083
4331 247
4331 577
4331 1079
4332 252
4332 585
4332 1077
4333 254
4333 576
4333 1082
4334 250
4334 589
4334 1072
4335 253
4335 591
4335 1076
4336 1570
4336 2075
4336 2172
4337 1568
4337 2069
4337 2161
4338 1576
4338 2076
4338 2173
4339 1574
4339 2074
4339 2167
4340 1573
4340 2066
4340 2162
4341 1583
4341 2067
4341 2174
4342 1580
4342 2071
4342 2168
4343 1575
4343 2070
4343 2164
4344 1571
4344 2078
4344 2165
4345 1579
4345 2065
4345 2169
4346 1581
4346 2077
4346 2175
4347 1572
4347 2079
4347 2171
4348 1577
4348 2064
4348 2160
4349 1569
4349 2068
4349 2163
4350 1578
4350 2072
4350 2166
4351 1582
4351 2073
4351 2170
4352 247
4352 524
4352 1016
4353 240
4353 522
4353 1014
4354 254
4354 513
4354 1012
4355 251
4355 516
4355 1023
4356 252
4356 520
4356 1013
4357 253
4357 518
4357 1019
4358 255
4358 526
4358 1009
4359 248
4359 517
4359 1011
4360 250
4360 515
4360 1017
4361 246
4361 521
4361 1008
4362 249
4362 519
4362 1020
4363 245
4363 527
4363 1015
4364 241
4364 512
4364 1021
4365 243
4365 514
4365 1022
4366 244
4366 525
4366 1018
4367 242
4367 523
4367 1010
4368 1508
4368 2011
4368 2430
4369 1510
4369 2014
4369 2431
4370 1514
4370 2004
4370 2418
4371 1519
4371 2015
4371 2420
4372 1513
4372 2008
4372 2423
4373 1518
4373 2000
4373 2429
4374 1512
4374 2001
4374 2425
4375 1516
4375 2010
4375 2426
4376 1509
4376 2013
4376 2424
4377 1506
4377 2002
4377 2422
4378 1504
4378 2009
4378 2421
4379 1515
4379 2006
4379 2419
4380 1505
4380 2007
4380 2417
4381 1517
4381 2005
4381 2427
4382 1507
4382 2003
4382 2416
4383 1511
4383 2012
4383 2428
4384 180
4384 837
4384 931
4385 176
4385 836
4385 933
4386 189
4386 834
4386 940
4387 182
4387 842
4387 930
4388 184
4388 839
4388 932
4389 179
4389 847
4389 934
4390 181
4390 846
4390 943
4391 177
4391 833
4391 941
4392 190
4392 832
4392 936
4393 178
4393 835
4393 929
4394 186
4394 838
4394 928
4395 185
4395 844
4395 939
4396 191
4396 840
4396 935
4397 183
4397 845
4397 938
4398 187
4398 841
4398 942
4399 188
4399 843
4399 937
4400 1430
4400 1928
4400 2350
4401 1424
4401 1923
4401 2340
4402 1425
4402 1925
4402 2348
4403 1429
4403 1930
4403 2336
4404 1431
4404 1927
4404 2346
4405 1427
4405 1929
4405 2343
4406 1436
4406 1920
4406 2345
4407 1433
4407 1926
4407 2347
4408 1439
4408 1934
4408 2338
4409 1426
4409 1932
4409 2341
4410 1432
4410 1924
4410 2344
4411 1434
4411 1921
4411 2339
4412 1437
4412 1931
4412 2351
4413 1428
4413 1935
4413 2349
4414 1438
4414 1922
4414 2337
4415 1435
4415 1933
4415 2342
4416 197
4416 762
4416 1249
4417 204
4417 767
4417 1248
4418 203
4418 766
4418 1262
4419 193
4419 756
4419 1254
4420 202
4420 752
4420 1256
4421 199
4421 764
4421 1253
4422 206
4422 753
4422 1263
4423 200
4423 754
4423 1260
4424 198
4424 763
4424 1257
4425 195
4425 758
4425 1261
4426 196
4426 755
4426 1259
4427 194
4427 759
4427 1255
4428 192
4428 765
4428 1250
4429 201
4429 760
4429 1252
4430 207
4430 761
4430 1251
4431 205
4431 757
4431 1258
4432 1355
4432 1846
4432 2260
4433 1348
4433 1841
4433 2265
4434 1349
4434 1852
4434 2269
4435 1347
4435 1853
4435 2259
4436 1354
4436 1842
4436 2258
4437 1358
4437 1849
4437 2261
4438 1351
4438 1847
4438 2263
4439 1344
4439 1854
4439 2271
4440 1359
4440 1850
4440 2268
4441 1350
4441 1843
4441 2256
4442 1346
4442 1844
4442 2257
4443 1345
4443 1848
4443 2267
4444 1356
4444 1840
4444 2266
4445 1352
4445 1845
4445 2270
4446 1353
4446 1855
4446 2262
4447 1357
4447 1851
4447 2264
4448 210
4448 676
4448 1172
4449 219
4449 673
4449 1174
4450 211
4450 674
4450 1182
4451 223
4451 675
4451 1170
4452 220
4452 682
4452 1176
4453 212
4453 685
4453 1180
4454 216
4454 681
4454 1169
4455 209
4455 684
4455 1178
4456 218
4456 677
4456 1179
4457 215
4457 686
4457 1168
4458 214
4458 683
4458 1175
4459 221
4459 678
4459 1183
4460 208
4460 672
4460 1181
4461 222
4461 687
4461 1171
4462 213
4462 680
4462 1177
4463 217
4463 679
4463 1173
4464 1672
4464 1767
4464 2188
4465 1670
4465 1770
4465 2177
4466 1669
4466 1773
4466 2187
4467 1667
4467 1760
4467 2186
4468 1668
4468 1774
4468 2182
4469 1673
4469 1771
4469 2185
4470 1677
4470 1772
4470 2178
4471 1674
4471 1766
4471 2181
4472 1679
4472 1769
4472 2184
4473 1678
4473 1763
4473 2183
4474 1666
4474 1762
4474 2191
4475 1664
4475 1768
4475 2176
4476 1665
4476 1764
4476 2180
4477 1671
4477 1761
4477 2190
4478 1676
4478 1775
4478 2189
4479 1675
4479 1765
4479 2179
4480 226
4480 597
4480 1101
4481 231
4481 599
4481 1095
4482 229
4482 594
4482 1102
4483 235
4483 601
4483 1098
4484 232
4484 603
4484 1090
4485 237
4485 606
4485 1091
4486 225
4486 595
4486 1096
4487 239
4487 607
4487 1094
4488 238
4488 596
4488 1088
4489 227
4489 598
4489 1103
4490 234
4490 593
4490 1099
4491 228
4491 602
4491 1097
4492 233
4492 604
4492 1093
4493 224
4493 592
4493 1092
4494 230
4494 600
4494 1100
4495 236
4495 605
4495 1089
4496 1596
4496 2086
4496 2105
4497 1597
4497 2090
4497 2099
4498 1584
4498 2093
4498 2102
4499 1599
4499 2089
4499 2109
4500 1588
4500 2087
4500 2100
4501 1591
4501 2082
4501 2107
4502 1587
4502 2080
4502 2104
4503 1590
4503 2091
4503 2110
4504 1585
4504 2084
4504 2098
4505 1593
4505 2083
4505 2103
4506 1594
4506 2094
4506 2101
4507 1598
4507 2088
4507 2097
4508 1595
4508 2092
4508 2108
4509 1586
4509 2095
4509 2106
4510 1592
4510 2081
4510 2111
4511 1589
4511 2085
4511 2096
4512 233
4512 534
4512 1038
4513 236
4513 535
4513 1033
4514 237
4514 539
4514 1036
4515 238
4515 528
4515 1029
4516 227
4516 543
4516 1024
4517 225
4517 541
4517 1039
4518 229
4518 537
4518 1034
4519 239
4519 530
4519 1035
4520 235
4520 531
4520 1028
4521 230
4521 538
4521 1026
4522 228
4522 529
4522 1031
4523 224
4523 532
4523 1030
4524 234
4524 533
4524 1037
4525 226
4525 536
4525 1027
4526 231
4526 542
4526 1032
4527 232
4527 540
4527 1025
4528 1529
4528 1941
4528 2436
4529 1533
4529 1946
4529 2439
4530 1530
4530 1937
4530 2447
4531 1522
4531 1950
4531 2441
4532 1521
4532 1940
4532 2440
4533 1528
4533 1942
4533 2433
4534 1523
4534 1945
4534 2438
4535 1534
4535 1936
4535 2434
4536 1524
4536 1951
4536 2432
4537 1525
4537 1948
4537 2435
4538 1535
4538 1939
4538 2446
4539 1531
4539 1947
4539 2445
4540 1527
4540 1943
4540 2443
4541 1520
4541 1944
4541 2437
4542 1532
4542 1938
4542 2442
4543 1526
4543 1949
4543 2444
4544 248
4544 859
4544 951
4545 255
4545 863
4545 952
4546 243
4546 849
4546 954
4547 254
4547 860
4547 959
4548 246
4548 851
4548 947
4549 241
4549 852
4549 953
4550 247
4550 861
4550 950
4551 244
4551 848
4551 949
4552 249
4552 850
4552 944
4553 252
4553 862
4553 956
4554 240
4554 855
4554 957
4555 250
4555 858
4555 948
4556 242
4556 856
4556 946
4557 245
4557 857
4557 958
4558 253
4558 853
4558 955
4559 251
4559 854
4559 945
4560 1452
4560 1864
4560 2353
4561 1441
4561 1861
4561 2366
4562 1445
4562 1868
4562 2360
4563 1449
4563 1860
4563 2359
4564 1443
4564 1857
4564 2365
4565 1448
4565 1869
4565 2363
4566 1446
4566 1862
4566 2354
4567 1444
4567 1870
4567 2367
4568 1442
4568 1858
4568 2361
4569 1454
4569 1871
4569 2358
4570 1455
4570 1866
4570 2355
4571 1450
4571 1856
4571 2364
4572 1447
4572 1865
4572 2352
4573 1453
4573 1867
4573 2362
4574 1440
4574 1859
4574 2357
4575 1451
4575 1863
4575 2356
4576 176
4576 783
4576 1264
4577 190
4577 768
4577 1266
4578 179
4578 774
4578 1278
4579 185
4579 781
4579 1272
4580 178
4580 769
4580 1279
4581 181
4581 779
4581 1271
4582 189
4582 776
4582 1275
4583 180
4583 770
4583 1270
4584 183
4584 775
4584 1269
4585 187
4585 780
4585 1274
4586 191
4586 771
4586 1277
4587 186
4587 773
4587 1276
4588 188
4588 782
4588 1267
4589 177
4589 772
4589 1273
4590 182
4590 778
4590 1265
4591 184
4591 777
4591 1268
4592 1361
4592 1790
4592 2273
4593 1364
4593 1780
4593 2277
4594 1371
4594 1778
4594 2280
4595 1360
4595 1786
4595 2274
4596 1363
4596 1782
4596 2272
4597 1366
4597 1788
4597 2276
4598 1368
4598 1787
4598 2284
4599 1365
4599 1789
4599 2275
4600 1369
4600 1776
4600 2278
4601 1362
4601 1791
4601 2287
4602 1372
4602 1783
4602 2282
4603 1367
4603 1779
4603 2279
4604 1370
4604 1785
4604 2281
4605 1373
4605 1777
4605 2283
4606 1374
4606 1784
4606 2285
4607 1375
4607 1781
4607 2286
4608 207
4608 699
4608 1188
4609 203
4609 695
4609 1196
4610 197
4610 692
4610 1187
4611 198
4611 688
4611 1197
4612 196
4612 702
4612 1189
4613 192
4613 694
4613 1195
4614 199
4614 696
4614 1191
4615 206
4615 703
4615 1198
4616 200
4616 698
4616 1185
4617 194
4617 700
4617 1192
4618 204
4618 691
4618 1186
4619 201
4619 689
4619 1199
4620 193
4620 697
4620 1194
4621 195
4621 693
4621 1193
4622 205
4622 701
4622 1184
4623 202
4623 690
4623 1190
4624 1682
4624 1704
4624 2203
4625 1690
4625 1702
4625 2200
4626 1681
4626 1707
4626 2204
4627 1695
4627 1710
4627 2193
4628 1692
4628 1700
4628 2194
4629 1688
4629 1697
4629 2197
4630 1687
4630 1708
4630 2201
4631 1691
4631 1699
4631 2199
4632 1689
4632 1698
4632 2196
4633 1680
4633 1709
4633 2195
4634 1686
4634 1706
4634 2192
4635 1694
4635 1705
4635 2206
4636 1683
4636 1711
4636 2205
4637 1685
4637 1703
4637 2207
4638 1684
4638 1701
4638 2202
4639 1693
4639 1696
4639 2198
4640 209
4640 609
4640 1117
4641 221
4641 618
4641 1113
4642 218
4642 608
4642 1107
4643 216
4643 620
4643 1119
4644 219
4644 619
4644 1115
4645 210
4645 615
4645 1105
4646 211
4646 617
4646 1110
4647 222
4647 613
4647 1106
4648 208
4648 612
4648 1109
4649 223
4649 614
4649 1108
4650 212
4650 616
4650 1112
4651 217
4651 623
4651 1114
4652 215
4652 611
4652 1116
4653 213
4653 621
4653 1118
4654 214
4654 622
4654 1111
4655 220
4655 610
4655 1104
4656 1600
4656 2026
4656 2123
4657 1613
4657 2031
4657 2114
4658 1605
4658 2023
4658 2112
4659 1614
4659 2016
4659 2122
4660 1610
4660 2030
4660 2117
4661 1603
4661 2021
4661 2115
4662 1606
4662 2029
4662 2119
4663 1612
4663 2024
4663 2126
4664 1615
4664 2019
4664 2127
4665 1607
4665 2028
4665 2120
4666 1604
4666 2027
4666 2121
4667 1601
4667 2020
4667 2124
4668 1602
4668 2018
4668 2113
4669 1608
4669 2025
4669 2116
4670 1609
4670 2022
4670 2125
4671 1611
4671 2017
4671 2118
4672 214
4672 550
4672 1044
4673 213
4673 556
4673 1045
4674 215
4674 558
4674 1043
4675 210
4675 545
4675 1051
4676 209
4676 551
4676 1041
4677 217
4677 547
4677 1047
4678 219
4678 555
4678 1049
4679 223
4679 544
4679 1053
4680 220
4680 554
4680 1042
4681 218
4681 553
4681 1052
4682 222
4682 548
4682 1055
4683 221
4683 559
4683 1040
4684 211
4684 549
4684 1048
4685 212
4685 552
4685 1050
4686 208
4686 557
4686 1046
4687 216
4687 546
4687 1054
4688 1460
4688 1954
4688 2463
4689 1471
4689 1953
4689 2448
4690 1462
4690 1959
4690 2454
4691 1459
4691 1963
4691 2461
4692 1470
4692 1960
4692 2452
4693 1457
4693 1961
4693 2449
4694 1468
4694 1964
4694 2460
4695 1458
4695 1966
4695 2458
4696 1456
4696 1965
4696 2456
4697 1469
4697 1956
4697 2455
4698 1466
4698 1958
4698 2462
4699 1467
4699 1952
4699 2451
4700 1464
4700 1955
4700 2457
4701 1461
4701 1962
4701 2453
4702 1463
4702 1967
4702 2450
4703 1465
4703 1957
4703 2459
4704 225
4704 870
4704 974
4705 234
4705 877
4705 967
4706 236
4706 876
4706 966
4707 229
4707 871
4707 961
4708 230
4708 869
4708 962
4709 227
4709 866
4709 973
4710 224
4710 864
4710 964
4711 228
4711 878
4711 968
4712 226
4712 875
4712 960
4713 239
4713 872
4713 972
4714 233
4714 867
4714 965
4715 232
4715 868
4715 969
4716 235
4716 874
4716 970
4717 238
4717 873
4717 963
4718 237
4718 879
4718 971
4719 231
4719 865
4719 975
4720 1382
4720 1883
4720 2382
4721 1384
4721 1876
4721 2381
4722 1376
4722 1881
4722 2373
4723 1387
4723 1877
4723 2372
4724 1381
4724 1879
4724 2371
4725 1390
4725 1872
4725 2383
4726 1380
4726 1887
4726 2376
4727 1383
4727 1874
4727 2378
4728 1388
4728 1886
4728 2380
4729 1389
4729 1882
4729 2370
4730 1377
4730 1878
4730 2368
4731 1378
4731 1880
4731 2377
4732 1379
4732 1875
4732 2374
4733 1385
4733 1873
4733 2369
4734 1391
4734 1885
4734 2379
4735 1386
4735 1884
4735 2375
4736 252
4736 798
4736 1286
4737 247
4737 797
4737 1285
4738 248
4738 794
4738 1280
4739 241
4739 789
4739 1293
4740 246
4740 791
4740 1281
4741 255
4741 784
4741 1284
4742 243
4742 792
4742 1291
4743 240
4743 786
4743 1282
4744 253
4744 795
4744 1290
4745 249
4745 796
4745 1295
4746 244
4746 787
4746 1283
4747 242
4747 788
4747 1288
4748 251
4748 785
4748 1292
4749 254
4749 793
4749 1287
4750 245
4750 799
4750 1289
4751 250
4751 790
4751 1294
4752 1308
4752 1797
4752 2300
4753 1299
4753 1795
4753 2302
4754 1309
4754 1807
4754 2293
4755 1301
4755 1801
4755 2299
4756 1298
4756 1800
4756 2291
4757 1303
4757 1804
4757 2288
4758 1300
4758 1793
4758 2294
4759 1296
4759 1806
4759 2296
4760 1304
4760 1796
4760 2290
4761 1297
4761 1792
4761 2301
4762 1311
4762 1794
4762 2295
4763 1306
4763 1799
4763 2303
4764 1302
4764 1805
4764 2292
4765 1310
4765 1798
4765 2298
4766 1305
4766 1803
4766 2289
4767 1307
4767 1802
4767 2297
4768 177
4768 712
4768 1203
4769 191
4769 719
4769 1201
4770 176
4770 704
4770 1210
4771 178
4771 707
4771 1211
4772 184
4772 709
4772 1206
4773 183
4773 710
4773 1208
4774 180
4774 716
4774 1212
4775 190
4775 706
4775 1204
4776 181
4776 715
4776 1200
4777 186
4777 718
4777 1209
4778 179
4778 705
4778 1213
4779 182
4779 714
4779 1202
4780 189
4780 711
4780 1215
4781 187
4781 708
4781 1207
4782 185
4782 717
4782 1214
4783 188
4783 713
4783 1205
4784 1626
4784 1726
4784 2216
4785 1627
4785 1714
4785 2218
4786 1625
4786 1720
4786 2214
4787 1630
4787 1712
4787 2215
4788 1621
4788 1716
4788 2209
4789 1629
4789 1719
4789 2221
4790 1619
4790 1715
4790 2213
4791 1623
4791 1721
4791 2211
4792 1616
4792 1725
4792 2223
4793 1622
4793 1723
4793 2222
4794 1620
4794 1727
4794 2208
4795 1617
4795 1724
4795 2212
4796 1624
4796 1718
4796 2220
4797 1628
4797 1713
4797 2219
4798 1618
4798 1717
4798 2217
4799 1631
4799 1722
4799 2210
4800 207
4800 630
4800 1120
4801 204
4801 636
4801 1132
4802 198
4802 626
4802 1126
4803 205
4803 627
4803 1134
4804 199
4804 633
4804 1123
4805 196
4805 624
4805 1130
4806 206
4806 625
4806 1131
4807 201
4807 631
4807 1129
4808 202
4808 637
4808 1133
4809 192
4809 634
4809 1121
4810 200
4810 638
4810 1135
4811 194
4811 632
4811 1127
4812 197
4812 628
4812 1125
4813 195
4813 629
4813 1128
4814 193
4814 639
4814 1122
4815 203
4815 635
4815 1124
4816 1540
4816 2038
4816 2129
4817 1537
4817 2035
4817 2133
4818 1541
4818 2047
4818 2140
4819 1539
4819 2044
4819 2142
4820 1550
4820 2042
4820 2130
4821 1549
4821 2046
4821 2138
4822 1543
4822 2045
4822 2132
4823 1545
4823 2033
4823 2135
4824 1538
4824 2039
4824 2128
4825 1536
4825 2040
4825 2134
4826 1547
4826 2032
4826 2137
4827 1548
4827 2041
4827 2139
4828 1544
4828 2036
4828 2141
4829 1542
4829 2034
4829 2131
4830 1546
4830 2043
4830 2136
4831 1551
4831 2037
4831 2143
4832 197
4832 565
4832 982
4833 207
4833 574
4833 987
4834 193
4834 564
4834 989
4835 201
4835 569
4835 986
4836 204
4836 560
4836 978
4837 205
4837 572
4837 991
4838 199
4838 562
4838 980
4839 202
4839 567
4839 985
4840 195
4840 571
4840 990
4841 196
4841 563
4841 976
4842 206
4842 575
4842 984
4843 203
4843 561
4843 977
4844 198
4844 568
4844 981
4845 194
4845 566
4845 988
4846 192
4846 573
4846 979
4847 200
4847 570
4847 983
4848 1487
4848 1980
4848 2475
4849 1480
4849 1972
4849 2466
4850 1483
4850 1975
4850 2476
4851 1479
4851 1974
4851 2473
4852 1476
4852 1968
4852 2470
4853 1473
4853 1982
4853 2471
4854 1472
4854 1973
4854 2468
4855 1485
4855 1971
4855 2479
4856 1484
4856 1983
4856 2469
4857 1486
4857 1969
4857 2472
4858 1482
4858 1970
4858 2478
4859 1474
4859 1976
4859 2477
4860 1478
4860 1981
4860 2465
4861 1481
4861 1979
4861 2464
4862 1475
4862 1978
4862 2467
4863 1477
4863 1977
4863 2474
4864 209
4864 884
4864 904
4865 216
4865 890
4865 901
4866 214
4866 882
4866 902
4867 220
4867 883
4867 909
4868 217
4868 892
4868 906
4869 211
4869 889
4869 896
4870 210
4870 893
4870 910
4871 208
4871 894
4871 898
4872 221
4872 888
4872 900
4873 222
4873 887
4873 897
4874 219
4874 895
4874 907
4875 213
4875 880
4875 903
4876 223
4876 891
4876 899
4877 212
4877 886
4877 908
4878 218
4878 881
4878 905
4879 215
4879 885
4879 911
4880 1403
4880 1895
4880 2396
4881 1400
4881 1893
4881 2397
4882 1406
4882 1902
4882 2395
4883 1399
4883 1899
4883 2385
4884 1392
4884 1903
4884 2394
4885 1407
4885 1898
4885 2390
4886 1404
4886 1889
4886 2393
4887 1397
4887 1896
4887 2388
4888 1396
4888 1897
4888 2392
4889 1401
4889 1888
4889 2386
4890 1398
4890 1891
4890 2384
4891 1394
4891 1892
4891 2399
4892 1402
4892 1901
4892 2389
4893 1393
4893 1900
4893 2391
4894 1395
4894 1894
4894 2398
4895 1405
4895 1890
4895 2387
4896 237
4896 808
4896 1217
4897 233
4897 815
4897 1216
4898 227
4898 812
4898 1222
4899 234
4899 809
4899 1226
4900 224
4900 800
4900 1218
4901 226
4901 804
4901 1227
4902 236
4902 802
4902 1229
4903 239
4903 814
4903 1230
4904 230
4904 806
4904 1221
4905 225
4905 805
4905 1225
4906 235
4906 813
4906 1223
4907 232
4907 810
4907 1220
4908 228
4908 807
4908 1228
4909 229
4909 803
4909 1231
4910 238
4910 811
4910 1224
4911 231
4911 801
4911 1219
4912 1314
4912 1818
4912 2317
4913 1321
4913 1808
4913 2308
4914 1313
4914 1823
4914 2319
4915 1325
4915 1815
4915 2305
4916 1326
4916 1809
4916 2311
4917 1322
4917 1813
4917 2307
4918 1315
4918 1822
4918 2310
4919 1312
4919 1811
4919 2316
4920 1324
4920 1821
4920 2309
4921 1318
4921 1810
4921 2313
4922 1320
4922 1819
4922 2318
4923 1327
4923 1816
4923 2304
4924 1323
4924 1817
4924 2315
4925 1317
4925 1814
4925 2312
4926 1319
4926 1812
4926 2314
4927 1316
4927 1820
4927 2306
4928 245
4928 725
4928 1138
4929 249
4929 728
4929 1149
4930 246
4930 723
4930 1145
4931 255
4931 724
4931 1146
4932 240
4932 735
4932 1141
4933 253
4933 729
4933 1150
4934 247
4934 726
4934 1151
4935 244
4935 720
4935 1147
4936 243
4936 727
4936 1143
4937 248
4937 722
4937 1142
4938 242
4938 732
4938 1140
4939 250
4939 731
4939 1136
4940 241
4940 730
4940 1139
4941 254
4941 734
4941 1137
4942 252
4942 733
4942 1144
4943 251
4943 721
4943 1148
4944 1634
4944 1729
4944 2227
4945 1637
4945 1735
4945 2237
4946 1643
4946 1734
4946 2224
4947 1644
4947 1728
4947 2234
4948 1642
4948 1737
4948 2238
4949 1645
4949 1733
4949 2231
4950 1646
4950 1741
4950 2239
4951 1641
4951 1739
4951 2226
4952 1640
4952 1730
4952 2236
4953 1639
4953 1740
4953 2233
4954 1636
4954 1736
4954 2225
4955 1638
4955 1732
4955 2228
4956 1647
4956 1738
4956 2235
4957 1635
4957 1742
4957 2229
4958 1633
4958 1743
4958 2230
4959 1632
4959 1731
4959 2232
4960 183
4960 643
4960 1059
4961 179
4961 651
4961 1056
4962 178
4962 645
4962 1060
4963 177
4963 640
4963 1057
4964 182
4964 650
4964 1062
4965 191
4965 652
4965 1061
4966 181
4966 646
4966 1071
4967 176
4967 641
4967 1063
4968 189
4968 648
4968 1066
4969 190
4969 655
4969 1064
4970 186
4970 647
4970 1069
4971 185
4971 649
4971 1070
4972 184
4972 653
4972 1058
4973 187
4973 654
4973 1065
4974 188
4974 642
4974 1067
4975 180
4975 644
4975 1068
4976 1563
4976 2059
4976 2159
4977 1566
4977 2060
4977 2149
4978 1555
4978 2062
4978 2155
4979 1558
4979 2063
4979 2145
4980 1567
4980 2054
4980 2144
4981 1554
4981 2052
4981 2157
4982 1557
4982 2048
4982 2156
4983 1560
4983 2061
4983 2150
4984 1562
4984 2057
4984 2146
4985 1564
4985 2050
4985 2147
4986 1552
4986 2055
4986 2154
4987 1561
4987 2058
4987 2153
4988 1556
4988 2049
4988 2152
4989 1559
4989 2053
4989 2158
4990 1565
4990 2056
4990 2148
4991 1553
4991 2051
4991 2151
