312 156 936
0 0
0 1
0 2
1 3
1 4
1 5
2 0
2 6
2 7
3 8
3 9
3 10
4 0
4 11
4 12
5 13
5 14
5 15
6 0
6 16
6 17
7 18
7 19
7 20
8 0
8 21
8 22
9 23
9 24
9 25
10 0
10 26
10 27
11 28
11 29
11 30
12 6
12 31
12 32
13 33
13 34
13 35
14 7
14 36
14 37
15 38
15 39
15 40
16 8
16 41
16 42
17 43
17 44
17 45
18 9
18 46
18 47
19 48
19 49
19 50
20 10
20 51
20 52
21 53
21 54
21 55
22 6
22 56
22 57
23 58
23 59
23 60
24 7
24 61
24 62
25 63
25 64
25 65
26 8
26 66
26 67
27 68
27 69
27 70
28 9
28 71
28 72
29 73
29 74
29 75
30 10
30 76
30 77
31 78
31 79
31 80
32 6
32 81
32 82
33 83
33 84
33 85
34 7
34 86
34 87
35 88
35 89
35 90
36 8
36 91
36 92
37 93
37 94
37 95
38 9
38 96
38 97
39 98
39 99
39 100
40 10
40 101
40 102
41 103
41 104
41 105
42 6
42 106
42 107
43 108
43 109
43 110
44 7
44 111
44 112
45 113
45 114
45 115
46 8
46 116
46 117
47 118
47 119
47 120
48 9
48 121
48 122
49 123
49 124
49 125
50 10
50 126
50 127
51 128
51 129
51 130
52 6
52 131
52 132
53 133
53 134
53 135
54 7
54 136
54 137
55 138
55 139
55 140
56 8
56 141
56 142
57 143
57 144
57 145
58 9
58 146
58 147
59 148
59 149
59 150
60 10
60 151
60 152
61 153
61 154
61 155
62 1
62 31
62 36
63 41
63 46
63 51
64 1
64 56
64 61
65 66
65 71
65 76
66 1
66 81
66 86
67 91
67 96
67 101
68 1
68 106
68 111
69 116
69 121
69 126
70 1
70 131
70 136
71 141
71 146
71 151
72 2
72 32
72 37
73 42
73 47
73 52
74 2
74 57
74 62
75 67
75 72
75 77
76 2
76 82
76 87
77 92
77 97
77 102
78 2
78 107
78 112
79 117
79 122
79 127
80 2
80 132
80 137
81 142
81 147
81 152
82 3
82 33
82 38
83 43
83 48
83 53
84 3
84 58
84 63
85 68
85 73
85 78
86 3
86 83
86 88
87 93
87 98
87 103
88 3
88 108
88 113
89 118
89 123
89 128
90 3
90 133
90 138
91 143
91 148
91 153
92 4
92 34
92 39
93 44
93 49
93 54
94 4
94 59
94 64
95 69
95 74
95 79
96 4
96 84
96 89
97 94
97 99
97 104
98 4
98 109
98 114
99 119
99 124
99 129
100 4
100 134
100 139
101 144
101 149
101 154
102 5
102 35
102 40
103 45
103 50
103 55
104 5
104 60
104 65
105 70
105 75
105 80
106 5
106 85
106 90
107 95
107 100
107 105
108 5
108 110
108 115
109 120
109 125
109 130
110 5
110 135
110 140
111 145
111 150
111 155
112 26
112 31
112 80
113 99
113 118
113 137
114 27
114 36
114 60
115 104
115 123
115 142
116 28
116 41
116 65
117 84
117 128
117 147
118 29
118 46
118 70
119 89
119 108
119 152
120 30
120 51
120 75
121 94
121 113
121 132
122 27
122 32
122 76
123 100
123 119
123 138
124 28
124 37
124 56
125 105
125 124
125 143
126 29
126 42
126 61
127 85
127 129
127 148
128 30
128 47
128 66
129 90
129 109
129 153
130 26
130 52
130 71
131 95
131 114
131 133
132 28
132 33
132 77
133 96
133 120
133 139
134 29
134 38
134 57
135 101
135 125
135 144
136 30
136 43
136 62
137 81
137 130
137 149
138 26
138 48
138 67
139 86
139 110
139 154
140 27
140 53
140 72
141 91
141 115
141 134
142 29
142 34
142 78
143 97
143 116
143 140
144 30
144 39
144 58
145 102
145 121
145 145
146 26
146 44
146 63
147 82
147 126
147 150
148 27
148 49
148 68
149 87
149 106
149 155
150 28
150 54
150 73
151 92
151 111
151 135
152 30
152 35
152 79
153 98
153 117
153 136
154 26
154 40
154 59
155 103
155 122
155 141
156 27
156 45
156 64
157 83
157 127
157 146
158 28
158 50
158 69
159 88
159 107
159 151
160 29
160 55
160 74
161 93
161 112
161 131
162 16
162 31
162 69
163 102
163 115
163 148
164 17
164 46
164 59
165 92
165 130
165 138
166 18
166 36
166 74
167 82
167 120
167 153
168 19
168 51
168 64
169 97
169 110
169 143
170 20
170 41
170 79
171 87
171 125
171 133
172 19
172 32
172 70
173 103
173 111
173 149
174 20
174 47
174 60
175 93
175 126
175 139
176 16
176 37
176 75
177 83
177 116
177 154
178 17
178 52
178 65
179 98
179 106
179 144
180 18
180 42
180 80
181 88
181 121
181 134
182 17
182 33
182 66
183 104
183 112
183 150
184 18
184 48
184 56
185 94
185 127
185 140
186 19
186 38
186 71
187 84
187 117
187 155
188 20
188 53
188 61
189 99
189 107
189 145
190 16
190 43
190 76
191 89
191 122
191 135
192 20
192 34
192 67
193 105
193 113
193 146
194 16
194 49
194 57
195 95
195 128
195 136
196 17
196 39
196 72
197 85
197 118
197 151
198 18
198 54
198 62
199 100
199 108
199 141
200 19
200 44
200 77
201 90
201 123
201 131
202 18
202 35
202 68
203 101
203 114
203 147
204 19
204 50
204 58
205 91
205 129
205 137
206 20
206 40
206 73
207 81
207 119
207 152
208 16
208 55
208 63
209 96
209 109
209 142
210 17
210 45
210 78
211 86
211 124
211 132
212 21
212 31
212 73
213 90
213 127
213 144
214 22
214 41
214 58
215 100
215 112
215 154
216 23
216 51
216 68
217 85
217 122
217 139
218 24
218 36
218 78
219 95
219 107
219 149
220 25
220 46
220 63
221 105
221 117
221 134
222 23
222 32
222 74
223 86
223 128
223 145
224 24
224 42
224 59
225 96
225 113
225 155
226 25
226 52
226 69
227 81
227 123
227 140
228 21
228 37
228 79
229 91
229 108
229 150
230 22
230 47
230 64
231 101
231 118
231 135
232 25
232 33
232 75
233 87
233 129
233 141
234 21
234 43
234 60
235 97
235 114
235 151
236 22
236 53
236 70
237 82
237 124
237 136
238 23
238 38
238 80
239 92
239 109
239 146
240 24
240 48
240 65
241 102
241 119
241 131
242 22
242 34
242 71
243 88
243 130
243 142
244 23
244 44
244 56
245 98
245 115
245 152
246 24
246 54
246 66
247 83
247 125
247 137
248 25
248 39
248 76
249 93
249 110
249 147
250 21
250 49
250 61
251 103
251 120
251 132
252 24
252 35
252 72
253 89
253 126
253 143
254 25
254 45
254 57
255 99
255 111
255 153
256 21
256 55
256 67
257 84
257 121
257 138
258 22
258 40
258 77
259 94
259 106
259 148
260 23
260 50
260 62
261 104
261 116
261 133
262 11
262 31
262 62
263 93
263 124
263 155
264 12
264 51
264 57
265 88
265 119
265 150
266 13
266 46
266 77
267 83
267 114
267 145
268 14
268 41
268 72
269 103
269 109
269 140
270 15
270 36
270 67
271 98
271 129
271 135
272 15
272 32
272 63
273 94
273 125
273 151
274 11
274 52
274 58
275 89
275 120
275 146
276 12
276 47
276 78
277 84
277 115
277 141
278 13
278 42
278 73
279 104
279 110
279 136
280 14
280 37
280 68
281 99
281 130
281 131
282 14
282 33
282 64
283 95
283 121
283 152
284 15
284 53
284 59
285 90
285 116
285 147
286 11
286 48
286 79
287 85
287 111
287 142
288 12
288 43
288 74
289 105
289 106
289 137
290 13
290 38
290 69
291 100
291 126
291 132
292 13
292 34
292 65
293 91
293 122
293 153
294 14
294 54
294 60
295 86
295 117
295 148
296 15
296 49
296 80
297 81
297 112
297 143
298 11
298 44
298 75
299 101
299 107
299 138
300 12
300 39
300 70
301 96
301 127
301 133
302 12
302 35
302 61
303 92
303 123
303 154
304 13
304 55
304 56
305 87
305 118
305 149
306 14
306 50
306 76
307 82
307 113
307 144
308 15
308 45
308 71
309 102
309 108
309 139
310 11
310 40
310 66
311 97
311 128
311 134
