1664 832 3328
0 1
0 448
1 2
1 449
2 3
2 450
3 4
3 451
4 5
4 452
5 6
5 453
6 7
6 454
7 8
7 455
8 9
8 456
9 10
9 457
10 11
10 458
11 12
11 459
12 13
12 460
13 14
13 461
14 15
14 462
15 16
15 463
16 17
16 464
17 18
17 465
18 19
18 466
19 20
19 467
20 21
20 468
21 22
21 469
22 23
22 470
23 24
23 471
24 25
24 472
25 26
25 473
26 27
26 474
27 28
27 475
28 29
28 476
29 30
29 477
30 31
30 478
31 0
31 479
32 0
32 544
33 1
33 545
34 2
34 546
35 3
35 547
36 4
36 548
37 5
37 549
38 6
38 550
39 7
39 551
40 8
40 552
41 9
41 553
42 10
42 554
43 11
43 555
44 12
44 556
45 13
45 557
46 14
46 558
47 15
47 559
48 16
48 560
49 17
49 561
50 18
50 562
51 19
51 563
52 20
52 564
53 21
53 565
54 22
54 566
55 23
55 567
56 24
56 568
57 25
57 569
58 26
58 570
59 27
59 571
60 28
60 572
61 29
61 573
62 30
62 574
63 31
63 575
64 0
64 640
65 1
65 641
66 2
66 642
67 3
67 643
68 4
68 644
69 5
69 645
70 6
70 646
71 7
71 647
72 8
72 648
73 9
73 649
74 10
74 650
75 11
75 651
76 12
76 652
77 13
77 653
78 14
78 654
79 15
79 655
80 16
80 656
81 17
81 657
82 18
82 658
83 19
83 659
84 20
84 660
85 21
85 661
86 22
86 662
87 23
87 663
88 24
88 664
89 25
89 665
90 26
90 666
91 27
91 667
92 28
92 668
93 29
93 669
94 30
94 670
95 31
95 671
96 0
96 736
97 1
97 737
98 2
98 738
99 3
99 739
100 4
100 740
101 5
101 741
102 6
102 742
103 7
103 743
104 8
104 744
105 9
105 745
106 10
106 746
107 11
107 747
108 12
108 748
109 13
109 749
110 14
110 750
111 15
111 751
112 16
112 752
113 17
113 753
114 18
114 754
115 19
115 755
116 20
116 756
117 21
117 757
118 22
118 758
119 23
119 759
120 24
120 760
121 25
121 761
122 26
122 762
123 27
123 763
124 28
124 764
125 29
125 765
126 30
126 766
127 31
127 767
128 32
128 416
129 33
129 417
130 34
130 418
131 35
131 419
132 36
132 420
133 37
133 421
134 38
134 422
135 39
135 423
136 40
136 424
137 41
137 425
138 42
138 426
139 43
139 427
140 44
140 428
141 45
141 429
142 46
142 430
143 47
143 431
144 48
144 432
145 49
145 433
146 50
146 434
147 51
147 435
148 52
148 436
149 53
149 437
150 54
150 438
151 55
151 439
152 56
152 440
153 57
153 441
154 58
154 442
155 59
155 443
156 60
156 444
157 61
157 445
158 62
158 446
159 63
159 447
160 32
160 544
161 33
161 545
162 34
162 546
163 35
163 547
164 36
164 548
165 37
165 549
166 38
166 550
167 39
167 551
168 40
168 552
169 41
169 553
170 42
170 554
171 43
171 555
172 44
172 556
173 45
173 557
174 46
174 558
175 47
175 559
176 48
176 560
177 49
177 561
178 50
178 562
179 51
179 563
180 52
180 564
181 53
181 565
182 54
182 566
183 55
183 567
184 56
184 568
185 57
185 569
186 58
186 570
187 59
187 571
188 60
188 572
189 61
189 573
190 62
190 574
191 63
191 575
192 32
192 576
193 33
193 577
194 34
194 578
195 35
195 579
196 36
196 580
197 37
197 581
198 38
198 582
199 39
199 583
200 40
200 584
201 41
201 585
202 42
202 586
203 43
203 587
204 44
204 588
205 45
205 589
206 46
206 590
207 47
207 591
208 48
208 592
209 49
209 593
210 50
210 594
211 51
211 595
212 52
212 596
213 53
213 597
214 54
214 598
215 55
215 599
216 56
216 600
217 57
217 601
218 58
218 602
219 59
219 603
220 60
220 604
221 61
221 605
222 62
222 606
223 63
223 607
224 32
224 608
225 33
225 609
226 34
226 610
227 35
227 611
228 36
228 612
229 37
229 613
230 38
230 614
231 39
231 615
232 40
232 616
233 41
233 617
234 42
234 618
235 43
235 619
236 44
236 620
237 45
237 621
238 46
238 622
239 47
239 623
240 48
240 624
241 49
241 625
242 50
242 626
243 51
243 627
244 52
244 628
245 53
245 629
246 54
246 630
247 55
247 631
248 56
248 632
249 57
249 633
250 58
250 634
251 59
251 635
252 60
252 636
253 61
253 637
254 62
254 638
255 63
255 639
256 64
256 512
257 65
257 513
258 66
258 514
259 67
259 515
260 68
260 516
261 69
261 517
262 70
262 518
263 71
263 519
264 72
264 520
265 73
265 521
266 74
266 522
267 75
267 523
268 76
268 524
269 77
269 525
270 78
270 526
271 79
271 527
272 80
272 528
273 81
273 529
274 82
274 530
275 83
275 531
276 84
276 532
277 85
277 533
278 86
278 534
279 87
279 535
280 88
280 536
281 89
281 537
282 90
282 538
283 91
283 539
284 92
284 540
285 93
285 541
286 94
286 542
287 95
287 543
288 64
288 544
289 65
289 545
290 66
290 546
291 67
291 547
292 68
292 548
293 69
293 549
294 70
294 550
295 71
295 551
296 72
296 552
297 73
297 553
298 74
298 554
299 75
299 555
300 76
300 556
301 77
301 557
302 78
302 558
303 79
303 559
304 80
304 560
305 81
305 561
306 82
306 562
307 83
307 563
308 84
308 564
309 85
309 565
310 86
310 566
311 87
311 567
312 88
312 568
313 89
313 569
314 90
314 570
315 91
315 571
316 92
316 572
317 93
317 573
318 94
318 574
319 95
319 575
320 64
320 704
321 65
321 705
322 66
322 706
323 67
323 707
324 68
324 708
325 69
325 709
326 70
326 710
327 71
327 711
328 72
328 712
329 73
329 713
330 74
330 714
331 75
331 715
332 76
332 716
333 77
333 717
334 78
334 718
335 79
335 719
336 80
336 720
337 81
337 721
338 82
338 722
339 83
339 723
340 84
340 724
341 85
341 725
342 86
342 726
343 87
343 727
344 88
344 728
345 89
345 729
346 90
346 730
347 91
347 731
348 92
348 732
349 93
349 733
350 94
350 734
351 95
351 735
352 64
352 768
353 65
353 769
354 66
354 770
355 67
355 771
356 68
356 772
357 69
357 773
358 70
358 774
359 71
359 775
360 72
360 776
361 73
361 777
362 74
362 778
363 75
363 779
364 76
364 780
365 77
365 781
366 78
366 782
367 79
367 783
368 80
368 784
369 81
369 785
370 82
370 786
371 83
371 787
372 84
372 788
373 85
373 789
374 86
374 790
375 87
375 791
376 88
376 792
377 89
377 793
378 90
378 794
379 91
379 795
380 92
380 796
381 93
381 797
382 94
382 798
383 95
383 799
384 96
384 480
385 97
385 481
386 98
386 482
387 99
387 483
388 100
388 484
389 101
389 485
390 102
390 486
391 103
391 487
392 104
392 488
393 105
393 489
394 106
394 490
395 107
395 491
396 108
396 492
397 109
397 493
398 110
398 494
399 111
399 495
400 112
400 496
401 113
401 497
402 114
402 498
403 115
403 499
404 116
404 500
405 117
405 501
406 118
406 502
407 119
407 503
408 120
408 504
409 121
409 505
410 122
410 506
411 123
411 507
412 124
412 508
413 125
413 509
414 126
414 510
415 127
415 511
416 96
416 544
417 97
417 545
418 98
418 546
419 99
419 547
420 100
420 548
421 101
421 549
422 102
422 550
423 103
423 551
424 104
424 552
425 105
425 553
426 106
426 554
427 107
427 555
428 108
428 556
429 109
429 557
430 110
430 558
431 111
431 559
432 112
432 560
433 113
433 561
434 114
434 562
435 115
435 563
436 116
436 564
437 117
437 565
438 118
438 566
439 119
439 567
440 120
440 568
441 121
441 569
442 122
442 570
443 123
443 571
444 124
444 572
445 125
445 573
446 126
446 574
447 127
447 575
448 96
448 672
449 97
449 673
450 98
450 674
451 99
451 675
452 100
452 676
453 101
453 677
454 102
454 678
455 103
455 679
456 104
456 680
457 105
457 681
458 106
458 682
459 107
459 683
460 108
460 684
461 109
461 685
462 110
462 686
463 111
463 687
464 112
464 688
465 113
465 689
466 114
466 690
467 115
467 691
468 116
468 692
469 117
469 693
470 118
470 694
471 119
471 695
472 120
472 696
473 121
473 697
474 122
474 698
475 123
475 699
476 124
476 700
477 125
477 701
478 126
478 702
479 127
479 703
480 96
480 800
481 97
481 801
482 98
482 802
483 99
483 803
484 100
484 804
485 101
485 805
486 102
486 806
487 103
487 807
488 104
488 808
489 105
489 809
490 106
490 810
491 107
491 811
492 108
492 812
493 109
493 813
494 110
494 814
495 111
495 815
496 112
496 816
497 113
497 817
498 114
498 818
499 115
499 819
500 116
500 820
501 117
501 821
502 118
502 822
503 119
503 823
504 120
504 824
505 121
505 825
506 122
506 826
507 123
507 827
508 124
508 828
509 125
509 829
510 126
510 830
511 127
511 831
512 128
512 416
513 129
513 417
514 130
514 418
515 131
515 419
516 132
516 420
517 133
517 421
518 134
518 422
519 135
519 423
520 136
520 424
521 137
521 425
522 138
522 426
523 139
523 427
524 140
524 428
525 141
525 429
526 142
526 430
527 143
527 431
528 144
528 432
529 145
529 433
530 146
530 434
531 147
531 435
532 148
532 436
533 149
533 437
534 150
534 438
535 151
535 439
536 152
536 440
537 153
537 441
538 154
538 442
539 155
539 443
540 156
540 444
541 157
541 445
542 158
542 446
543 159
543 447
544 128
544 448
545 129
545 449
546 130
546 450
547 131
547 451
548 132
548 452
549 133
549 453
550 134
550 454
551 135
551 455
552 136
552 456
553 137
553 457
554 138
554 458
555 139
555 459
556 140
556 460
557 141
557 461
558 142
558 462
559 143
559 463
560 144
560 464
561 145
561 465
562 146
562 466
563 147
563 467
564 148
564 468
565 149
565 469
566 150
566 470
567 151
567 471
568 152
568 472
569 153
569 473
570 154
570 474
571 155
571 475
572 156
572 476
573 157
573 477
574 158
574 478
575 159
575 479
576 128
576 480
577 129
577 481
578 130
578 482
579 131
579 483
580 132
580 484
581 133
581 485
582 134
582 486
583 135
583 487
584 136
584 488
585 137
585 489
586 138
586 490
587 139
587 491
588 140
588 492
589 141
589 493
590 142
590 494
591 143
591 495
592 144
592 496
593 145
593 497
594 146
594 498
595 147
595 499
596 148
596 500
597 149
597 501
598 150
598 502
599 151
599 503
600 152
600 504
601 153
601 505
602 154
602 506
603 155
603 507
604 156
604 508
605 157
605 509
606 158
606 510
607 159
607 511
608 128
608 512
609 129
609 513
610 130
610 514
611 131
611 515
612 132
612 516
613 133
613 517
614 134
614 518
615 135
615 519
616 136
616 520
617 137
617 521
618 138
618 522
619 139
619 523
620 140
620 524
621 141
621 525
622 142
622 526
623 143
623 527
624 144
624 528
625 145
625 529
626 146
626 530
627 147
627 531
628 148
628 532
629 149
629 533
630 150
630 534
631 151
631 535
632 152
632 536
633 153
633 537
634 154
634 538
635 155
635 539
636 156
636 540
637 157
637 541
638 158
638 542
639 159
639 543
640 160
640 448
641 161
641 449
642 162
642 450
643 163
643 451
644 164
644 452
645 165
645 453
646 166
646 454
647 167
647 455
648 168
648 456
649 169
649 457
650 170
650 458
651 171
651 459
652 172
652 460
653 173
653 461
654 174
654 462
655 175
655 463
656 176
656 464
657 177
657 465
658 178
658 466
659 179
659 467
660 180
660 468
661 181
661 469
662 182
662 470
663 183
663 471
664 184
664 472
665 185
665 473
666 186
666 474
667 187
667 475
668 188
668 476
669 189
669 477
670 190
670 478
671 191
671 479
672 160
672 608
673 161
673 609
674 162
674 610
675 163
675 611
676 164
676 612
677 165
677 613
678 166
678 614
679 167
679 615
680 168
680 616
681 169
681 617
682 170
682 618
683 171
683 619
684 172
684 620
685 173
685 621
686 174
686 622
687 175
687 623
688 176
688 624
689 177
689 625
690 178
690 626
691 179
691 627
692 180
692 628
693 181
693 629
694 182
694 630
695 183
695 631
696 184
696 632
697 185
697 633
698 186
698 634
699 187
699 635
700 188
700 636
701 189
701 637
702 190
702 638
703 191
703 639
704 160
704 704
705 161
705 705
706 162
706 706
707 163
707 707
708 164
708 708
709 165
709 709
710 166
710 710
711 167
711 711
712 168
712 712
713 169
713 713
714 170
714 714
715 171
715 715
716 172
716 716
717 173
717 717
718 174
718 718
719 175
719 719
720 176
720 720
721 177
721 721
722 178
722 722
723 179
723 723
724 180
724 724
725 181
725 725
726 182
726 726
727 183
727 727
728 184
728 728
729 185
729 729
730 186
730 730
731 187
731 731
732 188
732 732
733 189
733 733
734 190
734 734
735 191
735 735
736 160
736 800
737 161
737 801
738 162
738 802
739 163
739 803
740 164
740 804
741 165
741 805
742 166
742 806
743 167
743 807
744 168
744 808
745 169
745 809
746 170
746 810
747 171
747 811
748 172
748 812
749 173
749 813
750 174
750 814
751 175
751 815
752 176
752 816
753 177
753 817
754 178
754 818
755 179
755 819
756 180
756 820
757 181
757 821
758 182
758 822
759 183
759 823
760 184
760 824
761 185
761 825
762 186
762 826
763 187
763 827
764 188
764 828
765 189
765 829
766 190
766 830
767 191
767 831
768 192
768 448
769 193
769 449
770 194
770 450
771 195
771 451
772 196
772 452
773 197
773 453
774 198
774 454
775 199
775 455
776 200
776 456
777 201
777 457
778 202
778 458
779 203
779 459
780 204
780 460
781 205
781 461
782 206
782 462
783 207
783 463
784 208
784 464
785 209
785 465
786 210
786 466
787 211
787 467
788 212
788 468
789 213
789 469
790 214
790 470
791 215
791 471
792 216
792 472
793 217
793 473
794 218
794 474
795 219
795 475
796 220
796 476
797 221
797 477
798 222
798 478
799 223
799 479
800 192
800 576
801 193
801 577
802 194
802 578
803 195
803 579
804 196
804 580
805 197
805 581
806 198
806 582
807 199
807 583
808 200
808 584
809 201
809 585
810 202
810 586
811 203
811 587
812 204
812 588
813 205
813 589
814 206
814 590
815 207
815 591
816 208
816 592
817 209
817 593
818 210
818 594
819 211
819 595
820 212
820 596
821 213
821 597
822 214
822 598
823 215
823 599
824 216
824 600
825 217
825 601
826 218
826 602
827 219
827 603
828 220
828 604
829 221
829 605
830 222
830 606
831 223
831 607
832 192
832 672
833 193
833 673
834 194
834 674
835 195
835 675
836 196
836 676
837 197
837 677
838 198
838 678
839 199
839 679
840 200
840 680
841 201
841 681
842 202
842 682
843 203
843 683
844 204
844 684
845 205
845 685
846 206
846 686
847 207
847 687
848 208
848 688
849 209
849 689
850 210
850 690
851 211
851 691
852 212
852 692
853 213
853 693
854 214
854 694
855 215
855 695
856 216
856 696
857 217
857 697
858 218
858 698
859 219
859 699
860 220
860 700
861 221
861 701
862 222
862 702
863 223
863 703
864 192
864 768
865 193
865 769
866 194
866 770
867 195
867 771
868 196
868 772
869 197
869 773
870 198
870 774
871 199
871 775
872 200
872 776
873 201
873 777
874 202
874 778
875 203
875 779
876 204
876 780
877 205
877 781
878 206
878 782
879 207
879 783
880 208
880 784
881 209
881 785
882 210
882 786
883 211
883 787
884 212
884 788
885 213
885 789
886 214
886 790
887 215
887 791
888 216
888 792
889 217
889 793
890 218
890 794
891 219
891 795
892 220
892 796
893 221
893 797
894 222
894 798
895 223
895 799
896 224
896 416
897 225
897 417
898 226
898 418
899 227
899 419
900 228
900 420
901 229
901 421
902 230
902 422
903 231
903 423
904 232
904 424
905 233
905 425
906 234
906 426
907 235
907 427
908 236
908 428
909 237
909 429
910 238
910 430
911 239
911 431
912 240
912 432
913 241
913 433
914 242
914 434
915 243
915 435
916 244
916 436
917 245
917 437
918 246
918 438
919 247
919 439
920 248
920 440
921 249
921 441
922 250
922 442
923 251
923 443
924 252
924 444
925 253
925 445
926 254
926 446
927 255
927 447
928 224
928 736
929 225
929 737
930 226
930 738
931 227
931 739
932 228
932 740
933 229
933 741
934 230
934 742
935 231
935 743
936 232
936 744
937 233
937 745
938 234
938 746
939 235
939 747
940 236
940 748
941 237
941 749
942 238
942 750
943 239
943 751
944 240
944 752
945 241
945 753
946 242
946 754
947 243
947 755
948 244
948 756
949 245
949 757
950 246
950 758
951 247
951 759
952 248
952 760
953 249
953 761
954 250
954 762
955 251
955 763
956 252
956 764
957 253
957 765
958 254
958 766
959 255
959 767
960 224
960 768
961 225
961 769
962 226
962 770
963 227
963 771
964 228
964 772
965 229
965 773
966 230
966 774
967 231
967 775
968 232
968 776
969 233
969 777
970 234
970 778
971 235
971 779
972 236
972 780
973 237
973 781
974 238
974 782
975 239
975 783
976 240
976 784
977 241
977 785
978 242
978 786
979 243
979 787
980 244
980 788
981 245
981 789
982 246
982 790
983 247
983 791
984 248
984 792
985 249
985 793
986 250
986 794
987 251
987 795
988 252
988 796
989 253
989 797
990 254
990 798
991 255
991 799
992 224
992 800
993 225
993 801
994 226
994 802
995 227
995 803
996 228
996 804
997 229
997 805
998 230
998 806
999 231
999 807
1000 232
1000 808
1001 233
1001 809
1002 234
1002 810
1003 235
1003 811
1004 236
1004 812
1005 237
1005 813
1006 238
1006 814
1007 239
1007 815
1008 240
1008 816
1009 241
1009 817
1010 242
1010 818
1011 243
1011 819
1012 244
1012 820
1013 245
1013 821
1014 246
1014 822
1015 247
1015 823
1016 248
1016 824
1017 249
1017 825
1018 250
1018 826
1019 251
1019 827
1020 252
1020 828
1021 253
1021 829
1022 254
1022 830
1023 255
1023 831
1024 256
1024 512
1025 257
1025 513
1026 258
1026 514
1027 259
1027 515
1028 260
1028 516
1029 261
1029 517
1030 262
1030 518
1031 263
1031 519
1032 264
1032 520
1033 265
1033 521
1034 266
1034 522
1035 267
1035 523
1036 268
1036 524
1037 269
1037 525
1038 270
1038 526
1039 271
1039 527
1040 272
1040 528
1041 273
1041 529
1042 274
1042 530
1043 275
1043 531
1044 276
1044 532
1045 277
1045 533
1046 278
1046 534
1047 279
1047 535
1048 280
1048 536
1049 281
1049 537
1050 282
1050 538
1051 283
1051 539
1052 284
1052 540
1053 285
1053 541
1054 286
1054 542
1055 287
1055 543
1056 256
1056 608
1057 257
1057 609
1058 258
1058 610
1059 259
1059 611
1060 260
1060 612
1061 261
1061 613
1062 262
1062 614
1063 263
1063 615
1064 264
1064 616
1065 265
1065 617
1066 266
1066 618
1067 267
1067 619
1068 268
1068 620
1069 269
1069 621
1070 270
1070 622
1071 271
1071 623
1072 272
1072 624
1073 273
1073 625
1074 274
1074 626
1075 275
1075 627
1076 276
1076 628
1077 277
1077 629
1078 278
1078 630
1079 279
1079 631
1080 280
1080 632
1081 281
1081 633
1082 282
1082 634
1083 283
1083 635
1084 284
1084 636
1085 285
1085 637
1086 286
1086 638
1087 287
1087 639
1088 256
1088 672
1089 257
1089 673
1090 258
1090 674
1091 259
1091 675
1092 260
1092 676
1093 261
1093 677
1094 262
1094 678
1095 263
1095 679
1096 264
1096 680
1097 265
1097 681
1098 266
1098 682
1099 267
1099 683
1100 268
1100 684
1101 269
1101 685
1102 270
1102 686
1103 271
1103 687
1104 272
1104 688
1105 273
1105 689
1106 274
1106 690
1107 275
1107 691
1108 276
1108 692
1109 277
1109 693
1110 278
1110 694
1111 279
1111 695
1112 280
1112 696
1113 281
1113 697
1114 282
1114 698
1115 283
1115 699
1116 284
1116 700
1117 285
1117 701
1118 286
1118 702
1119 287
1119 703
1120 256
1120 736
1121 257
1121 737
1122 258
1122 738
1123 259
1123 739
1124 260
1124 740
1125 261
1125 741
1126 262
1126 742
1127 263
1127 743
1128 264
1128 744
1129 265
1129 745
1130 266
1130 746
1131 267
1131 747
1132 268
1132 748
1133 269
1133 749
1134 270
1134 750
1135 271
1135 751
1136 272
1136 752
1137 273
1137 753
1138 274
1138 754
1139 275
1139 755
1140 276
1140 756
1141 277
1141 757
1142 278
1142 758
1143 279
1143 759
1144 280
1144 760
1145 281
1145 761
1146 282
1146 762
1147 283
1147 763
1148 284
1148 764
1149 285
1149 765
1150 286
1150 766
1151 287
1151 767
1152 288
1152 480
1153 289
1153 481
1154 290
1154 482
1155 291
1155 483
1156 292
1156 484
1157 293
1157 485
1158 294
1158 486
1159 295
1159 487
1160 296
1160 488
1161 297
1161 489
1162 298
1162 490
1163 299
1163 491
1164 300
1164 492
1165 301
1165 493
1166 302
1166 494
1167 303
1167 495
1168 304
1168 496
1169 305
1169 497
1170 306
1170 498
1171 307
1171 499
1172 308
1172 500
1173 309
1173 501
1174 310
1174 502
1175 311
1175 503
1176 312
1176 504
1177 313
1177 505
1178 314
1178 506
1179 315
1179 507
1180 316
1180 508
1181 317
1181 509
1182 318
1182 510
1183 319
1183 511
1184 288
1184 576
1185 289
1185 577
1186 290
1186 578
1187 291
1187 579
1188 292
1188 580
1189 293
1189 581
1190 294
1190 582
1191 295
1191 583
1192 296
1192 584
1193 297
1193 585
1194 298
1194 586
1195 299
1195 587
1196 300
1196 588
1197 301
1197 589
1198 302
1198 590
1199 303
1199 591
1200 304
1200 592
1201 305
1201 593
1202 306
1202 594
1203 307
1203 595
1204 308
1204 596
1205 309
1205 597
1206 310
1206 598
1207 311
1207 599
1208 312
1208 600
1209 313
1209 601
1210 314
1210 602
1211 315
1211 603
1212 316
1212 604
1213 317
1213 605
1214 318
1214 606
1215 319
1215 607
1216 288
1216 704
1217 289
1217 705
1218 290
1218 706
1219 291
1219 707
1220 292
1220 708
1221 293
1221 709
1222 294
1222 710
1223 295
1223 711
1224 296
1224 712
1225 297
1225 713
1226 298
1226 714
1227 299
1227 715
1228 300
1228 716
1229 301
1229 717
1230 302
1230 718
1231 303
1231 719
1232 304
1232 720
1233 305
1233 721
1234 306
1234 722
1235 307
1235 723
1236 308
1236 724
1237 309
1237 725
1238 310
1238 726
1239 311
1239 727
1240 312
1240 728
1241 313
1241 729
1242 314
1242 730
1243 315
1243 731
1244 316
1244 732
1245 317
1245 733
1246 318
1246 734
1247 319
1247 735
1248 288
1248 736
1249 289
1249 737
1250 290
1250 738
1251 291
1251 739
1252 292
1252 740
1253 293
1253 741
1254 294
1254 742
1255 295
1255 743
1256 296
1256 744
1257 297
1257 745
1258 298
1258 746
1259 299
1259 747
1260 300
1260 748
1261 301
1261 749
1262 302
1262 750
1263 303
1263 751
1264 304
1264 752
1265 305
1265 753
1266 306
1266 754
1267 307
1267 755
1268 308
1268 756
1269 309
1269 757
1270 310
1270 758
1271 311
1271 759
1272 312
1272 760
1273 313
1273 761
1274 314
1274 762
1275 315
1275 763
1276 316
1276 764
1277 317
1277 765
1278 318
1278 766
1279 319
1279 767
1280 320
1280 416
1281 321
1281 417
1282 322
1282 418
1283 323
1283 419
1284 324
1284 420
1285 325
1285 421
1286 326
1286 422
1287 327
1287 423
1288 328
1288 424
1289 329
1289 425
1290 330
1290 426
1291 331
1291 427
1292 332
1292 428
1293 333
1293 429
1294 334
1294 430
1295 335
1295 431
1296 336
1296 432
1297 337
1297 433
1298 338
1298 434
1299 339
1299 435
1300 340
1300 436
1301 341
1301 437
1302 342
1302 438
1303 343
1303 439
1304 344
1304 440
1305 345
1305 441
1306 346
1306 442
1307 347
1307 443
1308 348
1308 444
1309 349
1309 445
1310 350
1310 446
1311 351
1311 447
1312 320
1312 640
1313 321
1313 641
1314 322
1314 642
1315 323
1315 643
1316 324
1316 644
1317 325
1317 645
1318 326
1318 646
1319 327
1319 647
1320 328
1320 648
1321 329
1321 649
1322 330
1322 650
1323 331
1323 651
1324 332
1324 652
1325 333
1325 653
1326 334
1326 654
1327 335
1327 655
1328 336
1328 656
1329 337
1329 657
1330 338
1330 658
1331 339
1331 659
1332 340
1332 660
1333 341
1333 661
1334 342
1334 662
1335 343
1335 663
1336 344
1336 664
1337 345
1337 665
1338 346
1338 666
1339 347
1339 667
1340 348
1340 668
1341 349
1341 669
1342 350
1342 670
1343 351
1343 671
1344 320
1344 672
1345 321
1345 673
1346 322
1346 674
1347 323
1347 675
1348 324
1348 676
1349 325
1349 677
1350 326
1350 678
1351 327
1351 679
1352 328
1352 680
1353 329
1353 681
1354 330
1354 682
1355 331
1355 683
1356 332
1356 684
1357 333
1357 685
1358 334
1358 686
1359 335
1359 687
1360 336
1360 688
1361 337
1361 689
1362 338
1362 690
1363 339
1363 691
1364 340
1364 692
1365 341
1365 693
1366 342
1366 694
1367 343
1367 695
1368 344
1368 696
1369 345
1369 697
1370 346
1370 698
1371 347
1371 699
1372 348
1372 700
1373 349
1373 701
1374 350
1374 702
1375 351
1375 703
1376 320
1376 704
1377 321
1377 705
1378 322
1378 706
1379 323
1379 707
1380 324
1380 708
1381 325
1381 709
1382 326
1382 710
1383 327
1383 711
1384 328
1384 712
1385 329
1385 713
1386 330
1386 714
1387 331
1387 715
1388 332
1388 716
1389 333
1389 717
1390 334
1390 718
1391 335
1391 719
1392 336
1392 720
1393 337
1393 721
1394 338
1394 722
1395 339
1395 723
1396 340
1396 724
1397 341
1397 725
1398 342
1398 726
1399 343
1399 727
1400 344
1400 728
1401 345
1401 729
1402 346
1402 730
1403 347
1403 731
1404 348
1404 732
1405 349
1405 733
1406 350
1406 734
1407 351
1407 735
1408 352
1408 480
1409 353
1409 481
1410 354
1410 482
1411 355
1411 483
1412 356
1412 484
1413 357
1413 485
1414 358
1414 486
1415 359
1415 487
1416 360
1416 488
1417 361
1417 489
1418 362
1418 490
1419 363
1419 491
1420 364
1420 492
1421 365
1421 493
1422 366
1422 494
1423 367
1423 495
1424 368
1424 496
1425 369
1425 497
1426 370
1426 498
1427 371
1427 499
1428 372
1428 500
1429 373
1429 501
1430 374
1430 502
1431 375
1431 503
1432 376
1432 504
1433 377
1433 505
1434 378
1434 506
1435 379
1435 507
1436 380
1436 508
1437 381
1437 509
1438 382
1438 510
1439 383
1439 511
1440 352
1440 608
1441 353
1441 609
1442 354
1442 610
1443 355
1443 611
1444 356
1444 612
1445 357
1445 613
1446 358
1446 614
1447 359
1447 615
1448 360
1448 616
1449 361
1449 617
1450 362
1450 618
1451 363
1451 619
1452 364
1452 620
1453 365
1453 621
1454 366
1454 622
1455 367
1455 623
1456 368
1456 624
1457 369
1457 625
1458 370
1458 626
1459 371
1459 627
1460 372
1460 628
1461 373
1461 629
1462 374
1462 630
1463 375
1463 631
1464 376
1464 632
1465 377
1465 633
1466 378
1466 634
1467 379
1467 635
1468 380
1468 636
1469 381
1469 637
1470 382
1470 638
1471 383
1471 639
1472 352
1472 640
1473 353
1473 641
1474 354
1474 642
1475 355
1475 643
1476 356
1476 644
1477 357
1477 645
1478 358
1478 646
1479 359
1479 647
1480 360
1480 648
1481 361
1481 649
1482 362
1482 650
1483 363
1483 651
1484 364
1484 652
1485 365
1485 653
1486 366
1486 654
1487 367
1487 655
1488 368
1488 656
1489 369
1489 657
1490 370
1490 658
1491 371
1491 659
1492 372
1492 660
1493 373
1493 661
1494 374
1494 662
1495 375
1495 663
1496 376
1496 664
1497 377
1497 665
1498 378
1498 666
1499 379
1499 667
1500 380
1500 668
1501 381
1501 669
1502 382
1502 670
1503 383
1503 671
1504 352
1504 768
1505 353
1505 769
1506 354
1506 770
1507 355
1507 771
1508 356
1508 772
1509 357
1509 773
1510 358
1510 774
1511 359
1511 775
1512 360
1512 776
1513 361
1513 777
1514 362
1514 778
1515 363
1515 779
1516 364
1516 780
1517 365
1517 781
1518 366
1518 782
1519 367
1519 783
1520 368
1520 784
1521 369
1521 785
1522 370
1522 786
1523 371
1523 787
1524 372
1524 788
1525 373
1525 789
1526 374
1526 790
1527 375
1527 791
1528 376
1528 792
1529 377
1529 793
1530 378
1530 794
1531 379
1531 795
1532 380
1532 796
1533 381
1533 797
1534 382
1534 798
1535 383
1535 799
1536 384
1536 512
1537 385
1537 513
1538 386
1538 514
1539 387
1539 515
1540 388
1540 516
1541 389
1541 517
1542 390
1542 518
1543 391
1543 519
1544 392
1544 520
1545 393
1545 521
1546 394
1546 522
1547 395
1547 523
1548 396
1548 524
1549 397
1549 525
1550 398
1550 526
1551 399
1551 527
1552 400
1552 528
1553 401
1553 529
1554 402
1554 530
1555 403
1555 531
1556 404
1556 532
1557 405
1557 533
1558 406
1558 534
1559 407
1559 535
1560 408
1560 536
1561 409
1561 537
1562 410
1562 538
1563 411
1563 539
1564 412
1564 540
1565 413
1565 541
1566 414
1566 542
1567 415
1567 543
1568 384
1568 576
1569 385
1569 577
1570 386
1570 578
1571 387
1571 579
1572 388
1572 580
1573 389
1573 581
1574 390
1574 582
1575 391
1575 583
1576 392
1576 584
1577 393
1577 585
1578 394
1578 586
1579 395
1579 587
1580 396
1580 588
1581 397
1581 589
1582 398
1582 590
1583 399
1583 591
1584 400
1584 592
1585 401
1585 593
1586 402
1586 594
1587 403
1587 595
1588 404
1588 596
1589 405
1589 597
1590 406
1590 598
1591 407
1591 599
1592 408
1592 600
1593 409
1593 601
1594 410
1594 602
1595 411
1595 603
1596 412
1596 604
1597 413
1597 605
1598 414
1598 606
1599 415
1599 607
1600 384
1600 640
1601 385
1601 641
1602 386
1602 642
1603 387
1603 643
1604 388
1604 644
1605 389
1605 645
1606 390
1606 646
1607 391
1607 647
1608 392
1608 648
1609 393
1609 649
1610 394
1610 650
1611 395
1611 651
1612 396
1612 652
1613 397
1613 653
1614 398
1614 654
1615 399
1615 655
1616 400
1616 656
1617 401
1617 657
1618 402
1618 658
1619 403
1619 659
1620 404
1620 660
1621 405
1621 661
1622 406
1622 662
1623 407
1623 663
1624 408
1624 664
1625 409
1625 665
1626 410
1626 666
1627 411
1627 667
1628 412
1628 668
1629 413
1629 669
1630 414
1630 670
1631 415
1631 671
1632 384
1632 800
1633 385
1633 801
1634 386
1634 802
1635 387
1635 803
1636 388
1636 804
1637 389
1637 805
1638 390
1638 806
1639 391
1639 807
1640 392
1640 808
1641 393
1641 809
1642 394
1642 810
1643 395
1643 811
1644 396
1644 812
1645 397
1645 813
1646 398
1646 814
1647 399
1647 815
1648 400
1648 816
1649 401
1649 817
1650 402
1650 818
1651 403
1651 819
1652 404
1652 820
1653 405
1653 821
1654 406
1654 822
1655 407
1655 823
1656 408
1656 824
1657 409
1657 825
1658 410
1658 826
1659 411
1659 827
1660 412
1660 828
1661 413
1661 829
1662 414
1662 830
1663 415
1663 831
