11904 3968 23808
0 1
0 2048
1 2
1 2049
2 3
2 2050
3 4
3 2051
4 5
4 2052
5 6
5 2053
6 7
6 2054
7 8
7 2055
8 9
8 2056
9 10
9 2057
10 11
10 2058
11 12
11 2059
12 13
12 2060
13 14
13 2061
14 15
14 2062
15 16
15 2063
16 17
16 2064
17 18
17 2065
18 19
18 2066
19 20
19 2067
20 21
20 2068
21 22
21 2069
22 23
22 2070
23 24
23 2071
24 25
24 2072
25 26
25 2073
26 27
26 2074
27 28
27 2075
28 29
28 2076
29 30
29 2077
30 31
30 2078
31 32
31 2079
32 33
32 2080
33 34
33 2081
34 35
34 2082
35 36
35 2083
36 37
36 2084
37 38
37 2085
38 39
38 2086
39 40
39 2087
40 41
40 2088
41 42
41 2089
42 43
42 2090
43 44
43 2091
44 45
44 2092
45 46
45 2093
46 47
46 2094
47 48
47 2095
48 49
48 2096
49 50
49 2097
50 51
50 2098
51 52
51 2099
52 53
52 2100
53 54
53 2101
54 55
54 2102
55 56
55 2103
56 57
56 2104
57 58
57 2105
58 59
58 2106
59 60
59 2107
60 61
60 2108
61 62
61 2109
62 63
62 2110
63 0
63 2111
64 0
64 2368
65 1
65 2369
66 2
66 2370
67 3
67 2371
68 4
68 2372
69 5
69 2373
70 6
70 2374
71 7
71 2375
72 8
72 2376
73 9
73 2377
74 10
74 2378
75 11
75 2379
76 12
76 2380
77 13
77 2381
78 14
78 2382
79 15
79 2383
80 16
80 2384
81 17
81 2385
82 18
82 2386
83 19
83 2387
84 20
84 2388
85 21
85 2389
86 22
86 2390
87 23
87 2391
88 24
88 2392
89 25
89 2393
90 26
90 2394
91 27
91 2395
92 28
92 2396
93 29
93 2397
94 30
94 2398
95 31
95 2399
96 32
96 2400
97 33
97 2401
98 34
98 2402
99 35
99 2403
100 36
100 2404
101 37
101 2405
102 38
102 2406
103 39
103 2407
104 40
104 2408
105 41
105 2409
106 42
106 2410
107 43
107 2411
108 44
108 2412
109 45
109 2413
110 46
110 2414
111 47
111 2415
112 48
112 2416
113 49
113 2417
114 50
114 2418
115 51
115 2419
116 52
116 2420
117 53
117 2421
118 54
118 2422
119 55
119 2423
120 56
120 2424
121 57
121 2425
122 58
122 2426
123 59
123 2427
124 60
124 2428
125 61
125 2429
126 62
126 2430
127 63
127 2431
128 0
128 2688
129 1
129 2689
130 2
130 2690
131 3
131 2691
132 4
132 2692
133 5
133 2693
134 6
134 2694
135 7
135 2695
136 8
136 2696
137 9
137 2697
138 10
138 2698
139 11
139 2699
140 12
140 2700
141 13
141 2701
142 14
142 2702
143 15
143 2703
144 16
144 2704
145 17
145 2705
146 18
146 2706
147 19
147 2707
148 20
148 2708
149 21
149 2709
150 22
150 2710
151 23
151 2711
152 24
152 2712
153 25
153 2713
154 26
154 2714
155 27
155 2715
156 28
156 2716
157 29
157 2717
158 30
158 2718
159 31
159 2719
160 32
160 2720
161 33
161 2721
162 34
162 2722
163 35
163 2723
164 36
164 2724
165 37
165 2725
166 38
166 2726
167 39
167 2727
168 40
168 2728
169 41
169 2729
170 42
170 2730
171 43
171 2731
172 44
172 2732
173 45
173 2733
174 46
174 2734
175 47
175 2735
176 48
176 2736
177 49
177 2737
178 50
178 2738
179 51
179 2739
180 52
180 2740
181 53
181 2741
182 54
182 2742
183 55
183 2743
184 56
184 2744
185 57
185 2745
186 58
186 2746
187 59
187 2747
188 60
188 2748
189 61
189 2749
190 62
190 2750
191 63
191 2751
192 0
192 3008
193 1
193 3009
194 2
194 3010
195 3
195 3011
196 4
196 3012
197 5
197 3013
198 6
198 3014
199 7
199 3015
200 8
200 3016
201 9
201 3017
202 10
202 3018
203 11
203 3019
204 12
204 3020
205 13
205 3021
206 14
206 3022
207 15
207 3023
208 16
208 3024
209 17
209 3025
210 18
210 3026
211 19
211 3027
212 20
212 3028
213 21
213 3029
214 22
214 3030
215 23
215 3031
216 24
216 3032
217 25
217 3033
218 26
218 3034
219 27
219 3035
220 28
220 3036
221 29
221 3037
222 30
222 3038
223 31
223 3039
224 32
224 3040
225 33
225 3041
226 34
226 3042
227 35
227 3043
228 36
228 3044
229 37
229 3045
230 38
230 3046
231 39
231 3047
232 40
232 3048
233 41
233 3049
234 42
234 3050
235 43
235 3051
236 44
236 3052
237 45
237 3053
238 46
238 3054
239 47
239 3055
240 48
240 3056
241 49
241 3057
242 50
242 3058
243 51
243 3059
244 52
244 3060
245 53
245 3061
246 54
246 3062
247 55
247 3063
248 56
248 3064
249 57
249 3065
250 58
250 3066
251 59
251 3067
252 60
252 3068
253 61
253 3069
254 62
254 3070
255 63
255 3071
256 0
256 3328
257 1
257 3329
258 2
258 3330
259 3
259 3331
260 4
260 3332
261 5
261 3333
262 6
262 3334
263 7
263 3335
264 8
264 3336
265 9
265 3337
266 10
266 3338
267 11
267 3339
268 12
268 3340
269 13
269 3341
270 14
270 3342
271 15
271 3343
272 16
272 3344
273 17
273 3345
274 18
274 3346
275 19
275 3347
276 20
276 3348
277 21
277 3349
278 22
278 3350
279 23
279 3351
280 24
280 3352
281 25
281 3353
282 26
282 3354
283 27
283 3355
284 28
284 3356
285 29
285 3357
286 30
286 3358
287 31
287 3359
288 32
288 3360
289 33
289 3361
290 34
290 3362
291 35
291 3363
292 36
292 3364
293 37
293 3365
294 38
294 3366
295 39
295 3367
296 40
296 3368
297 41
297 3369
298 42
298 3370
299 43
299 3371
300 44
300 3372
301 45
301 3373
302 46
302 3374
303 47
303 3375
304 48
304 3376
305 49
305 3377
306 50
306 3378
307 51
307 3379
308 52
308 3380
309 53
309 3381
310 54
310 3382
311 55
311 3383
312 56
312 3384
313 57
313 3385
314 58
314 3386
315 59
315 3387
316 60
316 3388
317 61
317 3389
318 62
318 3390
319 63
319 3391
320 0
320 3648
321 1
321 3649
322 2
322 3650
323 3
323 3651
324 4
324 3652
325 5
325 3653
326 6
326 3654
327 7
327 3655
328 8
328 3656
329 9
329 3657
330 10
330 3658
331 11
331 3659
332 12
332 3660
333 13
333 3661
334 14
334 3662
335 15
335 3663
336 16
336 3664
337 17
337 3665
338 18
338 3666
339 19
339 3667
340 20
340 3668
341 21
341 3669
342 22
342 3670
343 23
343 3671
344 24
344 3672
345 25
345 3673
346 26
346 3674
347 27
347 3675
348 28
348 3676
349 29
349 3677
350 30
350 3678
351 31
351 3679
352 32
352 3680
353 33
353 3681
354 34
354 3682
355 35
355 3683
356 36
356 3684
357 37
357 3685
358 38
358 3686
359 39
359 3687
360 40
360 3688
361 41
361 3689
362 42
362 3690
363 43
363 3691
364 44
364 3692
365 45
365 3693
366 46
366 3694
367 47
367 3695
368 48
368 3696
369 49
369 3697
370 50
370 3698
371 51
371 3699
372 52
372 3700
373 53
373 3701
374 54
374 3702
375 55
375 3703
376 56
376 3704
377 57
377 3705
378 58
378 3706
379 59
379 3707
380 60
380 3708
381 61
381 3709
382 62
382 3710
383 63
383 3711
384 64
384 1984
385 65
385 1985
386 66
386 1986
387 67
387 1987
388 68
388 1988
389 69
389 1989
390 70
390 1990
391 71
391 1991
392 72
392 1992
393 73
393 1993
394 74
394 1994
395 75
395 1995
396 76
396 1996
397 77
397 1997
398 78
398 1998
399 79
399 1999
400 80
400 2000
401 81
401 2001
402 82
402 2002
403 83
403 2003
404 84
404 2004
405 85
405 2005
406 86
406 2006
407 87
407 2007
408 88
408 2008
409 89
409 2009
410 90
410 2010
411 91
411 2011
412 92
412 2012
413 93
413 2013
414 94
414 2014
415 95
415 2015
416 96
416 2016
417 97
417 2017
418 98
418 2018
419 99
419 2019
420 100
420 2020
421 101
421 2021
422 102
422 2022
423 103
423 2023
424 104
424 2024
425 105
425 2025
426 106
426 2026
427 107
427 2027
428 108
428 2028
429 109
429 2029
430 110
430 2030
431 111
431 2031
432 112
432 2032
433 113
433 2033
434 114
434 2034
435 115
435 2035
436 116
436 2036
437 117
437 2037
438 118
438 2038
439 119
439 2039
440 120
440 2040
441 121
441 2041
442 122
442 2042
443 123
443 2043
444 124
444 2044
445 125
445 2045
446 126
446 2046
447 127
447 2047
448 64
448 2368
449 65
449 2369
450 66
450 2370
451 67
451 2371
452 68
452 2372
453 69
453 2373
454 70
454 2374
455 71
455 2375
456 72
456 2376
457 73
457 2377
458 74
458 2378
459 75
459 2379
460 76
460 2380
461 77
461 2381
462 78
462 2382
463 79
463 2383
464 80
464 2384
465 81
465 2385
466 82
466 2386
467 83
467 2387
468 84
468 2388
469 85
469 2389
470 86
470 2390
471 87
471 2391
472 88
472 2392
473 89
473 2393
474 90
474 2394
475 91
475 2395
476 92
476 2396
477 93
477 2397
478 94
478 2398
479 95
479 2399
480 96
480 2400
481 97
481 2401
482 98
482 2402
483 99
483 2403
484 100
484 2404
485 101
485 2405
486 102
486 2406
487 103
487 2407
488 104
488 2408
489 105
489 2409
490 106
490 2410
491 107
491 2411
492 108
492 2412
493 109
493 2413
494 110
494 2414
495 111
495 2415
496 112
496 2416
497 113
497 2417
498 114
498 2418
499 115
499 2419
500 116
500 2420
501 117
501 2421
502 118
502 2422
503 119
503 2423
504 120
504 2424
505 121
505 2425
506 122
506 2426
507 123
507 2427
508 124
508 2428
509 125
509 2429
510 126
510 2430
511 127
511 2431
512 64
512 2432
513 65
513 2433
514 66
514 2434
515 67
515 2435
516 68
516 2436
517 69
517 2437
518 70
518 2438
519 71
519 2439
520 72
520 2440
521 73
521 2441
522 74
522 2442
523 75
523 2443
524 76
524 2444
525 77
525 2445
526 78
526 2446
527 79
527 2447
528 80
528 2448
529 81
529 2449
530 82
530 2450
531 83
531 2451
532 84
532 2452
533 85
533 2453
534 86
534 2454
535 87
535 2455
536 88
536 2456
537 89
537 2457
538 90
538 2458
539 91
539 2459
540 92
540 2460
541 93
541 2461
542 94
542 2462
543 95
543 2463
544 96
544 2464
545 97
545 2465
546 98
546 2466
547 99
547 2467
548 100
548 2468
549 101
549 2469
550 102
550 2470
551 103
551 2471
552 104
552 2472
553 105
553 2473
554 106
554 2474
555 107
555 2475
556 108
556 2476
557 109
557 2477
558 110
558 2478
559 111
559 2479
560 112
560 2480
561 113
561 2481
562 114
562 2482
563 115
563 2483
564 116
564 2484
565 117
565 2485
566 118
566 2486
567 119
567 2487
568 120
568 2488
569 121
569 2489
570 122
570 2490
571 123
571 2491
572 124
572 2492
573 125
573 2493
574 126
574 2494
575 127
575 2495
576 64
576 2496
577 65
577 2497
578 66
578 2498
579 67
579 2499
580 68
580 2500
581 69
581 2501
582 70
582 2502
583 71
583 2503
584 72
584 2504
585 73
585 2505
586 74
586 2506
587 75
587 2507
588 76
588 2508
589 77
589 2509
590 78
590 2510
591 79
591 2511
592 80
592 2512
593 81
593 2513
594 82
594 2514
595 83
595 2515
596 84
596 2516
597 85
597 2517
598 86
598 2518
599 87
599 2519
600 88
600 2520
601 89
601 2521
602 90
602 2522
603 91
603 2523
604 92
604 2524
605 93
605 2525
606 94
606 2526
607 95
607 2527
608 96
608 2528
609 97
609 2529
610 98
610 2530
611 99
611 2531
612 100
612 2532
613 101
613 2533
614 102
614 2534
615 103
615 2535
616 104
616 2536
617 105
617 2537
618 106
618 2538
619 107
619 2539
620 108
620 2540
621 109
621 2541
622 110
622 2542
623 111
623 2543
624 112
624 2544
625 113
625 2545
626 114
626 2546
627 115
627 2547
628 116
628 2548
629 117
629 2549
630 118
630 2550
631 119
631 2551
632 120
632 2552
633 121
633 2553
634 122
634 2554
635 123
635 2555
636 124
636 2556
637 125
637 2557
638 126
638 2558
639 127
639 2559
640 64
640 2560
641 65
641 2561
642 66
642 2562
643 67
643 2563
644 68
644 2564
645 69
645 2565
646 70
646 2566
647 71
647 2567
648 72
648 2568
649 73
649 2569
650 74
650 2570
651 75
651 2571
652 76
652 2572
653 77
653 2573
654 78
654 2574
655 79
655 2575
656 80
656 2576
657 81
657 2577
658 82
658 2578
659 83
659 2579
660 84
660 2580
661 85
661 2581
662 86
662 2582
663 87
663 2583
664 88
664 2584
665 89
665 2585
666 90
666 2586
667 91
667 2587
668 92
668 2588
669 93
669 2589
670 94
670 2590
671 95
671 2591
672 96
672 2592
673 97
673 2593
674 98
674 2594
675 99
675 2595
676 100
676 2596
677 101
677 2597
678 102
678 2598
679 103
679 2599
680 104
680 2600
681 105
681 2601
682 106
682 2602
683 107
683 2603
684 108
684 2604
685 109
685 2605
686 110
686 2606
687 111
687 2607
688 112
688 2608
689 113
689 2609
690 114
690 2610
691 115
691 2611
692 116
692 2612
693 117
693 2613
694 118
694 2614
695 119
695 2615
696 120
696 2616
697 121
697 2617
698 122
698 2618
699 123
699 2619
700 124
700 2620
701 125
701 2621
702 126
702 2622
703 127
703 2623
704 64
704 2624
705 65
705 2625
706 66
706 2626
707 67
707 2627
708 68
708 2628
709 69
709 2629
710 70
710 2630
711 71
711 2631
712 72
712 2632
713 73
713 2633
714 74
714 2634
715 75
715 2635
716 76
716 2636
717 77
717 2637
718 78
718 2638
719 79
719 2639
720 80
720 2640
721 81
721 2641
722 82
722 2642
723 83
723 2643
724 84
724 2644
725 85
725 2645
726 86
726 2646
727 87
727 2647
728 88
728 2648
729 89
729 2649
730 90
730 2650
731 91
731 2651
732 92
732 2652
733 93
733 2653
734 94
734 2654
735 95
735 2655
736 96
736 2656
737 97
737 2657
738 98
738 2658
739 99
739 2659
740 100
740 2660
741 101
741 2661
742 102
742 2662
743 103
743 2663
744 104
744 2664
745 105
745 2665
746 106
746 2666
747 107
747 2667
748 108
748 2668
749 109
749 2669
750 110
750 2670
751 111
751 2671
752 112
752 2672
753 113
753 2673
754 114
754 2674
755 115
755 2675
756 116
756 2676
757 117
757 2677
758 118
758 2678
759 119
759 2679
760 120
760 2680
761 121
761 2681
762 122
762 2682
763 123
763 2683
764 124
764 2684
765 125
765 2685
766 126
766 2686
767 127
767 2687
768 128
768 2304
769 129
769 2305
770 130
770 2306
771 131
771 2307
772 132
772 2308
773 133
773 2309
774 134
774 2310
775 135
775 2311
776 136
776 2312
777 137
777 2313
778 138
778 2314
779 139
779 2315
780 140
780 2316
781 141
781 2317
782 142
782 2318
783 143
783 2319
784 144
784 2320
785 145
785 2321
786 146
786 2322
787 147
787 2323
788 148
788 2324
789 149
789 2325
790 150
790 2326
791 151
791 2327
792 152
792 2328
793 153
793 2329
794 154
794 2330
795 155
795 2331
796 156
796 2332
797 157
797 2333
798 158
798 2334
799 159
799 2335
800 160
800 2336
801 161
801 2337
802 162
802 2338
803 163
803 2339
804 164
804 2340
805 165
805 2341
806 166
806 2342
807 167
807 2343
808 168
808 2344
809 169
809 2345
810 170
810 2346
811 171
811 2347
812 172
812 2348
813 173
813 2349
814 174
814 2350
815 175
815 2351
816 176
816 2352
817 177
817 2353
818 178
818 2354
819 179
819 2355
820 180
820 2356
821 181
821 2357
822 182
822 2358
823 183
823 2359
824 184
824 2360
825 185
825 2361
826 186
826 2362
827 187
827 2363
828 188
828 2364
829 189
829 2365
830 190
830 2366
831 191
831 2367
832 128
832 2368
833 129
833 2369
834 130
834 2370
835 131
835 2371
836 132
836 2372
837 133
837 2373
838 134
838 2374
839 135
839 2375
840 136
840 2376
841 137
841 2377
842 138
842 2378
843 139
843 2379
844 140
844 2380
845 141
845 2381
846 142
846 2382
847 143
847 2383
848 144
848 2384
849 145
849 2385
850 146
850 2386
851 147
851 2387
852 148
852 2388
853 149
853 2389
854 150
854 2390
855 151
855 2391
856 152
856 2392
857 153
857 2393
858 154
858 2394
859 155
859 2395
860 156
860 2396
861 157
861 2397
862 158
862 2398
863 159
863 2399
864 160
864 2400
865 161
865 2401
866 162
866 2402
867 163
867 2403
868 164
868 2404
869 165
869 2405
870 166
870 2406
871 167
871 2407
872 168
872 2408
873 169
873 2409
874 170
874 2410
875 171
875 2411
876 172
876 2412
877 173
877 2413
878 174
878 2414
879 175
879 2415
880 176
880 2416
881 177
881 2417
882 178
882 2418
883 179
883 2419
884 180
884 2420
885 181
885 2421
886 182
886 2422
887 183
887 2423
888 184
888 2424
889 185
889 2425
890 186
890 2426
891 187
891 2427
892 188
892 2428
893 189
893 2429
894 190
894 2430
895 191
895 2431
896 128
896 2944
897 129
897 2945
898 130
898 2946
899 131
899 2947
900 132
900 2948
901 133
901 2949
902 134
902 2950
903 135
903 2951
904 136
904 2952
905 137
905 2953
906 138
906 2954
907 139
907 2955
908 140
908 2956
909 141
909 2957
910 142
910 2958
911 143
911 2959
912 144
912 2960
913 145
913 2961
914 146
914 2962
915 147
915 2963
916 148
916 2964
917 149
917 2965
918 150
918 2966
919 151
919 2967
920 152
920 2968
921 153
921 2969
922 154
922 2970
923 155
923 2971
924 156
924 2972
925 157
925 2973
926 158
926 2974
927 159
927 2975
928 160
928 2976
929 161
929 2977
930 162
930 2978
931 163
931 2979
932 164
932 2980
933 165
933 2981
934 166
934 2982
935 167
935 2983
936 168
936 2984
937 169
937 2985
938 170
938 2986
939 171
939 2987
940 172
940 2988
941 173
941 2989
942 174
942 2990
943 175
943 2991
944 176
944 2992
945 177
945 2993
946 178
946 2994
947 179
947 2995
948 180
948 2996
949 181
949 2997
950 182
950 2998
951 183
951 2999
952 184
952 3000
953 185
953 3001
954 186
954 3002
955 187
955 3003
956 188
956 3004
957 189
957 3005
958 190
958 3006
959 191
959 3007
960 128
960 3200
961 129
961 3201
962 130
962 3202
963 131
963 3203
964 132
964 3204
965 133
965 3205
966 134
966 3206
967 135
967 3207
968 136
968 3208
969 137
969 3209
970 138
970 3210
971 139
971 3211
972 140
972 3212
973 141
973 3213
974 142
974 3214
975 143
975 3215
976 144
976 3216
977 145
977 3217
978 146
978 3218
979 147
979 3219
980 148
980 3220
981 149
981 3221
982 150
982 3222
983 151
983 3223
984 152
984 3224
985 153
985 3225
986 154
986 3226
987 155
987 3227
988 156
988 3228
989 157
989 3229
990 158
990 3230
991 159
991 3231
992 160
992 3232
993 161
993 3233
994 162
994 3234
995 163
995 3235
996 164
996 3236
997 165
997 3237
998 166
998 3238
999 167
999 3239
1000 168
1000 3240
1001 169
1001 3241
1002 170
1002 3242
1003 171
1003 3243
1004 172
1004 3244
1005 173
1005 3245
1006 174
1006 3246
1007 175
1007 3247
1008 176
1008 3248
1009 177
1009 3249
1010 178
1010 3250
1011 179
1011 3251
1012 180
1012 3252
1013 181
1013 3253
1014 182
1014 3254
1015 183
1015 3255
1016 184
1016 3256
1017 185
1017 3257
1018 186
1018 3258
1019 187
1019 3259
1020 188
1020 3260
1021 189
1021 3261
1022 190
1022 3262
1023 191
1023 3263
1024 128
1024 3456
1025 129
1025 3457
1026 130
1026 3458
1027 131
1027 3459
1028 132
1028 3460
1029 133
1029 3461
1030 134
1030 3462
1031 135
1031 3463
1032 136
1032 3464
1033 137
1033 3465
1034 138
1034 3466
1035 139
1035 3467
1036 140
1036 3468
1037 141
1037 3469
1038 142
1038 3470
1039 143
1039 3471
1040 144
1040 3472
1041 145
1041 3473
1042 146
1042 3474
1043 147
1043 3475
1044 148
1044 3476
1045 149
1045 3477
1046 150
1046 3478
1047 151
1047 3479
1048 152
1048 3480
1049 153
1049 3481
1050 154
1050 3482
1051 155
1051 3483
1052 156
1052 3484
1053 157
1053 3485
1054 158
1054 3486
1055 159
1055 3487
1056 160
1056 3488
1057 161
1057 3489
1058 162
1058 3490
1059 163
1059 3491
1060 164
1060 3492
1061 165
1061 3493
1062 166
1062 3494
1063 167
1063 3495
1064 168
1064 3496
1065 169
1065 3497
1066 170
1066 3498
1067 171
1067 3499
1068 172
1068 3500
1069 173
1069 3501
1070 174
1070 3502
1071 175
1071 3503
1072 176
1072 3504
1073 177
1073 3505
1074 178
1074 3506
1075 179
1075 3507
1076 180
1076 3508
1077 181
1077 3509
1078 182
1078 3510
1079 183
1079 3511
1080 184
1080 3512
1081 185
1081 3513
1082 186
1082 3514
1083 187
1083 3515
1084 188
1084 3516
1085 189
1085 3517
1086 190
1086 3518
1087 191
1087 3519
1088 128
1088 3712
1089 129
1089 3713
1090 130
1090 3714
1091 131
1091 3715
1092 132
1092 3716
1093 133
1093 3717
1094 134
1094 3718
1095 135
1095 3719
1096 136
1096 3720
1097 137
1097 3721
1098 138
1098 3722
1099 139
1099 3723
1100 140
1100 3724
1101 141
1101 3725
1102 142
1102 3726
1103 143
1103 3727
1104 144
1104 3728
1105 145
1105 3729
1106 146
1106 3730
1107 147
1107 3731
1108 148
1108 3732
1109 149
1109 3733
1110 150
1110 3734
1111 151
1111 3735
1112 152
1112 3736
1113 153
1113 3737
1114 154
1114 3738
1115 155
1115 3739
1116 156
1116 3740
1117 157
1117 3741
1118 158
1118 3742
1119 159
1119 3743
1120 160
1120 3744
1121 161
1121 3745
1122 162
1122 3746
1123 163
1123 3747
1124 164
1124 3748
1125 165
1125 3749
1126 166
1126 3750
1127 167
1127 3751
1128 168
1128 3752
1129 169
1129 3753
1130 170
1130 3754
1131 171
1131 3755
1132 172
1132 3756
1133 173
1133 3757
1134 174
1134 3758
1135 175
1135 3759
1136 176
1136 3760
1137 177
1137 3761
1138 178
1138 3762
1139 179
1139 3763
1140 180
1140 3764
1141 181
1141 3765
1142 182
1142 3766
1143 183
1143 3767
1144 184
1144 3768
1145 185
1145 3769
1146 186
1146 3770
1147 187
1147 3771
1148 188
1148 3772
1149 189
1149 3773
1150 190
1150 3774
1151 191
1151 3775
1152 192
1152 2176
1153 193
1153 2177
1154 194
1154 2178
1155 195
1155 2179
1156 196
1156 2180
1157 197
1157 2181
1158 198
1158 2182
1159 199
1159 2183
1160 200
1160 2184
1161 201
1161 2185
1162 202
1162 2186
1163 203
1163 2187
1164 204
1164 2188
1165 205
1165 2189
1166 206
1166 2190
1167 207
1167 2191
1168 208
1168 2192
1169 209
1169 2193
1170 210
1170 2194
1171 211
1171 2195
1172 212
1172 2196
1173 213
1173 2197
1174 214
1174 2198
1175 215
1175 2199
1176 216
1176 2200
1177 217
1177 2201
1178 218
1178 2202
1179 219
1179 2203
1180 220
1180 2204
1181 221
1181 2205
1182 222
1182 2206
1183 223
1183 2207
1184 224
1184 2208
1185 225
1185 2209
1186 226
1186 2210
1187 227
1187 2211
1188 228
1188 2212
1189 229
1189 2213
1190 230
1190 2214
1191 231
1191 2215
1192 232
1192 2216
1193 233
1193 2217
1194 234
1194 2218
1195 235
1195 2219
1196 236
1196 2220
1197 237
1197 2221
1198 238
1198 2222
1199 239
1199 2223
1200 240
1200 2224
1201 241
1201 2225
1202 242
1202 2226
1203 243
1203 2227
1204 244
1204 2228
1205 245
1205 2229
1206 246
1206 2230
1207 247
1207 2231
1208 248
1208 2232
1209 249
1209 2233
1210 250
1210 2234
1211 251
1211 2235
1212 252
1212 2236
1213 253
1213 2237
1214 254
1214 2238
1215 255
1215 2239
1216 192
1216 2368
1217 193
1217 2369
1218 194
1218 2370
1219 195
1219 2371
1220 196
1220 2372
1221 197
1221 2373
1222 198
1222 2374
1223 199
1223 2375
1224 200
1224 2376
1225 201
1225 2377
1226 202
1226 2378
1227 203
1227 2379
1228 204
1228 2380
1229 205
1229 2381
1230 206
1230 2382
1231 207
1231 2383
1232 208
1232 2384
1233 209
1233 2385
1234 210
1234 2386
1235 211
1235 2387
1236 212
1236 2388
1237 213
1237 2389
1238 214
1238 2390
1239 215
1239 2391
1240 216
1240 2392
1241 217
1241 2393
1242 218
1242 2394
1243 219
1243 2395
1244 220
1244 2396
1245 221
1245 2397
1246 222
1246 2398
1247 223
1247 2399
1248 224
1248 2400
1249 225
1249 2401
1250 226
1250 2402
1251 227
1251 2403
1252 228
1252 2404
1253 229
1253 2405
1254 230
1254 2406
1255 231
1255 2407
1256 232
1256 2408
1257 233
1257 2409
1258 234
1258 2410
1259 235
1259 2411
1260 236
1260 2412
1261 237
1261 2413
1262 238
1262 2414
1263 239
1263 2415
1264 240
1264 2416
1265 241
1265 2417
1266 242
1266 2418
1267 243
1267 2419
1268 244
1268 2420
1269 245
1269 2421
1270 246
1270 2422
1271 247
1271 2423
1272 248
1272 2424
1273 249
1273 2425
1274 250
1274 2426
1275 251
1275 2427
1276 252
1276 2428
1277 253
1277 2429
1278 254
1278 2430
1279 255
1279 2431
1280 192
1280 2816
1281 193
1281 2817
1282 194
1282 2818
1283 195
1283 2819
1284 196
1284 2820
1285 197
1285 2821
1286 198
1286 2822
1287 199
1287 2823
1288 200
1288 2824
1289 201
1289 2825
1290 202
1290 2826
1291 203
1291 2827
1292 204
1292 2828
1293 205
1293 2829
1294 206
1294 2830
1295 207
1295 2831
1296 208
1296 2832
1297 209
1297 2833
1298 210
1298 2834
1299 211
1299 2835
1300 212
1300 2836
1301 213
1301 2837
1302 214
1302 2838
1303 215
1303 2839
1304 216
1304 2840
1305 217
1305 2841
1306 218
1306 2842
1307 219
1307 2843
1308 220
1308 2844
1309 221
1309 2845
1310 222
1310 2846
1311 223
1311 2847
1312 224
1312 2848
1313 225
1313 2849
1314 226
1314 2850
1315 227
1315 2851
1316 228
1316 2852
1317 229
1317 2853
1318 230
1318 2854
1319 231
1319 2855
1320 232
1320 2856
1321 233
1321 2857
1322 234
1322 2858
1323 235
1323 2859
1324 236
1324 2860
1325 237
1325 2861
1326 238
1326 2862
1327 239
1327 2863
1328 240
1328 2864
1329 241
1329 2865
1330 242
1330 2866
1331 243
1331 2867
1332 244
1332 2868
1333 245
1333 2869
1334 246
1334 2870
1335 247
1335 2871
1336 248
1336 2872
1337 249
1337 2873
1338 250
1338 2874
1339 251
1339 2875
1340 252
1340 2876
1341 253
1341 2877
1342 254
1342 2878
1343 255
1343 2879
1344 192
1344 3264
1345 193
1345 3265
1346 194
1346 3266
1347 195
1347 3267
1348 196
1348 3268
1349 197
1349 3269
1350 198
1350 3270
1351 199
1351 3271
1352 200
1352 3272
1353 201
1353 3273
1354 202
1354 3274
1355 203
1355 3275
1356 204
1356 3276
1357 205
1357 3277
1358 206
1358 3278
1359 207
1359 3279
1360 208
1360 3280
1361 209
1361 3281
1362 210
1362 3282
1363 211
1363 3283
1364 212
1364 3284
1365 213
1365 3285
1366 214
1366 3286
1367 215
1367 3287
1368 216
1368 3288
1369 217
1369 3289
1370 218
1370 3290
1371 219
1371 3291
1372 220
1372 3292
1373 221
1373 3293
1374 222
1374 3294
1375 223
1375 3295
1376 224
1376 3296
1377 225
1377 3297
1378 226
1378 3298
1379 227
1379 3299
1380 228
1380 3300
1381 229
1381 3301
1382 230
1382 3302
1383 231
1383 3303
1384 232
1384 3304
1385 233
1385 3305
1386 234
1386 3306
1387 235
1387 3307
1388 236
1388 3308
1389 237
1389 3309
1390 238
1390 3310
1391 239
1391 3311
1392 240
1392 3312
1393 241
1393 3313
1394 242
1394 3314
1395 243
1395 3315
1396 244
1396 3316
1397 245
1397 3317
1398 246
1398 3318
1399 247
1399 3319
1400 248
1400 3320
1401 249
1401 3321
1402 250
1402 3322
1403 251
1403 3323
1404 252
1404 3324
1405 253
1405 3325
1406 254
1406 3326
1407 255
1407 3327
1408 192
1408 3392
1409 193
1409 3393
1410 194
1410 3394
1411 195
1411 3395
1412 196
1412 3396
1413 197
1413 3397
1414 198
1414 3398
1415 199
1415 3399
1416 200
1416 3400
1417 201
1417 3401
1418 202
1418 3402
1419 203
1419 3403
1420 204
1420 3404
1421 205
1421 3405
1422 206
1422 3406
1423 207
1423 3407
1424 208
1424 3408
1425 209
1425 3409
1426 210
1426 3410
1427 211
1427 3411
1428 212
1428 3412
1429 213
1429 3413
1430 214
1430 3414
1431 215
1431 3415
1432 216
1432 3416
1433 217
1433 3417
1434 218
1434 3418
1435 219
1435 3419
1436 220
1436 3420
1437 221
1437 3421
1438 222
1438 3422
1439 223
1439 3423
1440 224
1440 3424
1441 225
1441 3425
1442 226
1442 3426
1443 227
1443 3427
1444 228
1444 3428
1445 229
1445 3429
1446 230
1446 3430
1447 231
1447 3431
1448 232
1448 3432
1449 233
1449 3433
1450 234
1450 3434
1451 235
1451 3435
1452 236
1452 3436
1453 237
1453 3437
1454 238
1454 3438
1455 239
1455 3439
1456 240
1456 3440
1457 241
1457 3441
1458 242
1458 3442
1459 243
1459 3443
1460 244
1460 3444
1461 245
1461 3445
1462 246
1462 3446
1463 247
1463 3447
1464 248
1464 3448
1465 249
1465 3449
1466 250
1466 3450
1467 251
1467 3451
1468 252
1468 3452
1469 253
1469 3453
1470 254
1470 3454
1471 255
1471 3455
1472 192
1472 3840
1473 193
1473 3841
1474 194
1474 3842
1475 195
1475 3843
1476 196
1476 3844
1477 197
1477 3845
1478 198
1478 3846
1479 199
1479 3847
1480 200
1480 3848
1481 201
1481 3849
1482 202
1482 3850
1483 203
1483 3851
1484 204
1484 3852
1485 205
1485 3853
1486 206
1486 3854
1487 207
1487 3855
1488 208
1488 3856
1489 209
1489 3857
1490 210
1490 3858
1491 211
1491 3859
1492 212
1492 3860
1493 213
1493 3861
1494 214
1494 3862
1495 215
1495 3863
1496 216
1496 3864
1497 217
1497 3865
1498 218
1498 3866
1499 219
1499 3867
1500 220
1500 3868
1501 221
1501 3869
1502 222
1502 3870
1503 223
1503 3871
1504 224
1504 3872
1505 225
1505 3873
1506 226
1506 3874
1507 227
1507 3875
1508 228
1508 3876
1509 229
1509 3877
1510 230
1510 3878
1511 231
1511 3879
1512 232
1512 3880
1513 233
1513 3881
1514 234
1514 3882
1515 235
1515 3883
1516 236
1516 3884
1517 237
1517 3885
1518 238
1518 3886
1519 239
1519 3887
1520 240
1520 3888
1521 241
1521 3889
1522 242
1522 3890
1523 243
1523 3891
1524 244
1524 3892
1525 245
1525 3893
1526 246
1526 3894
1527 247
1527 3895
1528 248
1528 3896
1529 249
1529 3897
1530 250
1530 3898
1531 251
1531 3899
1532 252
1532 3900
1533 253
1533 3901
1534 254
1534 3902
1535 255
1535 3903
1536 256
1536 2240
1537 257
1537 2241
1538 258
1538 2242
1539 259
1539 2243
1540 260
1540 2244
1541 261
1541 2245
1542 262
1542 2246
1543 263
1543 2247
1544 264
1544 2248
1545 265
1545 2249
1546 266
1546 2250
1547 267
1547 2251
1548 268
1548 2252
1549 269
1549 2253
1550 270
1550 2254
1551 271
1551 2255
1552 272
1552 2256
1553 273
1553 2257
1554 274
1554 2258
1555 275
1555 2259
1556 276
1556 2260
1557 277
1557 2261
1558 278
1558 2262
1559 279
1559 2263
1560 280
1560 2264
1561 281
1561 2265
1562 282
1562 2266
1563 283
1563 2267
1564 284
1564 2268
1565 285
1565 2269
1566 286
1566 2270
1567 287
1567 2271
1568 288
1568 2272
1569 289
1569 2273
1570 290
1570 2274
1571 291
1571 2275
1572 292
1572 2276
1573 293
1573 2277
1574 294
1574 2278
1575 295
1575 2279
1576 296
1576 2280
1577 297
1577 2281
1578 298
1578 2282
1579 299
1579 2283
1580 300
1580 2284
1581 301
1581 2285
1582 302
1582 2286
1583 303
1583 2287
1584 304
1584 2288
1585 305
1585 2289
1586 306
1586 2290
1587 307
1587 2291
1588 308
1588 2292
1589 309
1589 2293
1590 310
1590 2294
1591 311
1591 2295
1592 312
1592 2296
1593 313
1593 2297
1594 314
1594 2298
1595 315
1595 2299
1596 316
1596 2300
1597 317
1597 2301
1598 318
1598 2302
1599 319
1599 2303
1600 256
1600 2368
1601 257
1601 2369
1602 258
1602 2370
1603 259
1603 2371
1604 260
1604 2372
1605 261
1605 2373
1606 262
1606 2374
1607 263
1607 2375
1608 264
1608 2376
1609 265
1609 2377
1610 266
1610 2378
1611 267
1611 2379
1612 268
1612 2380
1613 269
1613 2381
1614 270
1614 2382
1615 271
1615 2383
1616 272
1616 2384
1617 273
1617 2385
1618 274
1618 2386
1619 275
1619 2387
1620 276
1620 2388
1621 277
1621 2389
1622 278
1622 2390
1623 279
1623 2391
1624 280
1624 2392
1625 281
1625 2393
1626 282
1626 2394
1627 283
1627 2395
1628 284
1628 2396
1629 285
1629 2397
1630 286
1630 2398
1631 287
1631 2399
1632 288
1632 2400
1633 289
1633 2401
1634 290
1634 2402
1635 291
1635 2403
1636 292
1636 2404
1637 293
1637 2405
1638 294
1638 2406
1639 295
1639 2407
1640 296
1640 2408
1641 297
1641 2409
1642 298
1642 2410
1643 299
1643 2411
1644 300
1644 2412
1645 301
1645 2413
1646 302
1646 2414
1647 303
1647 2415
1648 304
1648 2416
1649 305
1649 2417
1650 306
1650 2418
1651 307
1651 2419
1652 308
1652 2420
1653 309
1653 2421
1654 310
1654 2422
1655 311
1655 2423
1656 312
1656 2424
1657 313
1657 2425
1658 314
1658 2426
1659 315
1659 2427
1660 316
1660 2428
1661 317
1661 2429
1662 318
1662 2430
1663 319
1663 2431
1664 256
1664 2880
1665 257
1665 2881
1666 258
1666 2882
1667 259
1667 2883
1668 260
1668 2884
1669 261
1669 2885
1670 262
1670 2886
1671 263
1671 2887
1672 264
1672 2888
1673 265
1673 2889
1674 266
1674 2890
1675 267
1675 2891
1676 268
1676 2892
1677 269
1677 2893
1678 270
1678 2894
1679 271
1679 2895
1680 272
1680 2896
1681 273
1681 2897
1682 274
1682 2898
1683 275
1683 2899
1684 276
1684 2900
1685 277
1685 2901
1686 278
1686 2902
1687 279
1687 2903
1688 280
1688 2904
1689 281
1689 2905
1690 282
1690 2906
1691 283
1691 2907
1692 284
1692 2908
1693 285
1693 2909
1694 286
1694 2910
1695 287
1695 2911
1696 288
1696 2912
1697 289
1697 2913
1698 290
1698 2914
1699 291
1699 2915
1700 292
1700 2916
1701 293
1701 2917
1702 294
1702 2918
1703 295
1703 2919
1704 296
1704 2920
1705 297
1705 2921
1706 298
1706 2922
1707 299
1707 2923
1708 300
1708 2924
1709 301
1709 2925
1710 302
1710 2926
1711 303
1711 2927
1712 304
1712 2928
1713 305
1713 2929
1714 306
1714 2930
1715 307
1715 2931
1716 308
1716 2932
1717 309
1717 2933
1718 310
1718 2934
1719 311
1719 2935
1720 312
1720 2936
1721 313
1721 2937
1722 314
1722 2938
1723 315
1723 2939
1724 316
1724 2940
1725 317
1725 2941
1726 318
1726 2942
1727 319
1727 2943
1728 256
1728 3072
1729 257
1729 3073
1730 258
1730 3074
1731 259
1731 3075
1732 260
1732 3076
1733 261
1733 3077
1734 262
1734 3078
1735 263
1735 3079
1736 264
1736 3080
1737 265
1737 3081
1738 266
1738 3082
1739 267
1739 3083
1740 268
1740 3084
1741 269
1741 3085
1742 270
1742 3086
1743 271
1743 3087
1744 272
1744 3088
1745 273
1745 3089
1746 274
1746 3090
1747 275
1747 3091
1748 276
1748 3092
1749 277
1749 3093
1750 278
1750 3094
1751 279
1751 3095
1752 280
1752 3096
1753 281
1753 3097
1754 282
1754 3098
1755 283
1755 3099
1756 284
1756 3100
1757 285
1757 3101
1758 286
1758 3102
1759 287
1759 3103
1760 288
1760 3104
1761 289
1761 3105
1762 290
1762 3106
1763 291
1763 3107
1764 292
1764 3108
1765 293
1765 3109
1766 294
1766 3110
1767 295
1767 3111
1768 296
1768 3112
1769 297
1769 3113
1770 298
1770 3114
1771 299
1771 3115
1772 300
1772 3116
1773 301
1773 3117
1774 302
1774 3118
1775 303
1775 3119
1776 304
1776 3120
1777 305
1777 3121
1778 306
1778 3122
1779 307
1779 3123
1780 308
1780 3124
1781 309
1781 3125
1782 310
1782 3126
1783 311
1783 3127
1784 312
1784 3128
1785 313
1785 3129
1786 314
1786 3130
1787 315
1787 3131
1788 316
1788 3132
1789 317
1789 3133
1790 318
1790 3134
1791 319
1791 3135
1792 256
1792 3584
1793 257
1793 3585
1794 258
1794 3586
1795 259
1795 3587
1796 260
1796 3588
1797 261
1797 3589
1798 262
1798 3590
1799 263
1799 3591
1800 264
1800 3592
1801 265
1801 3593
1802 266
1802 3594
1803 267
1803 3595
1804 268
1804 3596
1805 269
1805 3597
1806 270
1806 3598
1807 271
1807 3599
1808 272
1808 3600
1809 273
1809 3601
1810 274
1810 3602
1811 275
1811 3603
1812 276
1812 3604
1813 277
1813 3605
1814 278
1814 3606
1815 279
1815 3607
1816 280
1816 3608
1817 281
1817 3609
1818 282
1818 3610
1819 283
1819 3611
1820 284
1820 3612
1821 285
1821 3613
1822 286
1822 3614
1823 287
1823 3615
1824 288
1824 3616
1825 289
1825 3617
1826 290
1826 3618
1827 291
1827 3619
1828 292
1828 3620
1829 293
1829 3621
1830 294
1830 3622
1831 295
1831 3623
1832 296
1832 3624
1833 297
1833 3625
1834 298
1834 3626
1835 299
1835 3627
1836 300
1836 3628
1837 301
1837 3629
1838 302
1838 3630
1839 303
1839 3631
1840 304
1840 3632
1841 305
1841 3633
1842 306
1842 3634
1843 307
1843 3635
1844 308
1844 3636
1845 309
1845 3637
1846 310
1846 3638
1847 311
1847 3639
1848 312
1848 3640
1849 313
1849 3641
1850 314
1850 3642
1851 315
1851 3643
1852 316
1852 3644
1853 317
1853 3645
1854 318
1854 3646
1855 319
1855 3647
1856 256
1856 3776
1857 257
1857 3777
1858 258
1858 3778
1859 259
1859 3779
1860 260
1860 3780
1861 261
1861 3781
1862 262
1862 3782
1863 263
1863 3783
1864 264
1864 3784
1865 265
1865 3785
1866 266
1866 3786
1867 267
1867 3787
1868 268
1868 3788
1869 269
1869 3789
1870 270
1870 3790
1871 271
1871 3791
1872 272
1872 3792
1873 273
1873 3793
1874 274
1874 3794
1875 275
1875 3795
1876 276
1876 3796
1877 277
1877 3797
1878 278
1878 3798
1879 279
1879 3799
1880 280
1880 3800
1881 281
1881 3801
1882 282
1882 3802
1883 283
1883 3803
1884 284
1884 3804
1885 285
1885 3805
1886 286
1886 3806
1887 287
1887 3807
1888 288
1888 3808
1889 289
1889 3809
1890 290
1890 3810
1891 291
1891 3811
1892 292
1892 3812
1893 293
1893 3813
1894 294
1894 3814
1895 295
1895 3815
1896 296
1896 3816
1897 297
1897 3817
1898 298
1898 3818
1899 299
1899 3819
1900 300
1900 3820
1901 301
1901 3821
1902 302
1902 3822
1903 303
1903 3823
1904 304
1904 3824
1905 305
1905 3825
1906 306
1906 3826
1907 307
1907 3827
1908 308
1908 3828
1909 309
1909 3829
1910 310
1910 3830
1911 311
1911 3831
1912 312
1912 3832
1913 313
1913 3833
1914 314
1914 3834
1915 315
1915 3835
1916 316
1916 3836
1917 317
1917 3837
1918 318
1918 3838
1919 319
1919 3839
1920 320
1920 2112
1921 321
1921 2113
1922 322
1922 2114
1923 323
1923 2115
1924 324
1924 2116
1925 325
1925 2117
1926 326
1926 2118
1927 327
1927 2119
1928 328
1928 2120
1929 329
1929 2121
1930 330
1930 2122
1931 331
1931 2123
1932 332
1932 2124
1933 333
1933 2125
1934 334
1934 2126
1935 335
1935 2127
1936 336
1936 2128
1937 337
1937 2129
1938 338
1938 2130
1939 339
1939 2131
1940 340
1940 2132
1941 341
1941 2133
1942 342
1942 2134
1943 343
1943 2135
1944 344
1944 2136
1945 345
1945 2137
1946 346
1946 2138
1947 347
1947 2139
1948 348
1948 2140
1949 349
1949 2141
1950 350
1950 2142
1951 351
1951 2143
1952 352
1952 2144
1953 353
1953 2145
1954 354
1954 2146
1955 355
1955 2147
1956 356
1956 2148
1957 357
1957 2149
1958 358
1958 2150
1959 359
1959 2151
1960 360
1960 2152
1961 361
1961 2153
1962 362
1962 2154
1963 363
1963 2155
1964 364
1964 2156
1965 365
1965 2157
1966 366
1966 2158
1967 367
1967 2159
1968 368
1968 2160
1969 369
1969 2161
1970 370
1970 2162
1971 371
1971 2163
1972 372
1972 2164
1973 373
1973 2165
1974 374
1974 2166
1975 375
1975 2167
1976 376
1976 2168
1977 377
1977 2169
1978 378
1978 2170
1979 379
1979 2171
1980 380
1980 2172
1981 381
1981 2173
1982 382
1982 2174
1983 383
1983 2175
1984 320
1984 2368
1985 321
1985 2369
1986 322
1986 2370
1987 323
1987 2371
1988 324
1988 2372
1989 325
1989 2373
1990 326
1990 2374
1991 327
1991 2375
1992 328
1992 2376
1993 329
1993 2377
1994 330
1994 2378
1995 331
1995 2379
1996 332
1996 2380
1997 333
1997 2381
1998 334
1998 2382
1999 335
1999 2383
2000 336
2000 2384
2001 337
2001 2385
2002 338
2002 2386
2003 339
2003 2387
2004 340
2004 2388
2005 341
2005 2389
2006 342
2006 2390
2007 343
2007 2391
2008 344
2008 2392
2009 345
2009 2393
2010 346
2010 2394
2011 347
2011 2395
2012 348
2012 2396
2013 349
2013 2397
2014 350
2014 2398
2015 351
2015 2399
2016 352
2016 2400
2017 353
2017 2401
2018 354
2018 2402
2019 355
2019 2403
2020 356
2020 2404
2021 357
2021 2405
2022 358
2022 2406
2023 359
2023 2407
2024 360
2024 2408
2025 361
2025 2409
2026 362
2026 2410
2027 363
2027 2411
2028 364
2028 2412
2029 365
2029 2413
2030 366
2030 2414
2031 367
2031 2415
2032 368
2032 2416
2033 369
2033 2417
2034 370
2034 2418
2035 371
2035 2419
2036 372
2036 2420
2037 373
2037 2421
2038 374
2038 2422
2039 375
2039 2423
2040 376
2040 2424
2041 377
2041 2425
2042 378
2042 2426
2043 379
2043 2427
2044 380
2044 2428
2045 381
2045 2429
2046 382
2046 2430
2047 383
2047 2431
2048 320
2048 2752
2049 321
2049 2753
2050 322
2050 2754
2051 323
2051 2755
2052 324
2052 2756
2053 325
2053 2757
2054 326
2054 2758
2055 327
2055 2759
2056 328
2056 2760
2057 329
2057 2761
2058 330
2058 2762
2059 331
2059 2763
2060 332
2060 2764
2061 333
2061 2765
2062 334
2062 2766
2063 335
2063 2767
2064 336
2064 2768
2065 337
2065 2769
2066 338
2066 2770
2067 339
2067 2771
2068 340
2068 2772
2069 341
2069 2773
2070 342
2070 2774
2071 343
2071 2775
2072 344
2072 2776
2073 345
2073 2777
2074 346
2074 2778
2075 347
2075 2779
2076 348
2076 2780
2077 349
2077 2781
2078 350
2078 2782
2079 351
2079 2783
2080 352
2080 2784
2081 353
2081 2785
2082 354
2082 2786
2083 355
2083 2787
2084 356
2084 2788
2085 357
2085 2789
2086 358
2086 2790
2087 359
2087 2791
2088 360
2088 2792
2089 361
2089 2793
2090 362
2090 2794
2091 363
2091 2795
2092 364
2092 2796
2093 365
2093 2797
2094 366
2094 2798
2095 367
2095 2799
2096 368
2096 2800
2097 369
2097 2801
2098 370
2098 2802
2099 371
2099 2803
2100 372
2100 2804
2101 373
2101 2805
2102 374
2102 2806
2103 375
2103 2807
2104 376
2104 2808
2105 377
2105 2809
2106 378
2106 2810
2107 379
2107 2811
2108 380
2108 2812
2109 381
2109 2813
2110 382
2110 2814
2111 383
2111 2815
2112 320
2112 3136
2113 321
2113 3137
2114 322
2114 3138
2115 323
2115 3139
2116 324
2116 3140
2117 325
2117 3141
2118 326
2118 3142
2119 327
2119 3143
2120 328
2120 3144
2121 329
2121 3145
2122 330
2122 3146
2123 331
2123 3147
2124 332
2124 3148
2125 333
2125 3149
2126 334
2126 3150
2127 335
2127 3151
2128 336
2128 3152
2129 337
2129 3153
2130 338
2130 3154
2131 339
2131 3155
2132 340
2132 3156
2133 341
2133 3157
2134 342
2134 3158
2135 343
2135 3159
2136 344
2136 3160
2137 345
2137 3161
2138 346
2138 3162
2139 347
2139 3163
2140 348
2140 3164
2141 349
2141 3165
2142 350
2142 3166
2143 351
2143 3167
2144 352
2144 3168
2145 353
2145 3169
2146 354
2146 3170
2147 355
2147 3171
2148 356
2148 3172
2149 357
2149 3173
2150 358
2150 3174
2151 359
2151 3175
2152 360
2152 3176
2153 361
2153 3177
2154 362
2154 3178
2155 363
2155 3179
2156 364
2156 3180
2157 365
2157 3181
2158 366
2158 3182
2159 367
2159 3183
2160 368
2160 3184
2161 369
2161 3185
2162 370
2162 3186
2163 371
2163 3187
2164 372
2164 3188
2165 373
2165 3189
2166 374
2166 3190
2167 375
2167 3191
2168 376
2168 3192
2169 377
2169 3193
2170 378
2170 3194
2171 379
2171 3195
2172 380
2172 3196
2173 381
2173 3197
2174 382
2174 3198
2175 383
2175 3199
2176 320
2176 3520
2177 321
2177 3521
2178 322
2178 3522
2179 323
2179 3523
2180 324
2180 3524
2181 325
2181 3525
2182 326
2182 3526
2183 327
2183 3527
2184 328
2184 3528
2185 329
2185 3529
2186 330
2186 3530
2187 331
2187 3531
2188 332
2188 3532
2189 333
2189 3533
2190 334
2190 3534
2191 335
2191 3535
2192 336
2192 3536
2193 337
2193 3537
2194 338
2194 3538
2195 339
2195 3539
2196 340
2196 3540
2197 341
2197 3541
2198 342
2198 3542
2199 343
2199 3543
2200 344
2200 3544
2201 345
2201 3545
2202 346
2202 3546
2203 347
2203 3547
2204 348
2204 3548
2205 349
2205 3549
2206 350
2206 3550
2207 351
2207 3551
2208 352
2208 3552
2209 353
2209 3553
2210 354
2210 3554
2211 355
2211 3555
2212 356
2212 3556
2213 357
2213 3557
2214 358
2214 3558
2215 359
2215 3559
2216 360
2216 3560
2217 361
2217 3561
2218 362
2218 3562
2219 363
2219 3563
2220 364
2220 3564
2221 365
2221 3565
2222 366
2222 3566
2223 367
2223 3567
2224 368
2224 3568
2225 369
2225 3569
2226 370
2226 3570
2227 371
2227 3571
2228 372
2228 3572
2229 373
2229 3573
2230 374
2230 3574
2231 375
2231 3575
2232 376
2232 3576
2233 377
2233 3577
2234 378
2234 3578
2235 379
2235 3579
2236 380
2236 3580
2237 381
2237 3581
2238 382
2238 3582
2239 383
2239 3583
2240 320
2240 3904
2241 321
2241 3905
2242 322
2242 3906
2243 323
2243 3907
2244 324
2244 3908
2245 325
2245 3909
2246 326
2246 3910
2247 327
2247 3911
2248 328
2248 3912
2249 329
2249 3913
2250 330
2250 3914
2251 331
2251 3915
2252 332
2252 3916
2253 333
2253 3917
2254 334
2254 3918
2255 335
2255 3919
2256 336
2256 3920
2257 337
2257 3921
2258 338
2258 3922
2259 339
2259 3923
2260 340
2260 3924
2261 341
2261 3925
2262 342
2262 3926
2263 343
2263 3927
2264 344
2264 3928
2265 345
2265 3929
2266 346
2266 3930
2267 347
2267 3931
2268 348
2268 3932
2269 349
2269 3933
2270 350
2270 3934
2271 351
2271 3935
2272 352
2272 3936
2273 353
2273 3937
2274 354
2274 3938
2275 355
2275 3939
2276 356
2276 3940
2277 357
2277 3941
2278 358
2278 3942
2279 359
2279 3943
2280 360
2280 3944
2281 361
2281 3945
2282 362
2282 3946
2283 363
2283 3947
2284 364
2284 3948
2285 365
2285 3949
2286 366
2286 3950
2287 367
2287 3951
2288 368
2288 3952
2289 369
2289 3953
2290 370
2290 3954
2291 371
2291 3955
2292 372
2292 3956
2293 373
2293 3957
2294 374
2294 3958
2295 375
2295 3959
2296 376
2296 3960
2297 377
2297 3961
2298 378
2298 3962
2299 379
2299 3963
2300 380
2300 3964
2301 381
2301 3965
2302 382
2302 3966
2303 383
2303 3967
2304 384
2304 1984
2305 385
2305 1985
2306 386
2306 1986
2307 387
2307 1987
2308 388
2308 1988
2309 389
2309 1989
2310 390
2310 1990
2311 391
2311 1991
2312 392
2312 1992
2313 393
2313 1993
2314 394
2314 1994
2315 395
2315 1995
2316 396
2316 1996
2317 397
2317 1997
2318 398
2318 1998
2319 399
2319 1999
2320 400
2320 2000
2321 401
2321 2001
2322 402
2322 2002
2323 403
2323 2003
2324 404
2324 2004
2325 405
2325 2005
2326 406
2326 2006
2327 407
2327 2007
2328 408
2328 2008
2329 409
2329 2009
2330 410
2330 2010
2331 411
2331 2011
2332 412
2332 2012
2333 413
2333 2013
2334 414
2334 2014
2335 415
2335 2015
2336 416
2336 2016
2337 417
2337 2017
2338 418
2338 2018
2339 419
2339 2019
2340 420
2340 2020
2341 421
2341 2021
2342 422
2342 2022
2343 423
2343 2023
2344 424
2344 2024
2345 425
2345 2025
2346 426
2346 2026
2347 427
2347 2027
2348 428
2348 2028
2349 429
2349 2029
2350 430
2350 2030
2351 431
2351 2031
2352 432
2352 2032
2353 433
2353 2033
2354 434
2354 2034
2355 435
2355 2035
2356 436
2356 2036
2357 437
2357 2037
2358 438
2358 2038
2359 439
2359 2039
2360 440
2360 2040
2361 441
2361 2041
2362 442
2362 2042
2363 443
2363 2043
2364 444
2364 2044
2365 445
2365 2045
2366 446
2366 2046
2367 447
2367 2047
2368 384
2368 2048
2369 385
2369 2049
2370 386
2370 2050
2371 387
2371 2051
2372 388
2372 2052
2373 389
2373 2053
2374 390
2374 2054
2375 391
2375 2055
2376 392
2376 2056
2377 393
2377 2057
2378 394
2378 2058
2379 395
2379 2059
2380 396
2380 2060
2381 397
2381 2061
2382 398
2382 2062
2383 399
2383 2063
2384 400
2384 2064
2385 401
2385 2065
2386 402
2386 2066
2387 403
2387 2067
2388 404
2388 2068
2389 405
2389 2069
2390 406
2390 2070
2391 407
2391 2071
2392 408
2392 2072
2393 409
2393 2073
2394 410
2394 2074
2395 411
2395 2075
2396 412
2396 2076
2397 413
2397 2077
2398 414
2398 2078
2399 415
2399 2079
2400 416
2400 2080
2401 417
2401 2081
2402 418
2402 2082
2403 419
2403 2083
2404 420
2404 2084
2405 421
2405 2085
2406 422
2406 2086
2407 423
2407 2087
2408 424
2408 2088
2409 425
2409 2089
2410 426
2410 2090
2411 427
2411 2091
2412 428
2412 2092
2413 429
2413 2093
2414 430
2414 2094
2415 431
2415 2095
2416 432
2416 2096
2417 433
2417 2097
2418 434
2418 2098
2419 435
2419 2099
2420 436
2420 2100
2421 437
2421 2101
2422 438
2422 2102
2423 439
2423 2103
2424 440
2424 2104
2425 441
2425 2105
2426 442
2426 2106
2427 443
2427 2107
2428 444
2428 2108
2429 445
2429 2109
2430 446
2430 2110
2431 447
2431 2111
2432 384
2432 2112
2433 385
2433 2113
2434 386
2434 2114
2435 387
2435 2115
2436 388
2436 2116
2437 389
2437 2117
2438 390
2438 2118
2439 391
2439 2119
2440 392
2440 2120
2441 393
2441 2121
2442 394
2442 2122
2443 395
2443 2123
2444 396
2444 2124
2445 397
2445 2125
2446 398
2446 2126
2447 399
2447 2127
2448 400
2448 2128
2449 401
2449 2129
2450 402
2450 2130
2451 403
2451 2131
2452 404
2452 2132
2453 405
2453 2133
2454 406
2454 2134
2455 407
2455 2135
2456 408
2456 2136
2457 409
2457 2137
2458 410
2458 2138
2459 411
2459 2139
2460 412
2460 2140
2461 413
2461 2141
2462 414
2462 2142
2463 415
2463 2143
2464 416
2464 2144
2465 417
2465 2145
2466 418
2466 2146
2467 419
2467 2147
2468 420
2468 2148
2469 421
2469 2149
2470 422
2470 2150
2471 423
2471 2151
2472 424
2472 2152
2473 425
2473 2153
2474 426
2474 2154
2475 427
2475 2155
2476 428
2476 2156
2477 429
2477 2157
2478 430
2478 2158
2479 431
2479 2159
2480 432
2480 2160
2481 433
2481 2161
2482 434
2482 2162
2483 435
2483 2163
2484 436
2484 2164
2485 437
2485 2165
2486 438
2486 2166
2487 439
2487 2167
2488 440
2488 2168
2489 441
2489 2169
2490 442
2490 2170
2491 443
2491 2171
2492 444
2492 2172
2493 445
2493 2173
2494 446
2494 2174
2495 447
2495 2175
2496 384
2496 2176
2497 385
2497 2177
2498 386
2498 2178
2499 387
2499 2179
2500 388
2500 2180
2501 389
2501 2181
2502 390
2502 2182
2503 391
2503 2183
2504 392
2504 2184
2505 393
2505 2185
2506 394
2506 2186
2507 395
2507 2187
2508 396
2508 2188
2509 397
2509 2189
2510 398
2510 2190
2511 399
2511 2191
2512 400
2512 2192
2513 401
2513 2193
2514 402
2514 2194
2515 403
2515 2195
2516 404
2516 2196
2517 405
2517 2197
2518 406
2518 2198
2519 407
2519 2199
2520 408
2520 2200
2521 409
2521 2201
2522 410
2522 2202
2523 411
2523 2203
2524 412
2524 2204
2525 413
2525 2205
2526 414
2526 2206
2527 415
2527 2207
2528 416
2528 2208
2529 417
2529 2209
2530 418
2530 2210
2531 419
2531 2211
2532 420
2532 2212
2533 421
2533 2213
2534 422
2534 2214
2535 423
2535 2215
2536 424
2536 2216
2537 425
2537 2217
2538 426
2538 2218
2539 427
2539 2219
2540 428
2540 2220
2541 429
2541 2221
2542 430
2542 2222
2543 431
2543 2223
2544 432
2544 2224
2545 433
2545 2225
2546 434
2546 2226
2547 435
2547 2227
2548 436
2548 2228
2549 437
2549 2229
2550 438
2550 2230
2551 439
2551 2231
2552 440
2552 2232
2553 441
2553 2233
2554 442
2554 2234
2555 443
2555 2235
2556 444
2556 2236
2557 445
2557 2237
2558 446
2558 2238
2559 447
2559 2239
2560 384
2560 2240
2561 385
2561 2241
2562 386
2562 2242
2563 387
2563 2243
2564 388
2564 2244
2565 389
2565 2245
2566 390
2566 2246
2567 391
2567 2247
2568 392
2568 2248
2569 393
2569 2249
2570 394
2570 2250
2571 395
2571 2251
2572 396
2572 2252
2573 397
2573 2253
2574 398
2574 2254
2575 399
2575 2255
2576 400
2576 2256
2577 401
2577 2257
2578 402
2578 2258
2579 403
2579 2259
2580 404
2580 2260
2581 405
2581 2261
2582 406
2582 2262
2583 407
2583 2263
2584 408
2584 2264
2585 409
2585 2265
2586 410
2586 2266
2587 411
2587 2267
2588 412
2588 2268
2589 413
2589 2269
2590 414
2590 2270
2591 415
2591 2271
2592 416
2592 2272
2593 417
2593 2273
2594 418
2594 2274
2595 419
2595 2275
2596 420
2596 2276
2597 421
2597 2277
2598 422
2598 2278
2599 423
2599 2279
2600 424
2600 2280
2601 425
2601 2281
2602 426
2602 2282
2603 427
2603 2283
2604 428
2604 2284
2605 429
2605 2285
2606 430
2606 2286
2607 431
2607 2287
2608 432
2608 2288
2609 433
2609 2289
2610 434
2610 2290
2611 435
2611 2291
2612 436
2612 2292
2613 437
2613 2293
2614 438
2614 2294
2615 439
2615 2295
2616 440
2616 2296
2617 441
2617 2297
2618 442
2618 2298
2619 443
2619 2299
2620 444
2620 2300
2621 445
2621 2301
2622 446
2622 2302
2623 447
2623 2303
2624 384
2624 2304
2625 385
2625 2305
2626 386
2626 2306
2627 387
2627 2307
2628 388
2628 2308
2629 389
2629 2309
2630 390
2630 2310
2631 391
2631 2311
2632 392
2632 2312
2633 393
2633 2313
2634 394
2634 2314
2635 395
2635 2315
2636 396
2636 2316
2637 397
2637 2317
2638 398
2638 2318
2639 399
2639 2319
2640 400
2640 2320
2641 401
2641 2321
2642 402
2642 2322
2643 403
2643 2323
2644 404
2644 2324
2645 405
2645 2325
2646 406
2646 2326
2647 407
2647 2327
2648 408
2648 2328
2649 409
2649 2329
2650 410
2650 2330
2651 411
2651 2331
2652 412
2652 2332
2653 413
2653 2333
2654 414
2654 2334
2655 415
2655 2335
2656 416
2656 2336
2657 417
2657 2337
2658 418
2658 2338
2659 419
2659 2339
2660 420
2660 2340
2661 421
2661 2341
2662 422
2662 2342
2663 423
2663 2343
2664 424
2664 2344
2665 425
2665 2345
2666 426
2666 2346
2667 427
2667 2347
2668 428
2668 2348
2669 429
2669 2349
2670 430
2670 2350
2671 431
2671 2351
2672 432
2672 2352
2673 433
2673 2353
2674 434
2674 2354
2675 435
2675 2355
2676 436
2676 2356
2677 437
2677 2357
2678 438
2678 2358
2679 439
2679 2359
2680 440
2680 2360
2681 441
2681 2361
2682 442
2682 2362
2683 443
2683 2363
2684 444
2684 2364
2685 445
2685 2365
2686 446
2686 2366
2687 447
2687 2367
2688 448
2688 2048
2689 449
2689 2049
2690 450
2690 2050
2691 451
2691 2051
2692 452
2692 2052
2693 453
2693 2053
2694 454
2694 2054
2695 455
2695 2055
2696 456
2696 2056
2697 457
2697 2057
2698 458
2698 2058
2699 459
2699 2059
2700 460
2700 2060
2701 461
2701 2061
2702 462
2702 2062
2703 463
2703 2063
2704 464
2704 2064
2705 465
2705 2065
2706 466
2706 2066
2707 467
2707 2067
2708 468
2708 2068
2709 469
2709 2069
2710 470
2710 2070
2711 471
2711 2071
2712 472
2712 2072
2713 473
2713 2073
2714 474
2714 2074
2715 475
2715 2075
2716 476
2716 2076
2717 477
2717 2077
2718 478
2718 2078
2719 479
2719 2079
2720 480
2720 2080
2721 481
2721 2081
2722 482
2722 2082
2723 483
2723 2083
2724 484
2724 2084
2725 485
2725 2085
2726 486
2726 2086
2727 487
2727 2087
2728 488
2728 2088
2729 489
2729 2089
2730 490
2730 2090
2731 491
2731 2091
2732 492
2732 2092
2733 493
2733 2093
2734 494
2734 2094
2735 495
2735 2095
2736 496
2736 2096
2737 497
2737 2097
2738 498
2738 2098
2739 499
2739 2099
2740 500
2740 2100
2741 501
2741 2101
2742 502
2742 2102
2743 503
2743 2103
2744 504
2744 2104
2745 505
2745 2105
2746 506
2746 2106
2747 507
2747 2107
2748 508
2748 2108
2749 509
2749 2109
2750 510
2750 2110
2751 511
2751 2111
2752 448
2752 2624
2753 449
2753 2625
2754 450
2754 2626
2755 451
2755 2627
2756 452
2756 2628
2757 453
2757 2629
2758 454
2758 2630
2759 455
2759 2631
2760 456
2760 2632
2761 457
2761 2633
2762 458
2762 2634
2763 459
2763 2635
2764 460
2764 2636
2765 461
2765 2637
2766 462
2766 2638
2767 463
2767 2639
2768 464
2768 2640
2769 465
2769 2641
2770 466
2770 2642
2771 467
2771 2643
2772 468
2772 2644
2773 469
2773 2645
2774 470
2774 2646
2775 471
2775 2647
2776 472
2776 2648
2777 473
2777 2649
2778 474
2778 2650
2779 475
2779 2651
2780 476
2780 2652
2781 477
2781 2653
2782 478
2782 2654
2783 479
2783 2655
2784 480
2784 2656
2785 481
2785 2657
2786 482
2786 2658
2787 483
2787 2659
2788 484
2788 2660
2789 485
2789 2661
2790 486
2790 2662
2791 487
2791 2663
2792 488
2792 2664
2793 489
2793 2665
2794 490
2794 2666
2795 491
2795 2667
2796 492
2796 2668
2797 493
2797 2669
2798 494
2798 2670
2799 495
2799 2671
2800 496
2800 2672
2801 497
2801 2673
2802 498
2802 2674
2803 499
2803 2675
2804 500
2804 2676
2805 501
2805 2677
2806 502
2806 2678
2807 503
2807 2679
2808 504
2808 2680
2809 505
2809 2681
2810 506
2810 2682
2811 507
2811 2683
2812 508
2812 2684
2813 509
2813 2685
2814 510
2814 2686
2815 511
2815 2687
2816 448
2816 2944
2817 449
2817 2945
2818 450
2818 2946
2819 451
2819 2947
2820 452
2820 2948
2821 453
2821 2949
2822 454
2822 2950
2823 455
2823 2951
2824 456
2824 2952
2825 457
2825 2953
2826 458
2826 2954
2827 459
2827 2955
2828 460
2828 2956
2829 461
2829 2957
2830 462
2830 2958
2831 463
2831 2959
2832 464
2832 2960
2833 465
2833 2961
2834 466
2834 2962
2835 467
2835 2963
2836 468
2836 2964
2837 469
2837 2965
2838 470
2838 2966
2839 471
2839 2967
2840 472
2840 2968
2841 473
2841 2969
2842 474
2842 2970
2843 475
2843 2971
2844 476
2844 2972
2845 477
2845 2973
2846 478
2846 2974
2847 479
2847 2975
2848 480
2848 2976
2849 481
2849 2977
2850 482
2850 2978
2851 483
2851 2979
2852 484
2852 2980
2853 485
2853 2981
2854 486
2854 2982
2855 487
2855 2983
2856 488
2856 2984
2857 489
2857 2985
2858 490
2858 2986
2859 491
2859 2987
2860 492
2860 2988
2861 493
2861 2989
2862 494
2862 2990
2863 495
2863 2991
2864 496
2864 2992
2865 497
2865 2993
2866 498
2866 2994
2867 499
2867 2995
2868 500
2868 2996
2869 501
2869 2997
2870 502
2870 2998
2871 503
2871 2999
2872 504
2872 3000
2873 505
2873 3001
2874 506
2874 3002
2875 507
2875 3003
2876 508
2876 3004
2877 509
2877 3005
2878 510
2878 3006
2879 511
2879 3007
2880 448
2880 3264
2881 449
2881 3265
2882 450
2882 3266
2883 451
2883 3267
2884 452
2884 3268
2885 453
2885 3269
2886 454
2886 3270
2887 455
2887 3271
2888 456
2888 3272
2889 457
2889 3273
2890 458
2890 3274
2891 459
2891 3275
2892 460
2892 3276
2893 461
2893 3277
2894 462
2894 3278
2895 463
2895 3279
2896 464
2896 3280
2897 465
2897 3281
2898 466
2898 3282
2899 467
2899 3283
2900 468
2900 3284
2901 469
2901 3285
2902 470
2902 3286
2903 471
2903 3287
2904 472
2904 3288
2905 473
2905 3289
2906 474
2906 3290
2907 475
2907 3291
2908 476
2908 3292
2909 477
2909 3293
2910 478
2910 3294
2911 479
2911 3295
2912 480
2912 3296
2913 481
2913 3297
2914 482
2914 3298
2915 483
2915 3299
2916 484
2916 3300
2917 485
2917 3301
2918 486
2918 3302
2919 487
2919 3303
2920 488
2920 3304
2921 489
2921 3305
2922 490
2922 3306
2923 491
2923 3307
2924 492
2924 3308
2925 493
2925 3309
2926 494
2926 3310
2927 495
2927 3311
2928 496
2928 3312
2929 497
2929 3313
2930 498
2930 3314
2931 499
2931 3315
2932 500
2932 3316
2933 501
2933 3317
2934 502
2934 3318
2935 503
2935 3319
2936 504
2936 3320
2937 505
2937 3321
2938 506
2938 3322
2939 507
2939 3323
2940 508
2940 3324
2941 509
2941 3325
2942 510
2942 3326
2943 511
2943 3327
2944 448
2944 3584
2945 449
2945 3585
2946 450
2946 3586
2947 451
2947 3587
2948 452
2948 3588
2949 453
2949 3589
2950 454
2950 3590
2951 455
2951 3591
2952 456
2952 3592
2953 457
2953 3593
2954 458
2954 3594
2955 459
2955 3595
2956 460
2956 3596
2957 461
2957 3597
2958 462
2958 3598
2959 463
2959 3599
2960 464
2960 3600
2961 465
2961 3601
2962 466
2962 3602
2963 467
2963 3603
2964 468
2964 3604
2965 469
2965 3605
2966 470
2966 3606
2967 471
2967 3607
2968 472
2968 3608
2969 473
2969 3609
2970 474
2970 3610
2971 475
2971 3611
2972 476
2972 3612
2973 477
2973 3613
2974 478
2974 3614
2975 479
2975 3615
2976 480
2976 3616
2977 481
2977 3617
2978 482
2978 3618
2979 483
2979 3619
2980 484
2980 3620
2981 485
2981 3621
2982 486
2982 3622
2983 487
2983 3623
2984 488
2984 3624
2985 489
2985 3625
2986 490
2986 3626
2987 491
2987 3627
2988 492
2988 3628
2989 493
2989 3629
2990 494
2990 3630
2991 495
2991 3631
2992 496
2992 3632
2993 497
2993 3633
2994 498
2994 3634
2995 499
2995 3635
2996 500
2996 3636
2997 501
2997 3637
2998 502
2998 3638
2999 503
2999 3639
3000 504
3000 3640
3001 505
3001 3641
3002 506
3002 3642
3003 507
3003 3643
3004 508
3004 3644
3005 509
3005 3645
3006 510
3006 3646
3007 511
3007 3647
3008 448
3008 3904
3009 449
3009 3905
3010 450
3010 3906
3011 451
3011 3907
3012 452
3012 3908
3013 453
3013 3909
3014 454
3014 3910
3015 455
3015 3911
3016 456
3016 3912
3017 457
3017 3913
3018 458
3018 3914
3019 459
3019 3915
3020 460
3020 3916
3021 461
3021 3917
3022 462
3022 3918
3023 463
3023 3919
3024 464
3024 3920
3025 465
3025 3921
3026 466
3026 3922
3027 467
3027 3923
3028 468
3028 3924
3029 469
3029 3925
3030 470
3030 3926
3031 471
3031 3927
3032 472
3032 3928
3033 473
3033 3929
3034 474
3034 3930
3035 475
3035 3931
3036 476
3036 3932
3037 477
3037 3933
3038 478
3038 3934
3039 479
3039 3935
3040 480
3040 3936
3041 481
3041 3937
3042 482
3042 3938
3043 483
3043 3939
3044 484
3044 3940
3045 485
3045 3941
3046 486
3046 3942
3047 487
3047 3943
3048 488
3048 3944
3049 489
3049 3945
3050 490
3050 3946
3051 491
3051 3947
3052 492
3052 3948
3053 493
3053 3949
3054 494
3054 3950
3055 495
3055 3951
3056 496
3056 3952
3057 497
3057 3953
3058 498
3058 3954
3059 499
3059 3955
3060 500
3060 3956
3061 501
3061 3957
3062 502
3062 3958
3063 503
3063 3959
3064 504
3064 3960
3065 505
3065 3961
3066 506
3066 3962
3067 507
3067 3963
3068 508
3068 3964
3069 509
3069 3965
3070 510
3070 3966
3071 511
3071 3967
3072 512
3072 2048
3073 513
3073 2049
3074 514
3074 2050
3075 515
3075 2051
3076 516
3076 2052
3077 517
3077 2053
3078 518
3078 2054
3079 519
3079 2055
3080 520
3080 2056
3081 521
3081 2057
3082 522
3082 2058
3083 523
3083 2059
3084 524
3084 2060
3085 525
3085 2061
3086 526
3086 2062
3087 527
3087 2063
3088 528
3088 2064
3089 529
3089 2065
3090 530
3090 2066
3091 531
3091 2067
3092 532
3092 2068
3093 533
3093 2069
3094 534
3094 2070
3095 535
3095 2071
3096 536
3096 2072
3097 537
3097 2073
3098 538
3098 2074
3099 539
3099 2075
3100 540
3100 2076
3101 541
3101 2077
3102 542
3102 2078
3103 543
3103 2079
3104 544
3104 2080
3105 545
3105 2081
3106 546
3106 2082
3107 547
3107 2083
3108 548
3108 2084
3109 549
3109 2085
3110 550
3110 2086
3111 551
3111 2087
3112 552
3112 2088
3113 553
3113 2089
3114 554
3114 2090
3115 555
3115 2091
3116 556
3116 2092
3117 557
3117 2093
3118 558
3118 2094
3119 559
3119 2095
3120 560
3120 2096
3121 561
3121 2097
3122 562
3122 2098
3123 563
3123 2099
3124 564
3124 2100
3125 565
3125 2101
3126 566
3126 2102
3127 567
3127 2103
3128 568
3128 2104
3129 569
3129 2105
3130 570
3130 2106
3131 571
3131 2107
3132 572
3132 2108
3133 573
3133 2109
3134 574
3134 2110
3135 575
3135 2111
3136 512
3136 2496
3137 513
3137 2497
3138 514
3138 2498
3139 515
3139 2499
3140 516
3140 2500
3141 517
3141 2501
3142 518
3142 2502
3143 519
3143 2503
3144 520
3144 2504
3145 521
3145 2505
3146 522
3146 2506
3147 523
3147 2507
3148 524
3148 2508
3149 525
3149 2509
3150 526
3150 2510
3151 527
3151 2511
3152 528
3152 2512
3153 529
3153 2513
3154 530
3154 2514
3155 531
3155 2515
3156 532
3156 2516
3157 533
3157 2517
3158 534
3158 2518
3159 535
3159 2519
3160 536
3160 2520
3161 537
3161 2521
3162 538
3162 2522
3163 539
3163 2523
3164 540
3164 2524
3165 541
3165 2525
3166 542
3166 2526
3167 543
3167 2527
3168 544
3168 2528
3169 545
3169 2529
3170 546
3170 2530
3171 547
3171 2531
3172 548
3172 2532
3173 549
3173 2533
3174 550
3174 2534
3175 551
3175 2535
3176 552
3176 2536
3177 553
3177 2537
3178 554
3178 2538
3179 555
3179 2539
3180 556
3180 2540
3181 557
3181 2541
3182 558
3182 2542
3183 559
3183 2543
3184 560
3184 2544
3185 561
3185 2545
3186 562
3186 2546
3187 563
3187 2547
3188 564
3188 2548
3189 565
3189 2549
3190 566
3190 2550
3191 567
3191 2551
3192 568
3192 2552
3193 569
3193 2553
3194 570
3194 2554
3195 571
3195 2555
3196 572
3196 2556
3197 573
3197 2557
3198 574
3198 2558
3199 575
3199 2559
3200 512
3200 2816
3201 513
3201 2817
3202 514
3202 2818
3203 515
3203 2819
3204 516
3204 2820
3205 517
3205 2821
3206 518
3206 2822
3207 519
3207 2823
3208 520
3208 2824
3209 521
3209 2825
3210 522
3210 2826
3211 523
3211 2827
3212 524
3212 2828
3213 525
3213 2829
3214 526
3214 2830
3215 527
3215 2831
3216 528
3216 2832
3217 529
3217 2833
3218 530
3218 2834
3219 531
3219 2835
3220 532
3220 2836
3221 533
3221 2837
3222 534
3222 2838
3223 535
3223 2839
3224 536
3224 2840
3225 537
3225 2841
3226 538
3226 2842
3227 539
3227 2843
3228 540
3228 2844
3229 541
3229 2845
3230 542
3230 2846
3231 543
3231 2847
3232 544
3232 2848
3233 545
3233 2849
3234 546
3234 2850
3235 547
3235 2851
3236 548
3236 2852
3237 549
3237 2853
3238 550
3238 2854
3239 551
3239 2855
3240 552
3240 2856
3241 553
3241 2857
3242 554
3242 2858
3243 555
3243 2859
3244 556
3244 2860
3245 557
3245 2861
3246 558
3246 2862
3247 559
3247 2863
3248 560
3248 2864
3249 561
3249 2865
3250 562
3250 2866
3251 563
3251 2867
3252 564
3252 2868
3253 565
3253 2869
3254 566
3254 2870
3255 567
3255 2871
3256 568
3256 2872
3257 569
3257 2873
3258 570
3258 2874
3259 571
3259 2875
3260 572
3260 2876
3261 573
3261 2877
3262 574
3262 2878
3263 575
3263 2879
3264 512
3264 3136
3265 513
3265 3137
3266 514
3266 3138
3267 515
3267 3139
3268 516
3268 3140
3269 517
3269 3141
3270 518
3270 3142
3271 519
3271 3143
3272 520
3272 3144
3273 521
3273 3145
3274 522
3274 3146
3275 523
3275 3147
3276 524
3276 3148
3277 525
3277 3149
3278 526
3278 3150
3279 527
3279 3151
3280 528
3280 3152
3281 529
3281 3153
3282 530
3282 3154
3283 531
3283 3155
3284 532
3284 3156
3285 533
3285 3157
3286 534
3286 3158
3287 535
3287 3159
3288 536
3288 3160
3289 537
3289 3161
3290 538
3290 3162
3291 539
3291 3163
3292 540
3292 3164
3293 541
3293 3165
3294 542
3294 3166
3295 543
3295 3167
3296 544
3296 3168
3297 545
3297 3169
3298 546
3298 3170
3299 547
3299 3171
3300 548
3300 3172
3301 549
3301 3173
3302 550
3302 3174
3303 551
3303 3175
3304 552
3304 3176
3305 553
3305 3177
3306 554
3306 3178
3307 555
3307 3179
3308 556
3308 3180
3309 557
3309 3181
3310 558
3310 3182
3311 559
3311 3183
3312 560
3312 3184
3313 561
3313 3185
3314 562
3314 3186
3315 563
3315 3187
3316 564
3316 3188
3317 565
3317 3189
3318 566
3318 3190
3319 567
3319 3191
3320 568
3320 3192
3321 569
3321 3193
3322 570
3322 3194
3323 571
3323 3195
3324 572
3324 3196
3325 573
3325 3197
3326 574
3326 3198
3327 575
3327 3199
3328 512
3328 3456
3329 513
3329 3457
3330 514
3330 3458
3331 515
3331 3459
3332 516
3332 3460
3333 517
3333 3461
3334 518
3334 3462
3335 519
3335 3463
3336 520
3336 3464
3337 521
3337 3465
3338 522
3338 3466
3339 523
3339 3467
3340 524
3340 3468
3341 525
3341 3469
3342 526
3342 3470
3343 527
3343 3471
3344 528
3344 3472
3345 529
3345 3473
3346 530
3346 3474
3347 531
3347 3475
3348 532
3348 3476
3349 533
3349 3477
3350 534
3350 3478
3351 535
3351 3479
3352 536
3352 3480
3353 537
3353 3481
3354 538
3354 3482
3355 539
3355 3483
3356 540
3356 3484
3357 541
3357 3485
3358 542
3358 3486
3359 543
3359 3487
3360 544
3360 3488
3361 545
3361 3489
3362 546
3362 3490
3363 547
3363 3491
3364 548
3364 3492
3365 549
3365 3493
3366 550
3366 3494
3367 551
3367 3495
3368 552
3368 3496
3369 553
3369 3497
3370 554
3370 3498
3371 555
3371 3499
3372 556
3372 3500
3373 557
3373 3501
3374 558
3374 3502
3375 559
3375 3503
3376 560
3376 3504
3377 561
3377 3505
3378 562
3378 3506
3379 563
3379 3507
3380 564
3380 3508
3381 565
3381 3509
3382 566
3382 3510
3383 567
3383 3511
3384 568
3384 3512
3385 569
3385 3513
3386 570
3386 3514
3387 571
3387 3515
3388 572
3388 3516
3389 573
3389 3517
3390 574
3390 3518
3391 575
3391 3519
3392 512
3392 3776
3393 513
3393 3777
3394 514
3394 3778
3395 515
3395 3779
3396 516
3396 3780
3397 517
3397 3781
3398 518
3398 3782
3399 519
3399 3783
3400 520
3400 3784
3401 521
3401 3785
3402 522
3402 3786
3403 523
3403 3787
3404 524
3404 3788
3405 525
3405 3789
3406 526
3406 3790
3407 527
3407 3791
3408 528
3408 3792
3409 529
3409 3793
3410 530
3410 3794
3411 531
3411 3795
3412 532
3412 3796
3413 533
3413 3797
3414 534
3414 3798
3415 535
3415 3799
3416 536
3416 3800
3417 537
3417 3801
3418 538
3418 3802
3419 539
3419 3803
3420 540
3420 3804
3421 541
3421 3805
3422 542
3422 3806
3423 543
3423 3807
3424 544
3424 3808
3425 545
3425 3809
3426 546
3426 3810
3427 547
3427 3811
3428 548
3428 3812
3429 549
3429 3813
3430 550
3430 3814
3431 551
3431 3815
3432 552
3432 3816
3433 553
3433 3817
3434 554
3434 3818
3435 555
3435 3819
3436 556
3436 3820
3437 557
3437 3821
3438 558
3438 3822
3439 559
3439 3823
3440 560
3440 3824
3441 561
3441 3825
3442 562
3442 3826
3443 563
3443 3827
3444 564
3444 3828
3445 565
3445 3829
3446 566
3446 3830
3447 567
3447 3831
3448 568
3448 3832
3449 569
3449 3833
3450 570
3450 3834
3451 571
3451 3835
3452 572
3452 3836
3453 573
3453 3837
3454 574
3454 3838
3455 575
3455 3839
3456 576
3456 2048
3457 577
3457 2049
3458 578
3458 2050
3459 579
3459 2051
3460 580
3460 2052
3461 581
3461 2053
3462 582
3462 2054
3463 583
3463 2055
3464 584
3464 2056
3465 585
3465 2057
3466 586
3466 2058
3467 587
3467 2059
3468 588
3468 2060
3469 589
3469 2061
3470 590
3470 2062
3471 591
3471 2063
3472 592
3472 2064
3473 593
3473 2065
3474 594
3474 2066
3475 595
3475 2067
3476 596
3476 2068
3477 597
3477 2069
3478 598
3478 2070
3479 599
3479 2071
3480 600
3480 2072
3481 601
3481 2073
3482 602
3482 2074
3483 603
3483 2075
3484 604
3484 2076
3485 605
3485 2077
3486 606
3486 2078
3487 607
3487 2079
3488 608
3488 2080
3489 609
3489 2081
3490 610
3490 2082
3491 611
3491 2083
3492 612
3492 2084
3493 613
3493 2085
3494 614
3494 2086
3495 615
3495 2087
3496 616
3496 2088
3497 617
3497 2089
3498 618
3498 2090
3499 619
3499 2091
3500 620
3500 2092
3501 621
3501 2093
3502 622
3502 2094
3503 623
3503 2095
3504 624
3504 2096
3505 625
3505 2097
3506 626
3506 2098
3507 627
3507 2099
3508 628
3508 2100
3509 629
3509 2101
3510 630
3510 2102
3511 631
3511 2103
3512 632
3512 2104
3513 633
3513 2105
3514 634
3514 2106
3515 635
3515 2107
3516 636
3516 2108
3517 637
3517 2109
3518 638
3518 2110
3519 639
3519 2111
3520 576
3520 2560
3521 577
3521 2561
3522 578
3522 2562
3523 579
3523 2563
3524 580
3524 2564
3525 581
3525 2565
3526 582
3526 2566
3527 583
3527 2567
3528 584
3528 2568
3529 585
3529 2569
3530 586
3530 2570
3531 587
3531 2571
3532 588
3532 2572
3533 589
3533 2573
3534 590
3534 2574
3535 591
3535 2575
3536 592
3536 2576
3537 593
3537 2577
3538 594
3538 2578
3539 595
3539 2579
3540 596
3540 2580
3541 597
3541 2581
3542 598
3542 2582
3543 599
3543 2583
3544 600
3544 2584
3545 601
3545 2585
3546 602
3546 2586
3547 603
3547 2587
3548 604
3548 2588
3549 605
3549 2589
3550 606
3550 2590
3551 607
3551 2591
3552 608
3552 2592
3553 609
3553 2593
3554 610
3554 2594
3555 611
3555 2595
3556 612
3556 2596
3557 613
3557 2597
3558 614
3558 2598
3559 615
3559 2599
3560 616
3560 2600
3561 617
3561 2601
3562 618
3562 2602
3563 619
3563 2603
3564 620
3564 2604
3565 621
3565 2605
3566 622
3566 2606
3567 623
3567 2607
3568 624
3568 2608
3569 625
3569 2609
3570 626
3570 2610
3571 627
3571 2611
3572 628
3572 2612
3573 629
3573 2613
3574 630
3574 2614
3575 631
3575 2615
3576 632
3576 2616
3577 633
3577 2617
3578 634
3578 2618
3579 635
3579 2619
3580 636
3580 2620
3581 637
3581 2621
3582 638
3582 2622
3583 639
3583 2623
3584 576
3584 2880
3585 577
3585 2881
3586 578
3586 2882
3587 579
3587 2883
3588 580
3588 2884
3589 581
3589 2885
3590 582
3590 2886
3591 583
3591 2887
3592 584
3592 2888
3593 585
3593 2889
3594 586
3594 2890
3595 587
3595 2891
3596 588
3596 2892
3597 589
3597 2893
3598 590
3598 2894
3599 591
3599 2895
3600 592
3600 2896
3601 593
3601 2897
3602 594
3602 2898
3603 595
3603 2899
3604 596
3604 2900
3605 597
3605 2901
3606 598
3606 2902
3607 599
3607 2903
3608 600
3608 2904
3609 601
3609 2905
3610 602
3610 2906
3611 603
3611 2907
3612 604
3612 2908
3613 605
3613 2909
3614 606
3614 2910
3615 607
3615 2911
3616 608
3616 2912
3617 609
3617 2913
3618 610
3618 2914
3619 611
3619 2915
3620 612
3620 2916
3621 613
3621 2917
3622 614
3622 2918
3623 615
3623 2919
3624 616
3624 2920
3625 617
3625 2921
3626 618
3626 2922
3627 619
3627 2923
3628 620
3628 2924
3629 621
3629 2925
3630 622
3630 2926
3631 623
3631 2927
3632 624
3632 2928
3633 625
3633 2929
3634 626
3634 2930
3635 627
3635 2931
3636 628
3636 2932
3637 629
3637 2933
3638 630
3638 2934
3639 631
3639 2935
3640 632
3640 2936
3641 633
3641 2937
3642 634
3642 2938
3643 635
3643 2939
3644 636
3644 2940
3645 637
3645 2941
3646 638
3646 2942
3647 639
3647 2943
3648 576
3648 3200
3649 577
3649 3201
3650 578
3650 3202
3651 579
3651 3203
3652 580
3652 3204
3653 581
3653 3205
3654 582
3654 3206
3655 583
3655 3207
3656 584
3656 3208
3657 585
3657 3209
3658 586
3658 3210
3659 587
3659 3211
3660 588
3660 3212
3661 589
3661 3213
3662 590
3662 3214
3663 591
3663 3215
3664 592
3664 3216
3665 593
3665 3217
3666 594
3666 3218
3667 595
3667 3219
3668 596
3668 3220
3669 597
3669 3221
3670 598
3670 3222
3671 599
3671 3223
3672 600
3672 3224
3673 601
3673 3225
3674 602
3674 3226
3675 603
3675 3227
3676 604
3676 3228
3677 605
3677 3229
3678 606
3678 3230
3679 607
3679 3231
3680 608
3680 3232
3681 609
3681 3233
3682 610
3682 3234
3683 611
3683 3235
3684 612
3684 3236
3685 613
3685 3237
3686 614
3686 3238
3687 615
3687 3239
3688 616
3688 3240
3689 617
3689 3241
3690 618
3690 3242
3691 619
3691 3243
3692 620
3692 3244
3693 621
3693 3245
3694 622
3694 3246
3695 623
3695 3247
3696 624
3696 3248
3697 625
3697 3249
3698 626
3698 3250
3699 627
3699 3251
3700 628
3700 3252
3701 629
3701 3253
3702 630
3702 3254
3703 631
3703 3255
3704 632
3704 3256
3705 633
3705 3257
3706 634
3706 3258
3707 635
3707 3259
3708 636
3708 3260
3709 637
3709 3261
3710 638
3710 3262
3711 639
3711 3263
3712 576
3712 3520
3713 577
3713 3521
3714 578
3714 3522
3715 579
3715 3523
3716 580
3716 3524
3717 581
3717 3525
3718 582
3718 3526
3719 583
3719 3527
3720 584
3720 3528
3721 585
3721 3529
3722 586
3722 3530
3723 587
3723 3531
3724 588
3724 3532
3725 589
3725 3533
3726 590
3726 3534
3727 591
3727 3535
3728 592
3728 3536
3729 593
3729 3537
3730 594
3730 3538
3731 595
3731 3539
3732 596
3732 3540
3733 597
3733 3541
3734 598
3734 3542
3735 599
3735 3543
3736 600
3736 3544
3737 601
3737 3545
3738 602
3738 3546
3739 603
3739 3547
3740 604
3740 3548
3741 605
3741 3549
3742 606
3742 3550
3743 607
3743 3551
3744 608
3744 3552
3745 609
3745 3553
3746 610
3746 3554
3747 611
3747 3555
3748 612
3748 3556
3749 613
3749 3557
3750 614
3750 3558
3751 615
3751 3559
3752 616
3752 3560
3753 617
3753 3561
3754 618
3754 3562
3755 619
3755 3563
3756 620
3756 3564
3757 621
3757 3565
3758 622
3758 3566
3759 623
3759 3567
3760 624
3760 3568
3761 625
3761 3569
3762 626
3762 3570
3763 627
3763 3571
3764 628
3764 3572
3765 629
3765 3573
3766 630
3766 3574
3767 631
3767 3575
3768 632
3768 3576
3769 633
3769 3577
3770 634
3770 3578
3771 635
3771 3579
3772 636
3772 3580
3773 637
3773 3581
3774 638
3774 3582
3775 639
3775 3583
3776 576
3776 3840
3777 577
3777 3841
3778 578
3778 3842
3779 579
3779 3843
3780 580
3780 3844
3781 581
3781 3845
3782 582
3782 3846
3783 583
3783 3847
3784 584
3784 3848
3785 585
3785 3849
3786 586
3786 3850
3787 587
3787 3851
3788 588
3788 3852
3789 589
3789 3853
3790 590
3790 3854
3791 591
3791 3855
3792 592
3792 3856
3793 593
3793 3857
3794 594
3794 3858
3795 595
3795 3859
3796 596
3796 3860
3797 597
3797 3861
3798 598
3798 3862
3799 599
3799 3863
3800 600
3800 3864
3801 601
3801 3865
3802 602
3802 3866
3803 603
3803 3867
3804 604
3804 3868
3805 605
3805 3869
3806 606
3806 3870
3807 607
3807 3871
3808 608
3808 3872
3809 609
3809 3873
3810 610
3810 3874
3811 611
3811 3875
3812 612
3812 3876
3813 613
3813 3877
3814 614
3814 3878
3815 615
3815 3879
3816 616
3816 3880
3817 617
3817 3881
3818 618
3818 3882
3819 619
3819 3883
3820 620
3820 3884
3821 621
3821 3885
3822 622
3822 3886
3823 623
3823 3887
3824 624
3824 3888
3825 625
3825 3889
3826 626
3826 3890
3827 627
3827 3891
3828 628
3828 3892
3829 629
3829 3893
3830 630
3830 3894
3831 631
3831 3895
3832 632
3832 3896
3833 633
3833 3897
3834 634
3834 3898
3835 635
3835 3899
3836 636
3836 3900
3837 637
3837 3901
3838 638
3838 3902
3839 639
3839 3903
3840 640
3840 2048
3841 641
3841 2049
3842 642
3842 2050
3843 643
3843 2051
3844 644
3844 2052
3845 645
3845 2053
3846 646
3846 2054
3847 647
3847 2055
3848 648
3848 2056
3849 649
3849 2057
3850 650
3850 2058
3851 651
3851 2059
3852 652
3852 2060
3853 653
3853 2061
3854 654
3854 2062
3855 655
3855 2063
3856 656
3856 2064
3857 657
3857 2065
3858 658
3858 2066
3859 659
3859 2067
3860 660
3860 2068
3861 661
3861 2069
3862 662
3862 2070
3863 663
3863 2071
3864 664
3864 2072
3865 665
3865 2073
3866 666
3866 2074
3867 667
3867 2075
3868 668
3868 2076
3869 669
3869 2077
3870 670
3870 2078
3871 671
3871 2079
3872 672
3872 2080
3873 673
3873 2081
3874 674
3874 2082
3875 675
3875 2083
3876 676
3876 2084
3877 677
3877 2085
3878 678
3878 2086
3879 679
3879 2087
3880 680
3880 2088
3881 681
3881 2089
3882 682
3882 2090
3883 683
3883 2091
3884 684
3884 2092
3885 685
3885 2093
3886 686
3886 2094
3887 687
3887 2095
3888 688
3888 2096
3889 689
3889 2097
3890 690
3890 2098
3891 691
3891 2099
3892 692
3892 2100
3893 693
3893 2101
3894 694
3894 2102
3895 695
3895 2103
3896 696
3896 2104
3897 697
3897 2105
3898 698
3898 2106
3899 699
3899 2107
3900 700
3900 2108
3901 701
3901 2109
3902 702
3902 2110
3903 703
3903 2111
3904 640
3904 2432
3905 641
3905 2433
3906 642
3906 2434
3907 643
3907 2435
3908 644
3908 2436
3909 645
3909 2437
3910 646
3910 2438
3911 647
3911 2439
3912 648
3912 2440
3913 649
3913 2441
3914 650
3914 2442
3915 651
3915 2443
3916 652
3916 2444
3917 653
3917 2445
3918 654
3918 2446
3919 655
3919 2447
3920 656
3920 2448
3921 657
3921 2449
3922 658
3922 2450
3923 659
3923 2451
3924 660
3924 2452
3925 661
3925 2453
3926 662
3926 2454
3927 663
3927 2455
3928 664
3928 2456
3929 665
3929 2457
3930 666
3930 2458
3931 667
3931 2459
3932 668
3932 2460
3933 669
3933 2461
3934 670
3934 2462
3935 671
3935 2463
3936 672
3936 2464
3937 673
3937 2465
3938 674
3938 2466
3939 675
3939 2467
3940 676
3940 2468
3941 677
3941 2469
3942 678
3942 2470
3943 679
3943 2471
3944 680
3944 2472
3945 681
3945 2473
3946 682
3946 2474
3947 683
3947 2475
3948 684
3948 2476
3949 685
3949 2477
3950 686
3950 2478
3951 687
3951 2479
3952 688
3952 2480
3953 689
3953 2481
3954 690
3954 2482
3955 691
3955 2483
3956 692
3956 2484
3957 693
3957 2485
3958 694
3958 2486
3959 695
3959 2487
3960 696
3960 2488
3961 697
3961 2489
3962 698
3962 2490
3963 699
3963 2491
3964 700
3964 2492
3965 701
3965 2493
3966 702
3966 2494
3967 703
3967 2495
3968 640
3968 2752
3969 641
3969 2753
3970 642
3970 2754
3971 643
3971 2755
3972 644
3972 2756
3973 645
3973 2757
3974 646
3974 2758
3975 647
3975 2759
3976 648
3976 2760
3977 649
3977 2761
3978 650
3978 2762
3979 651
3979 2763
3980 652
3980 2764
3981 653
3981 2765
3982 654
3982 2766
3983 655
3983 2767
3984 656
3984 2768
3985 657
3985 2769
3986 658
3986 2770
3987 659
3987 2771
3988 660
3988 2772
3989 661
3989 2773
3990 662
3990 2774
3991 663
3991 2775
3992 664
3992 2776
3993 665
3993 2777
3994 666
3994 2778
3995 667
3995 2779
3996 668
3996 2780
3997 669
3997 2781
3998 670
3998 2782
3999 671
3999 2783
4000 672
4000 2784
4001 673
4001 2785
4002 674
4002 2786
4003 675
4003 2787
4004 676
4004 2788
4005 677
4005 2789
4006 678
4006 2790
4007 679
4007 2791
4008 680
4008 2792
4009 681
4009 2793
4010 682
4010 2794
4011 683
4011 2795
4012 684
4012 2796
4013 685
4013 2797
4014 686
4014 2798
4015 687
4015 2799
4016 688
4016 2800
4017 689
4017 2801
4018 690
4018 2802
4019 691
4019 2803
4020 692
4020 2804
4021 693
4021 2805
4022 694
4022 2806
4023 695
4023 2807
4024 696
4024 2808
4025 697
4025 2809
4026 698
4026 2810
4027 699
4027 2811
4028 700
4028 2812
4029 701
4029 2813
4030 702
4030 2814
4031 703
4031 2815
4032 640
4032 3072
4033 641
4033 3073
4034 642
4034 3074
4035 643
4035 3075
4036 644
4036 3076
4037 645
4037 3077
4038 646
4038 3078
4039 647
4039 3079
4040 648
4040 3080
4041 649
4041 3081
4042 650
4042 3082
4043 651
4043 3083
4044 652
4044 3084
4045 653
4045 3085
4046 654
4046 3086
4047 655
4047 3087
4048 656
4048 3088
4049 657
4049 3089
4050 658
4050 3090
4051 659
4051 3091
4052 660
4052 3092
4053 661
4053 3093
4054 662
4054 3094
4055 663
4055 3095
4056 664
4056 3096
4057 665
4057 3097
4058 666
4058 3098
4059 667
4059 3099
4060 668
4060 3100
4061 669
4061 3101
4062 670
4062 3102
4063 671
4063 3103
4064 672
4064 3104
4065 673
4065 3105
4066 674
4066 3106
4067 675
4067 3107
4068 676
4068 3108
4069 677
4069 3109
4070 678
4070 3110
4071 679
4071 3111
4072 680
4072 3112
4073 681
4073 3113
4074 682
4074 3114
4075 683
4075 3115
4076 684
4076 3116
4077 685
4077 3117
4078 686
4078 3118
4079 687
4079 3119
4080 688
4080 3120
4081 689
4081 3121
4082 690
4082 3122
4083 691
4083 3123
4084 692
4084 3124
4085 693
4085 3125
4086 694
4086 3126
4087 695
4087 3127
4088 696
4088 3128
4089 697
4089 3129
4090 698
4090 3130
4091 699
4091 3131
4092 700
4092 3132
4093 701
4093 3133
4094 702
4094 3134
4095 703
4095 3135
4096 640
4096 3392
4097 641
4097 3393
4098 642
4098 3394
4099 643
4099 3395
4100 644
4100 3396
4101 645
4101 3397
4102 646
4102 3398
4103 647
4103 3399
4104 648
4104 3400
4105 649
4105 3401
4106 650
4106 3402
4107 651
4107 3403
4108 652
4108 3404
4109 653
4109 3405
4110 654
4110 3406
4111 655
4111 3407
4112 656
4112 3408
4113 657
4113 3409
4114 658
4114 3410
4115 659
4115 3411
4116 660
4116 3412
4117 661
4117 3413
4118 662
4118 3414
4119 663
4119 3415
4120 664
4120 3416
4121 665
4121 3417
4122 666
4122 3418
4123 667
4123 3419
4124 668
4124 3420
4125 669
4125 3421
4126 670
4126 3422
4127 671
4127 3423
4128 672
4128 3424
4129 673
4129 3425
4130 674
4130 3426
4131 675
4131 3427
4132 676
4132 3428
4133 677
4133 3429
4134 678
4134 3430
4135 679
4135 3431
4136 680
4136 3432
4137 681
4137 3433
4138 682
4138 3434
4139 683
4139 3435
4140 684
4140 3436
4141 685
4141 3437
4142 686
4142 3438
4143 687
4143 3439
4144 688
4144 3440
4145 689
4145 3441
4146 690
4146 3442
4147 691
4147 3443
4148 692
4148 3444
4149 693
4149 3445
4150 694
4150 3446
4151 695
4151 3447
4152 696
4152 3448
4153 697
4153 3449
4154 698
4154 3450
4155 699
4155 3451
4156 700
4156 3452
4157 701
4157 3453
4158 702
4158 3454
4159 703
4159 3455
4160 640
4160 3712
4161 641
4161 3713
4162 642
4162 3714
4163 643
4163 3715
4164 644
4164 3716
4165 645
4165 3717
4166 646
4166 3718
4167 647
4167 3719
4168 648
4168 3720
4169 649
4169 3721
4170 650
4170 3722
4171 651
4171 3723
4172 652
4172 3724
4173 653
4173 3725
4174 654
4174 3726
4175 655
4175 3727
4176 656
4176 3728
4177 657
4177 3729
4178 658
4178 3730
4179 659
4179 3731
4180 660
4180 3732
4181 661
4181 3733
4182 662
4182 3734
4183 663
4183 3735
4184 664
4184 3736
4185 665
4185 3737
4186 666
4186 3738
4187 667
4187 3739
4188 668
4188 3740
4189 669
4189 3741
4190 670
4190 3742
4191 671
4191 3743
4192 672
4192 3744
4193 673
4193 3745
4194 674
4194 3746
4195 675
4195 3747
4196 676
4196 3748
4197 677
4197 3749
4198 678
4198 3750
4199 679
4199 3751
4200 680
4200 3752
4201 681
4201 3753
4202 682
4202 3754
4203 683
4203 3755
4204 684
4204 3756
4205 685
4205 3757
4206 686
4206 3758
4207 687
4207 3759
4208 688
4208 3760
4209 689
4209 3761
4210 690
4210 3762
4211 691
4211 3763
4212 692
4212 3764
4213 693
4213 3765
4214 694
4214 3766
4215 695
4215 3767
4216 696
4216 3768
4217 697
4217 3769
4218 698
4218 3770
4219 699
4219 3771
4220 700
4220 3772
4221 701
4221 3773
4222 702
4222 3774
4223 703
4223 3775
4224 704
4224 1984
4225 705
4225 1985
4226 706
4226 1986
4227 707
4227 1987
4228 708
4228 1988
4229 709
4229 1989
4230 710
4230 1990
4231 711
4231 1991
4232 712
4232 1992
4233 713
4233 1993
4234 714
4234 1994
4235 715
4235 1995
4236 716
4236 1996
4237 717
4237 1997
4238 718
4238 1998
4239 719
4239 1999
4240 720
4240 2000
4241 721
4241 2001
4242 722
4242 2002
4243 723
4243 2003
4244 724
4244 2004
4245 725
4245 2005
4246 726
4246 2006
4247 727
4247 2007
4248 728
4248 2008
4249 729
4249 2009
4250 730
4250 2010
4251 731
4251 2011
4252 732
4252 2012
4253 733
4253 2013
4254 734
4254 2014
4255 735
4255 2015
4256 736
4256 2016
4257 737
4257 2017
4258 738
4258 2018
4259 739
4259 2019
4260 740
4260 2020
4261 741
4261 2021
4262 742
4262 2022
4263 743
4263 2023
4264 744
4264 2024
4265 745
4265 2025
4266 746
4266 2026
4267 747
4267 2027
4268 748
4268 2028
4269 749
4269 2029
4270 750
4270 2030
4271 751
4271 2031
4272 752
4272 2032
4273 753
4273 2033
4274 754
4274 2034
4275 755
4275 2035
4276 756
4276 2036
4277 757
4277 2037
4278 758
4278 2038
4279 759
4279 2039
4280 760
4280 2040
4281 761
4281 2041
4282 762
4282 2042
4283 763
4283 2043
4284 764
4284 2044
4285 765
4285 2045
4286 766
4286 2046
4287 767
4287 2047
4288 704
4288 3648
4289 705
4289 3649
4290 706
4290 3650
4291 707
4291 3651
4292 708
4292 3652
4293 709
4293 3653
4294 710
4294 3654
4295 711
4295 3655
4296 712
4296 3656
4297 713
4297 3657
4298 714
4298 3658
4299 715
4299 3659
4300 716
4300 3660
4301 717
4301 3661
4302 718
4302 3662
4303 719
4303 3663
4304 720
4304 3664
4305 721
4305 3665
4306 722
4306 3666
4307 723
4307 3667
4308 724
4308 3668
4309 725
4309 3669
4310 726
4310 3670
4311 727
4311 3671
4312 728
4312 3672
4313 729
4313 3673
4314 730
4314 3674
4315 731
4315 3675
4316 732
4316 3676
4317 733
4317 3677
4318 734
4318 3678
4319 735
4319 3679
4320 736
4320 3680
4321 737
4321 3681
4322 738
4322 3682
4323 739
4323 3683
4324 740
4324 3684
4325 741
4325 3685
4326 742
4326 3686
4327 743
4327 3687
4328 744
4328 3688
4329 745
4329 3689
4330 746
4330 3690
4331 747
4331 3691
4332 748
4332 3692
4333 749
4333 3693
4334 750
4334 3694
4335 751
4335 3695
4336 752
4336 3696
4337 753
4337 3697
4338 754
4338 3698
4339 755
4339 3699
4340 756
4340 3700
4341 757
4341 3701
4342 758
4342 3702
4343 759
4343 3703
4344 760
4344 3704
4345 761
4345 3705
4346 762
4346 3706
4347 763
4347 3707
4348 764
4348 3708
4349 765
4349 3709
4350 766
4350 3710
4351 767
4351 3711
4352 704
4352 3712
4353 705
4353 3713
4354 706
4354 3714
4355 707
4355 3715
4356 708
4356 3716
4357 709
4357 3717
4358 710
4358 3718
4359 711
4359 3719
4360 712
4360 3720
4361 713
4361 3721
4362 714
4362 3722
4363 715
4363 3723
4364 716
4364 3724
4365 717
4365 3725
4366 718
4366 3726
4367 719
4367 3727
4368 720
4368 3728
4369 721
4369 3729
4370 722
4370 3730
4371 723
4371 3731
4372 724
4372 3732
4373 725
4373 3733
4374 726
4374 3734
4375 727
4375 3735
4376 728
4376 3736
4377 729
4377 3737
4378 730
4378 3738
4379 731
4379 3739
4380 732
4380 3740
4381 733
4381 3741
4382 734
4382 3742
4383 735
4383 3743
4384 736
4384 3744
4385 737
4385 3745
4386 738
4386 3746
4387 739
4387 3747
4388 740
4388 3748
4389 741
4389 3749
4390 742
4390 3750
4391 743
4391 3751
4392 744
4392 3752
4393 745
4393 3753
4394 746
4394 3754
4395 747
4395 3755
4396 748
4396 3756
4397 749
4397 3757
4398 750
4398 3758
4399 751
4399 3759
4400 752
4400 3760
4401 753
4401 3761
4402 754
4402 3762
4403 755
4403 3763
4404 756
4404 3764
4405 757
4405 3765
4406 758
4406 3766
4407 759
4407 3767
4408 760
4408 3768
4409 761
4409 3769
4410 762
4410 3770
4411 763
4411 3771
4412 764
4412 3772
4413 765
4413 3773
4414 766
4414 3774
4415 767
4415 3775
4416 704
4416 3776
4417 705
4417 3777
4418 706
4418 3778
4419 707
4419 3779
4420 708
4420 3780
4421 709
4421 3781
4422 710
4422 3782
4423 711
4423 3783
4424 712
4424 3784
4425 713
4425 3785
4426 714
4426 3786
4427 715
4427 3787
4428 716
4428 3788
4429 717
4429 3789
4430 718
4430 3790
4431 719
4431 3791
4432 720
4432 3792
4433 721
4433 3793
4434 722
4434 3794
4435 723
4435 3795
4436 724
4436 3796
4437 725
4437 3797
4438 726
4438 3798
4439 727
4439 3799
4440 728
4440 3800
4441 729
4441 3801
4442 730
4442 3802
4443 731
4443 3803
4444 732
4444 3804
4445 733
4445 3805
4446 734
4446 3806
4447 735
4447 3807
4448 736
4448 3808
4449 737
4449 3809
4450 738
4450 3810
4451 739
4451 3811
4452 740
4452 3812
4453 741
4453 3813
4454 742
4454 3814
4455 743
4455 3815
4456 744
4456 3816
4457 745
4457 3817
4458 746
4458 3818
4459 747
4459 3819
4460 748
4460 3820
4461 749
4461 3821
4462 750
4462 3822
4463 751
4463 3823
4464 752
4464 3824
4465 753
4465 3825
4466 754
4466 3826
4467 755
4467 3827
4468 756
4468 3828
4469 757
4469 3829
4470 758
4470 3830
4471 759
4471 3831
4472 760
4472 3832
4473 761
4473 3833
4474 762
4474 3834
4475 763
4475 3835
4476 764
4476 3836
4477 765
4477 3837
4478 766
4478 3838
4479 767
4479 3839
4480 704
4480 3840
4481 705
4481 3841
4482 706
4482 3842
4483 707
4483 3843
4484 708
4484 3844
4485 709
4485 3845
4486 710
4486 3846
4487 711
4487 3847
4488 712
4488 3848
4489 713
4489 3849
4490 714
4490 3850
4491 715
4491 3851
4492 716
4492 3852
4493 717
4493 3853
4494 718
4494 3854
4495 719
4495 3855
4496 720
4496 3856
4497 721
4497 3857
4498 722
4498 3858
4499 723
4499 3859
4500 724
4500 3860
4501 725
4501 3861
4502 726
4502 3862
4503 727
4503 3863
4504 728
4504 3864
4505 729
4505 3865
4506 730
4506 3866
4507 731
4507 3867
4508 732
4508 3868
4509 733
4509 3869
4510 734
4510 3870
4511 735
4511 3871
4512 736
4512 3872
4513 737
4513 3873
4514 738
4514 3874
4515 739
4515 3875
4516 740
4516 3876
4517 741
4517 3877
4518 742
4518 3878
4519 743
4519 3879
4520 744
4520 3880
4521 745
4521 3881
4522 746
4522 3882
4523 747
4523 3883
4524 748
4524 3884
4525 749
4525 3885
4526 750
4526 3886
4527 751
4527 3887
4528 752
4528 3888
4529 753
4529 3889
4530 754
4530 3890
4531 755
4531 3891
4532 756
4532 3892
4533 757
4533 3893
4534 758
4534 3894
4535 759
4535 3895
4536 760
4536 3896
4537 761
4537 3897
4538 762
4538 3898
4539 763
4539 3899
4540 764
4540 3900
4541 765
4541 3901
4542 766
4542 3902
4543 767
4543 3903
4544 704
4544 3904
4545 705
4545 3905
4546 706
4546 3906
4547 707
4547 3907
4548 708
4548 3908
4549 709
4549 3909
4550 710
4550 3910
4551 711
4551 3911
4552 712
4552 3912
4553 713
4553 3913
4554 714
4554 3914
4555 715
4555 3915
4556 716
4556 3916
4557 717
4557 3917
4558 718
4558 3918
4559 719
4559 3919
4560 720
4560 3920
4561 721
4561 3921
4562 722
4562 3922
4563 723
4563 3923
4564 724
4564 3924
4565 725
4565 3925
4566 726
4566 3926
4567 727
4567 3927
4568 728
4568 3928
4569 729
4569 3929
4570 730
4570 3930
4571 731
4571 3931
4572 732
4572 3932
4573 733
4573 3933
4574 734
4574 3934
4575 735
4575 3935
4576 736
4576 3936
4577 737
4577 3937
4578 738
4578 3938
4579 739
4579 3939
4580 740
4580 3940
4581 741
4581 3941
4582 742
4582 3942
4583 743
4583 3943
4584 744
4584 3944
4585 745
4585 3945
4586 746
4586 3946
4587 747
4587 3947
4588 748
4588 3948
4589 749
4589 3949
4590 750
4590 3950
4591 751
4591 3951
4592 752
4592 3952
4593 753
4593 3953
4594 754
4594 3954
4595 755
4595 3955
4596 756
4596 3956
4597 757
4597 3957
4598 758
4598 3958
4599 759
4599 3959
4600 760
4600 3960
4601 761
4601 3961
4602 762
4602 3962
4603 763
4603 3963
4604 764
4604 3964
4605 765
4605 3965
4606 766
4606 3966
4607 767
4607 3967
4608 768
4608 2304
4609 769
4609 2305
4610 770
4610 2306
4611 771
4611 2307
4612 772
4612 2308
4613 773
4613 2309
4614 774
4614 2310
4615 775
4615 2311
4616 776
4616 2312
4617 777
4617 2313
4618 778
4618 2314
4619 779
4619 2315
4620 780
4620 2316
4621 781
4621 2317
4622 782
4622 2318
4623 783
4623 2319
4624 784
4624 2320
4625 785
4625 2321
4626 786
4626 2322
4627 787
4627 2323
4628 788
4628 2324
4629 789
4629 2325
4630 790
4630 2326
4631 791
4631 2327
4632 792
4632 2328
4633 793
4633 2329
4634 794
4634 2330
4635 795
4635 2331
4636 796
4636 2332
4637 797
4637 2333
4638 798
4638 2334
4639 799
4639 2335
4640 800
4640 2336
4641 801
4641 2337
4642 802
4642 2338
4643 803
4643 2339
4644 804
4644 2340
4645 805
4645 2341
4646 806
4646 2342
4647 807
4647 2343
4648 808
4648 2344
4649 809
4649 2345
4650 810
4650 2346
4651 811
4651 2347
4652 812
4652 2348
4653 813
4653 2349
4654 814
4654 2350
4655 815
4655 2351
4656 816
4656 2352
4657 817
4657 2353
4658 818
4658 2354
4659 819
4659 2355
4660 820
4660 2356
4661 821
4661 2357
4662 822
4662 2358
4663 823
4663 2359
4664 824
4664 2360
4665 825
4665 2361
4666 826
4666 2362
4667 827
4667 2363
4668 828
4668 2364
4669 829
4669 2365
4670 830
4670 2366
4671 831
4671 2367
4672 768
4672 2624
4673 769
4673 2625
4674 770
4674 2626
4675 771
4675 2627
4676 772
4676 2628
4677 773
4677 2629
4678 774
4678 2630
4679 775
4679 2631
4680 776
4680 2632
4681 777
4681 2633
4682 778
4682 2634
4683 779
4683 2635
4684 780
4684 2636
4685 781
4685 2637
4686 782
4686 2638
4687 783
4687 2639
4688 784
4688 2640
4689 785
4689 2641
4690 786
4690 2642
4691 787
4691 2643
4692 788
4692 2644
4693 789
4693 2645
4694 790
4694 2646
4695 791
4695 2647
4696 792
4696 2648
4697 793
4697 2649
4698 794
4698 2650
4699 795
4699 2651
4700 796
4700 2652
4701 797
4701 2653
4702 798
4702 2654
4703 799
4703 2655
4704 800
4704 2656
4705 801
4705 2657
4706 802
4706 2658
4707 803
4707 2659
4708 804
4708 2660
4709 805
4709 2661
4710 806
4710 2662
4711 807
4711 2663
4712 808
4712 2664
4713 809
4713 2665
4714 810
4714 2666
4715 811
4715 2667
4716 812
4716 2668
4717 813
4717 2669
4718 814
4718 2670
4719 815
4719 2671
4720 816
4720 2672
4721 817
4721 2673
4722 818
4722 2674
4723 819
4723 2675
4724 820
4724 2676
4725 821
4725 2677
4726 822
4726 2678
4727 823
4727 2679
4728 824
4728 2680
4729 825
4729 2681
4730 826
4730 2682
4731 827
4731 2683
4732 828
4732 2684
4733 829
4733 2685
4734 830
4734 2686
4735 831
4735 2687
4736 768
4736 2880
4737 769
4737 2881
4738 770
4738 2882
4739 771
4739 2883
4740 772
4740 2884
4741 773
4741 2885
4742 774
4742 2886
4743 775
4743 2887
4744 776
4744 2888
4745 777
4745 2889
4746 778
4746 2890
4747 779
4747 2891
4748 780
4748 2892
4749 781
4749 2893
4750 782
4750 2894
4751 783
4751 2895
4752 784
4752 2896
4753 785
4753 2897
4754 786
4754 2898
4755 787
4755 2899
4756 788
4756 2900
4757 789
4757 2901
4758 790
4758 2902
4759 791
4759 2903
4760 792
4760 2904
4761 793
4761 2905
4762 794
4762 2906
4763 795
4763 2907
4764 796
4764 2908
4765 797
4765 2909
4766 798
4766 2910
4767 799
4767 2911
4768 800
4768 2912
4769 801
4769 2913
4770 802
4770 2914
4771 803
4771 2915
4772 804
4772 2916
4773 805
4773 2917
4774 806
4774 2918
4775 807
4775 2919
4776 808
4776 2920
4777 809
4777 2921
4778 810
4778 2922
4779 811
4779 2923
4780 812
4780 2924
4781 813
4781 2925
4782 814
4782 2926
4783 815
4783 2927
4784 816
4784 2928
4785 817
4785 2929
4786 818
4786 2930
4787 819
4787 2931
4788 820
4788 2932
4789 821
4789 2933
4790 822
4790 2934
4791 823
4791 2935
4792 824
4792 2936
4793 825
4793 2937
4794 826
4794 2938
4795 827
4795 2939
4796 828
4796 2940
4797 829
4797 2941
4798 830
4798 2942
4799 831
4799 2943
4800 768
4800 3136
4801 769
4801 3137
4802 770
4802 3138
4803 771
4803 3139
4804 772
4804 3140
4805 773
4805 3141
4806 774
4806 3142
4807 775
4807 3143
4808 776
4808 3144
4809 777
4809 3145
4810 778
4810 3146
4811 779
4811 3147
4812 780
4812 3148
4813 781
4813 3149
4814 782
4814 3150
4815 783
4815 3151
4816 784
4816 3152
4817 785
4817 3153
4818 786
4818 3154
4819 787
4819 3155
4820 788
4820 3156
4821 789
4821 3157
4822 790
4822 3158
4823 791
4823 3159
4824 792
4824 3160
4825 793
4825 3161
4826 794
4826 3162
4827 795
4827 3163
4828 796
4828 3164
4829 797
4829 3165
4830 798
4830 3166
4831 799
4831 3167
4832 800
4832 3168
4833 801
4833 3169
4834 802
4834 3170
4835 803
4835 3171
4836 804
4836 3172
4837 805
4837 3173
4838 806
4838 3174
4839 807
4839 3175
4840 808
4840 3176
4841 809
4841 3177
4842 810
4842 3178
4843 811
4843 3179
4844 812
4844 3180
4845 813
4845 3181
4846 814
4846 3182
4847 815
4847 3183
4848 816
4848 3184
4849 817
4849 3185
4850 818
4850 3186
4851 819
4851 3187
4852 820
4852 3188
4853 821
4853 3189
4854 822
4854 3190
4855 823
4855 3191
4856 824
4856 3192
4857 825
4857 3193
4858 826
4858 3194
4859 827
4859 3195
4860 828
4860 3196
4861 829
4861 3197
4862 830
4862 3198
4863 831
4863 3199
4864 768
4864 3392
4865 769
4865 3393
4866 770
4866 3394
4867 771
4867 3395
4868 772
4868 3396
4869 773
4869 3397
4870 774
4870 3398
4871 775
4871 3399
4872 776
4872 3400
4873 777
4873 3401
4874 778
4874 3402
4875 779
4875 3403
4876 780
4876 3404
4877 781
4877 3405
4878 782
4878 3406
4879 783
4879 3407
4880 784
4880 3408
4881 785
4881 3409
4882 786
4882 3410
4883 787
4883 3411
4884 788
4884 3412
4885 789
4885 3413
4886 790
4886 3414
4887 791
4887 3415
4888 792
4888 3416
4889 793
4889 3417
4890 794
4890 3418
4891 795
4891 3419
4892 796
4892 3420
4893 797
4893 3421
4894 798
4894 3422
4895 799
4895 3423
4896 800
4896 3424
4897 801
4897 3425
4898 802
4898 3426
4899 803
4899 3427
4900 804
4900 3428
4901 805
4901 3429
4902 806
4902 3430
4903 807
4903 3431
4904 808
4904 3432
4905 809
4905 3433
4906 810
4906 3434
4907 811
4907 3435
4908 812
4908 3436
4909 813
4909 3437
4910 814
4910 3438
4911 815
4911 3439
4912 816
4912 3440
4913 817
4913 3441
4914 818
4914 3442
4915 819
4915 3443
4916 820
4916 3444
4917 821
4917 3445
4918 822
4918 3446
4919 823
4919 3447
4920 824
4920 3448
4921 825
4921 3449
4922 826
4922 3450
4923 827
4923 3451
4924 828
4924 3452
4925 829
4925 3453
4926 830
4926 3454
4927 831
4927 3455
4928 768
4928 3648
4929 769
4929 3649
4930 770
4930 3650
4931 771
4931 3651
4932 772
4932 3652
4933 773
4933 3653
4934 774
4934 3654
4935 775
4935 3655
4936 776
4936 3656
4937 777
4937 3657
4938 778
4938 3658
4939 779
4939 3659
4940 780
4940 3660
4941 781
4941 3661
4942 782
4942 3662
4943 783
4943 3663
4944 784
4944 3664
4945 785
4945 3665
4946 786
4946 3666
4947 787
4947 3667
4948 788
4948 3668
4949 789
4949 3669
4950 790
4950 3670
4951 791
4951 3671
4952 792
4952 3672
4953 793
4953 3673
4954 794
4954 3674
4955 795
4955 3675
4956 796
4956 3676
4957 797
4957 3677
4958 798
4958 3678
4959 799
4959 3679
4960 800
4960 3680
4961 801
4961 3681
4962 802
4962 3682
4963 803
4963 3683
4964 804
4964 3684
4965 805
4965 3685
4966 806
4966 3686
4967 807
4967 3687
4968 808
4968 3688
4969 809
4969 3689
4970 810
4970 3690
4971 811
4971 3691
4972 812
4972 3692
4973 813
4973 3693
4974 814
4974 3694
4975 815
4975 3695
4976 816
4976 3696
4977 817
4977 3697
4978 818
4978 3698
4979 819
4979 3699
4980 820
4980 3700
4981 821
4981 3701
4982 822
4982 3702
4983 823
4983 3703
4984 824
4984 3704
4985 825
4985 3705
4986 826
4986 3706
4987 827
4987 3707
4988 828
4988 3708
4989 829
4989 3709
4990 830
4990 3710
4991 831
4991 3711
4992 832
4992 2176
4993 833
4993 2177
4994 834
4994 2178
4995 835
4995 2179
4996 836
4996 2180
4997 837
4997 2181
4998 838
4998 2182
4999 839
4999 2183
5000 840
5000 2184
5001 841
5001 2185
5002 842
5002 2186
5003 843
5003 2187
5004 844
5004 2188
5005 845
5005 2189
5006 846
5006 2190
5007 847
5007 2191
5008 848
5008 2192
5009 849
5009 2193
5010 850
5010 2194
5011 851
5011 2195
5012 852
5012 2196
5013 853
5013 2197
5014 854
5014 2198
5015 855
5015 2199
5016 856
5016 2200
5017 857
5017 2201
5018 858
5018 2202
5019 859
5019 2203
5020 860
5020 2204
5021 861
5021 2205
5022 862
5022 2206
5023 863
5023 2207
5024 864
5024 2208
5025 865
5025 2209
5026 866
5026 2210
5027 867
5027 2211
5028 868
5028 2212
5029 869
5029 2213
5030 870
5030 2214
5031 871
5031 2215
5032 872
5032 2216
5033 873
5033 2217
5034 874
5034 2218
5035 875
5035 2219
5036 876
5036 2220
5037 877
5037 2221
5038 878
5038 2222
5039 879
5039 2223
5040 880
5040 2224
5041 881
5041 2225
5042 882
5042 2226
5043 883
5043 2227
5044 884
5044 2228
5045 885
5045 2229
5046 886
5046 2230
5047 887
5047 2231
5048 888
5048 2232
5049 889
5049 2233
5050 890
5050 2234
5051 891
5051 2235
5052 892
5052 2236
5053 893
5053 2237
5054 894
5054 2238
5055 895
5055 2239
5056 832
5056 2496
5057 833
5057 2497
5058 834
5058 2498
5059 835
5059 2499
5060 836
5060 2500
5061 837
5061 2501
5062 838
5062 2502
5063 839
5063 2503
5064 840
5064 2504
5065 841
5065 2505
5066 842
5066 2506
5067 843
5067 2507
5068 844
5068 2508
5069 845
5069 2509
5070 846
5070 2510
5071 847
5071 2511
5072 848
5072 2512
5073 849
5073 2513
5074 850
5074 2514
5075 851
5075 2515
5076 852
5076 2516
5077 853
5077 2517
5078 854
5078 2518
5079 855
5079 2519
5080 856
5080 2520
5081 857
5081 2521
5082 858
5082 2522
5083 859
5083 2523
5084 860
5084 2524
5085 861
5085 2525
5086 862
5086 2526
5087 863
5087 2527
5088 864
5088 2528
5089 865
5089 2529
5090 866
5090 2530
5091 867
5091 2531
5092 868
5092 2532
5093 869
5093 2533
5094 870
5094 2534
5095 871
5095 2535
5096 872
5096 2536
5097 873
5097 2537
5098 874
5098 2538
5099 875
5099 2539
5100 876
5100 2540
5101 877
5101 2541
5102 878
5102 2542
5103 879
5103 2543
5104 880
5104 2544
5105 881
5105 2545
5106 882
5106 2546
5107 883
5107 2547
5108 884
5108 2548
5109 885
5109 2549
5110 886
5110 2550
5111 887
5111 2551
5112 888
5112 2552
5113 889
5113 2553
5114 890
5114 2554
5115 891
5115 2555
5116 892
5116 2556
5117 893
5117 2557
5118 894
5118 2558
5119 895
5119 2559
5120 832
5120 2944
5121 833
5121 2945
5122 834
5122 2946
5123 835
5123 2947
5124 836
5124 2948
5125 837
5125 2949
5126 838
5126 2950
5127 839
5127 2951
5128 840
5128 2952
5129 841
5129 2953
5130 842
5130 2954
5131 843
5131 2955
5132 844
5132 2956
5133 845
5133 2957
5134 846
5134 2958
5135 847
5135 2959
5136 848
5136 2960
5137 849
5137 2961
5138 850
5138 2962
5139 851
5139 2963
5140 852
5140 2964
5141 853
5141 2965
5142 854
5142 2966
5143 855
5143 2967
5144 856
5144 2968
5145 857
5145 2969
5146 858
5146 2970
5147 859
5147 2971
5148 860
5148 2972
5149 861
5149 2973
5150 862
5150 2974
5151 863
5151 2975
5152 864
5152 2976
5153 865
5153 2977
5154 866
5154 2978
5155 867
5155 2979
5156 868
5156 2980
5157 869
5157 2981
5158 870
5158 2982
5159 871
5159 2983
5160 872
5160 2984
5161 873
5161 2985
5162 874
5162 2986
5163 875
5163 2987
5164 876
5164 2988
5165 877
5165 2989
5166 878
5166 2990
5167 879
5167 2991
5168 880
5168 2992
5169 881
5169 2993
5170 882
5170 2994
5171 883
5171 2995
5172 884
5172 2996
5173 885
5173 2997
5174 886
5174 2998
5175 887
5175 2999
5176 888
5176 3000
5177 889
5177 3001
5178 890
5178 3002
5179 891
5179 3003
5180 892
5180 3004
5181 893
5181 3005
5182 894
5182 3006
5183 895
5183 3007
5184 832
5184 3072
5185 833
5185 3073
5186 834
5186 3074
5187 835
5187 3075
5188 836
5188 3076
5189 837
5189 3077
5190 838
5190 3078
5191 839
5191 3079
5192 840
5192 3080
5193 841
5193 3081
5194 842
5194 3082
5195 843
5195 3083
5196 844
5196 3084
5197 845
5197 3085
5198 846
5198 3086
5199 847
5199 3087
5200 848
5200 3088
5201 849
5201 3089
5202 850
5202 3090
5203 851
5203 3091
5204 852
5204 3092
5205 853
5205 3093
5206 854
5206 3094
5207 855
5207 3095
5208 856
5208 3096
5209 857
5209 3097
5210 858
5210 3098
5211 859
5211 3099
5212 860
5212 3100
5213 861
5213 3101
5214 862
5214 3102
5215 863
5215 3103
5216 864
5216 3104
5217 865
5217 3105
5218 866
5218 3106
5219 867
5219 3107
5220 868
5220 3108
5221 869
5221 3109
5222 870
5222 3110
5223 871
5223 3111
5224 872
5224 3112
5225 873
5225 3113
5226 874
5226 3114
5227 875
5227 3115
5228 876
5228 3116
5229 877
5229 3117
5230 878
5230 3118
5231 879
5231 3119
5232 880
5232 3120
5233 881
5233 3121
5234 882
5234 3122
5235 883
5235 3123
5236 884
5236 3124
5237 885
5237 3125
5238 886
5238 3126
5239 887
5239 3127
5240 888
5240 3128
5241 889
5241 3129
5242 890
5242 3130
5243 891
5243 3131
5244 892
5244 3132
5245 893
5245 3133
5246 894
5246 3134
5247 895
5247 3135
5248 832
5248 3520
5249 833
5249 3521
5250 834
5250 3522
5251 835
5251 3523
5252 836
5252 3524
5253 837
5253 3525
5254 838
5254 3526
5255 839
5255 3527
5256 840
5256 3528
5257 841
5257 3529
5258 842
5258 3530
5259 843
5259 3531
5260 844
5260 3532
5261 845
5261 3533
5262 846
5262 3534
5263 847
5263 3535
5264 848
5264 3536
5265 849
5265 3537
5266 850
5266 3538
5267 851
5267 3539
5268 852
5268 3540
5269 853
5269 3541
5270 854
5270 3542
5271 855
5271 3543
5272 856
5272 3544
5273 857
5273 3545
5274 858
5274 3546
5275 859
5275 3547
5276 860
5276 3548
5277 861
5277 3549
5278 862
5278 3550
5279 863
5279 3551
5280 864
5280 3552
5281 865
5281 3553
5282 866
5282 3554
5283 867
5283 3555
5284 868
5284 3556
5285 869
5285 3557
5286 870
5286 3558
5287 871
5287 3559
5288 872
5288 3560
5289 873
5289 3561
5290 874
5290 3562
5291 875
5291 3563
5292 876
5292 3564
5293 877
5293 3565
5294 878
5294 3566
5295 879
5295 3567
5296 880
5296 3568
5297 881
5297 3569
5298 882
5298 3570
5299 883
5299 3571
5300 884
5300 3572
5301 885
5301 3573
5302 886
5302 3574
5303 887
5303 3575
5304 888
5304 3576
5305 889
5305 3577
5306 890
5306 3578
5307 891
5307 3579
5308 892
5308 3580
5309 893
5309 3581
5310 894
5310 3582
5311 895
5311 3583
5312 832
5312 3648
5313 833
5313 3649
5314 834
5314 3650
5315 835
5315 3651
5316 836
5316 3652
5317 837
5317 3653
5318 838
5318 3654
5319 839
5319 3655
5320 840
5320 3656
5321 841
5321 3657
5322 842
5322 3658
5323 843
5323 3659
5324 844
5324 3660
5325 845
5325 3661
5326 846
5326 3662
5327 847
5327 3663
5328 848
5328 3664
5329 849
5329 3665
5330 850
5330 3666
5331 851
5331 3667
5332 852
5332 3668
5333 853
5333 3669
5334 854
5334 3670
5335 855
5335 3671
5336 856
5336 3672
5337 857
5337 3673
5338 858
5338 3674
5339 859
5339 3675
5340 860
5340 3676
5341 861
5341 3677
5342 862
5342 3678
5343 863
5343 3679
5344 864
5344 3680
5345 865
5345 3681
5346 866
5346 3682
5347 867
5347 3683
5348 868
5348 3684
5349 869
5349 3685
5350 870
5350 3686
5351 871
5351 3687
5352 872
5352 3688
5353 873
5353 3689
5354 874
5354 3690
5355 875
5355 3691
5356 876
5356 3692
5357 877
5357 3693
5358 878
5358 3694
5359 879
5359 3695
5360 880
5360 3696
5361 881
5361 3697
5362 882
5362 3698
5363 883
5363 3699
5364 884
5364 3700
5365 885
5365 3701
5366 886
5366 3702
5367 887
5367 3703
5368 888
5368 3704
5369 889
5369 3705
5370 890
5370 3706
5371 891
5371 3707
5372 892
5372 3708
5373 893
5373 3709
5374 894
5374 3710
5375 895
5375 3711
5376 896
5376 2240
5377 897
5377 2241
5378 898
5378 2242
5379 899
5379 2243
5380 900
5380 2244
5381 901
5381 2245
5382 902
5382 2246
5383 903
5383 2247
5384 904
5384 2248
5385 905
5385 2249
5386 906
5386 2250
5387 907
5387 2251
5388 908
5388 2252
5389 909
5389 2253
5390 910
5390 2254
5391 911
5391 2255
5392 912
5392 2256
5393 913
5393 2257
5394 914
5394 2258
5395 915
5395 2259
5396 916
5396 2260
5397 917
5397 2261
5398 918
5398 2262
5399 919
5399 2263
5400 920
5400 2264
5401 921
5401 2265
5402 922
5402 2266
5403 923
5403 2267
5404 924
5404 2268
5405 925
5405 2269
5406 926
5406 2270
5407 927
5407 2271
5408 928
5408 2272
5409 929
5409 2273
5410 930
5410 2274
5411 931
5411 2275
5412 932
5412 2276
5413 933
5413 2277
5414 934
5414 2278
5415 935
5415 2279
5416 936
5416 2280
5417 937
5417 2281
5418 938
5418 2282
5419 939
5419 2283
5420 940
5420 2284
5421 941
5421 2285
5422 942
5422 2286
5423 943
5423 2287
5424 944
5424 2288
5425 945
5425 2289
5426 946
5426 2290
5427 947
5427 2291
5428 948
5428 2292
5429 949
5429 2293
5430 950
5430 2294
5431 951
5431 2295
5432 952
5432 2296
5433 953
5433 2297
5434 954
5434 2298
5435 955
5435 2299
5436 956
5436 2300
5437 957
5437 2301
5438 958
5438 2302
5439 959
5439 2303
5440 896
5440 2560
5441 897
5441 2561
5442 898
5442 2562
5443 899
5443 2563
5444 900
5444 2564
5445 901
5445 2565
5446 902
5446 2566
5447 903
5447 2567
5448 904
5448 2568
5449 905
5449 2569
5450 906
5450 2570
5451 907
5451 2571
5452 908
5452 2572
5453 909
5453 2573
5454 910
5454 2574
5455 911
5455 2575
5456 912
5456 2576
5457 913
5457 2577
5458 914
5458 2578
5459 915
5459 2579
5460 916
5460 2580
5461 917
5461 2581
5462 918
5462 2582
5463 919
5463 2583
5464 920
5464 2584
5465 921
5465 2585
5466 922
5466 2586
5467 923
5467 2587
5468 924
5468 2588
5469 925
5469 2589
5470 926
5470 2590
5471 927
5471 2591
5472 928
5472 2592
5473 929
5473 2593
5474 930
5474 2594
5475 931
5475 2595
5476 932
5476 2596
5477 933
5477 2597
5478 934
5478 2598
5479 935
5479 2599
5480 936
5480 2600
5481 937
5481 2601
5482 938
5482 2602
5483 939
5483 2603
5484 940
5484 2604
5485 941
5485 2605
5486 942
5486 2606
5487 943
5487 2607
5488 944
5488 2608
5489 945
5489 2609
5490 946
5490 2610
5491 947
5491 2611
5492 948
5492 2612
5493 949
5493 2613
5494 950
5494 2614
5495 951
5495 2615
5496 952
5496 2616
5497 953
5497 2617
5498 954
5498 2618
5499 955
5499 2619
5500 956
5500 2620
5501 957
5501 2621
5502 958
5502 2622
5503 959
5503 2623
5504 896
5504 2752
5505 897
5505 2753
5506 898
5506 2754
5507 899
5507 2755
5508 900
5508 2756
5509 901
5509 2757
5510 902
5510 2758
5511 903
5511 2759
5512 904
5512 2760
5513 905
5513 2761
5514 906
5514 2762
5515 907
5515 2763
5516 908
5516 2764
5517 909
5517 2765
5518 910
5518 2766
5519 911
5519 2767
5520 912
5520 2768
5521 913
5521 2769
5522 914
5522 2770
5523 915
5523 2771
5524 916
5524 2772
5525 917
5525 2773
5526 918
5526 2774
5527 919
5527 2775
5528 920
5528 2776
5529 921
5529 2777
5530 922
5530 2778
5531 923
5531 2779
5532 924
5532 2780
5533 925
5533 2781
5534 926
5534 2782
5535 927
5535 2783
5536 928
5536 2784
5537 929
5537 2785
5538 930
5538 2786
5539 931
5539 2787
5540 932
5540 2788
5541 933
5541 2789
5542 934
5542 2790
5543 935
5543 2791
5544 936
5544 2792
5545 937
5545 2793
5546 938
5546 2794
5547 939
5547 2795
5548 940
5548 2796
5549 941
5549 2797
5550 942
5550 2798
5551 943
5551 2799
5552 944
5552 2800
5553 945
5553 2801
5554 946
5554 2802
5555 947
5555 2803
5556 948
5556 2804
5557 949
5557 2805
5558 950
5558 2806
5559 951
5559 2807
5560 952
5560 2808
5561 953
5561 2809
5562 954
5562 2810
5563 955
5563 2811
5564 956
5564 2812
5565 957
5565 2813
5566 958
5566 2814
5567 959
5567 2815
5568 896
5568 3264
5569 897
5569 3265
5570 898
5570 3266
5571 899
5571 3267
5572 900
5572 3268
5573 901
5573 3269
5574 902
5574 3270
5575 903
5575 3271
5576 904
5576 3272
5577 905
5577 3273
5578 906
5578 3274
5579 907
5579 3275
5580 908
5580 3276
5581 909
5581 3277
5582 910
5582 3278
5583 911
5583 3279
5584 912
5584 3280
5585 913
5585 3281
5586 914
5586 3282
5587 915
5587 3283
5588 916
5588 3284
5589 917
5589 3285
5590 918
5590 3286
5591 919
5591 3287
5592 920
5592 3288
5593 921
5593 3289
5594 922
5594 3290
5595 923
5595 3291
5596 924
5596 3292
5597 925
5597 3293
5598 926
5598 3294
5599 927
5599 3295
5600 928
5600 3296
5601 929
5601 3297
5602 930
5602 3298
5603 931
5603 3299
5604 932
5604 3300
5605 933
5605 3301
5606 934
5606 3302
5607 935
5607 3303
5608 936
5608 3304
5609 937
5609 3305
5610 938
5610 3306
5611 939
5611 3307
5612 940
5612 3308
5613 941
5613 3309
5614 942
5614 3310
5615 943
5615 3311
5616 944
5616 3312
5617 945
5617 3313
5618 946
5618 3314
5619 947
5619 3315
5620 948
5620 3316
5621 949
5621 3317
5622 950
5622 3318
5623 951
5623 3319
5624 952
5624 3320
5625 953
5625 3321
5626 954
5626 3322
5627 955
5627 3323
5628 956
5628 3324
5629 957
5629 3325
5630 958
5630 3326
5631 959
5631 3327
5632 896
5632 3456
5633 897
5633 3457
5634 898
5634 3458
5635 899
5635 3459
5636 900
5636 3460
5637 901
5637 3461
5638 902
5638 3462
5639 903
5639 3463
5640 904
5640 3464
5641 905
5641 3465
5642 906
5642 3466
5643 907
5643 3467
5644 908
5644 3468
5645 909
5645 3469
5646 910
5646 3470
5647 911
5647 3471
5648 912
5648 3472
5649 913
5649 3473
5650 914
5650 3474
5651 915
5651 3475
5652 916
5652 3476
5653 917
5653 3477
5654 918
5654 3478
5655 919
5655 3479
5656 920
5656 3480
5657 921
5657 3481
5658 922
5658 3482
5659 923
5659 3483
5660 924
5660 3484
5661 925
5661 3485
5662 926
5662 3486
5663 927
5663 3487
5664 928
5664 3488
5665 929
5665 3489
5666 930
5666 3490
5667 931
5667 3491
5668 932
5668 3492
5669 933
5669 3493
5670 934
5670 3494
5671 935
5671 3495
5672 936
5672 3496
5673 937
5673 3497
5674 938
5674 3498
5675 939
5675 3499
5676 940
5676 3500
5677 941
5677 3501
5678 942
5678 3502
5679 943
5679 3503
5680 944
5680 3504
5681 945
5681 3505
5682 946
5682 3506
5683 947
5683 3507
5684 948
5684 3508
5685 949
5685 3509
5686 950
5686 3510
5687 951
5687 3511
5688 952
5688 3512
5689 953
5689 3513
5690 954
5690 3514
5691 955
5691 3515
5692 956
5692 3516
5693 957
5693 3517
5694 958
5694 3518
5695 959
5695 3519
5696 896
5696 3648
5697 897
5697 3649
5698 898
5698 3650
5699 899
5699 3651
5700 900
5700 3652
5701 901
5701 3653
5702 902
5702 3654
5703 903
5703 3655
5704 904
5704 3656
5705 905
5705 3657
5706 906
5706 3658
5707 907
5707 3659
5708 908
5708 3660
5709 909
5709 3661
5710 910
5710 3662
5711 911
5711 3663
5712 912
5712 3664
5713 913
5713 3665
5714 914
5714 3666
5715 915
5715 3667
5716 916
5716 3668
5717 917
5717 3669
5718 918
5718 3670
5719 919
5719 3671
5720 920
5720 3672
5721 921
5721 3673
5722 922
5722 3674
5723 923
5723 3675
5724 924
5724 3676
5725 925
5725 3677
5726 926
5726 3678
5727 927
5727 3679
5728 928
5728 3680
5729 929
5729 3681
5730 930
5730 3682
5731 931
5731 3683
5732 932
5732 3684
5733 933
5733 3685
5734 934
5734 3686
5735 935
5735 3687
5736 936
5736 3688
5737 937
5737 3689
5738 938
5738 3690
5739 939
5739 3691
5740 940
5740 3692
5741 941
5741 3693
5742 942
5742 3694
5743 943
5743 3695
5744 944
5744 3696
5745 945
5745 3697
5746 946
5746 3698
5747 947
5747 3699
5748 948
5748 3700
5749 949
5749 3701
5750 950
5750 3702
5751 951
5751 3703
5752 952
5752 3704
5753 953
5753 3705
5754 954
5754 3706
5755 955
5755 3707
5756 956
5756 3708
5757 957
5757 3709
5758 958
5758 3710
5759 959
5759 3711
5760 960
5760 2112
5761 961
5761 2113
5762 962
5762 2114
5763 963
5763 2115
5764 964
5764 2116
5765 965
5765 2117
5766 966
5766 2118
5767 967
5767 2119
5768 968
5768 2120
5769 969
5769 2121
5770 970
5770 2122
5771 971
5771 2123
5772 972
5772 2124
5773 973
5773 2125
5774 974
5774 2126
5775 975
5775 2127
5776 976
5776 2128
5777 977
5777 2129
5778 978
5778 2130
5779 979
5779 2131
5780 980
5780 2132
5781 981
5781 2133
5782 982
5782 2134
5783 983
5783 2135
5784 984
5784 2136
5785 985
5785 2137
5786 986
5786 2138
5787 987
5787 2139
5788 988
5788 2140
5789 989
5789 2141
5790 990
5790 2142
5791 991
5791 2143
5792 992
5792 2144
5793 993
5793 2145
5794 994
5794 2146
5795 995
5795 2147
5796 996
5796 2148
5797 997
5797 2149
5798 998
5798 2150
5799 999
5799 2151
5800 1000
5800 2152
5801 1001
5801 2153
5802 1002
5802 2154
5803 1003
5803 2155
5804 1004
5804 2156
5805 1005
5805 2157
5806 1006
5806 2158
5807 1007
5807 2159
5808 1008
5808 2160
5809 1009
5809 2161
5810 1010
5810 2162
5811 1011
5811 2163
5812 1012
5812 2164
5813 1013
5813 2165
5814 1014
5814 2166
5815 1015
5815 2167
5816 1016
5816 2168
5817 1017
5817 2169
5818 1018
5818 2170
5819 1019
5819 2171
5820 1020
5820 2172
5821 1021
5821 2173
5822 1022
5822 2174
5823 1023
5823 2175
5824 960
5824 2432
5825 961
5825 2433
5826 962
5826 2434
5827 963
5827 2435
5828 964
5828 2436
5829 965
5829 2437
5830 966
5830 2438
5831 967
5831 2439
5832 968
5832 2440
5833 969
5833 2441
5834 970
5834 2442
5835 971
5835 2443
5836 972
5836 2444
5837 973
5837 2445
5838 974
5838 2446
5839 975
5839 2447
5840 976
5840 2448
5841 977
5841 2449
5842 978
5842 2450
5843 979
5843 2451
5844 980
5844 2452
5845 981
5845 2453
5846 982
5846 2454
5847 983
5847 2455
5848 984
5848 2456
5849 985
5849 2457
5850 986
5850 2458
5851 987
5851 2459
5852 988
5852 2460
5853 989
5853 2461
5854 990
5854 2462
5855 991
5855 2463
5856 992
5856 2464
5857 993
5857 2465
5858 994
5858 2466
5859 995
5859 2467
5860 996
5860 2468
5861 997
5861 2469
5862 998
5862 2470
5863 999
5863 2471
5864 1000
5864 2472
5865 1001
5865 2473
5866 1002
5866 2474
5867 1003
5867 2475
5868 1004
5868 2476
5869 1005
5869 2477
5870 1006
5870 2478
5871 1007
5871 2479
5872 1008
5872 2480
5873 1009
5873 2481
5874 1010
5874 2482
5875 1011
5875 2483
5876 1012
5876 2484
5877 1013
5877 2485
5878 1014
5878 2486
5879 1015
5879 2487
5880 1016
5880 2488
5881 1017
5881 2489
5882 1018
5882 2490
5883 1019
5883 2491
5884 1020
5884 2492
5885 1021
5885 2493
5886 1022
5886 2494
5887 1023
5887 2495
5888 960
5888 2816
5889 961
5889 2817
5890 962
5890 2818
5891 963
5891 2819
5892 964
5892 2820
5893 965
5893 2821
5894 966
5894 2822
5895 967
5895 2823
5896 968
5896 2824
5897 969
5897 2825
5898 970
5898 2826
5899 971
5899 2827
5900 972
5900 2828
5901 973
5901 2829
5902 974
5902 2830
5903 975
5903 2831
5904 976
5904 2832
5905 977
5905 2833
5906 978
5906 2834
5907 979
5907 2835
5908 980
5908 2836
5909 981
5909 2837
5910 982
5910 2838
5911 983
5911 2839
5912 984
5912 2840
5913 985
5913 2841
5914 986
5914 2842
5915 987
5915 2843
5916 988
5916 2844
5917 989
5917 2845
5918 990
5918 2846
5919 991
5919 2847
5920 992
5920 2848
5921 993
5921 2849
5922 994
5922 2850
5923 995
5923 2851
5924 996
5924 2852
5925 997
5925 2853
5926 998
5926 2854
5927 999
5927 2855
5928 1000
5928 2856
5929 1001
5929 2857
5930 1002
5930 2858
5931 1003
5931 2859
5932 1004
5932 2860
5933 1005
5933 2861
5934 1006
5934 2862
5935 1007
5935 2863
5936 1008
5936 2864
5937 1009
5937 2865
5938 1010
5938 2866
5939 1011
5939 2867
5940 1012
5940 2868
5941 1013
5941 2869
5942 1014
5942 2870
5943 1015
5943 2871
5944 1016
5944 2872
5945 1017
5945 2873
5946 1018
5946 2874
5947 1019
5947 2875
5948 1020
5948 2876
5949 1021
5949 2877
5950 1022
5950 2878
5951 1023
5951 2879
5952 960
5952 3200
5953 961
5953 3201
5954 962
5954 3202
5955 963
5955 3203
5956 964
5956 3204
5957 965
5957 3205
5958 966
5958 3206
5959 967
5959 3207
5960 968
5960 3208
5961 969
5961 3209
5962 970
5962 3210
5963 971
5963 3211
5964 972
5964 3212
5965 973
5965 3213
5966 974
5966 3214
5967 975
5967 3215
5968 976
5968 3216
5969 977
5969 3217
5970 978
5970 3218
5971 979
5971 3219
5972 980
5972 3220
5973 981
5973 3221
5974 982
5974 3222
5975 983
5975 3223
5976 984
5976 3224
5977 985
5977 3225
5978 986
5978 3226
5979 987
5979 3227
5980 988
5980 3228
5981 989
5981 3229
5982 990
5982 3230
5983 991
5983 3231
5984 992
5984 3232
5985 993
5985 3233
5986 994
5986 3234
5987 995
5987 3235
5988 996
5988 3236
5989 997
5989 3237
5990 998
5990 3238
5991 999
5991 3239
5992 1000
5992 3240
5993 1001
5993 3241
5994 1002
5994 3242
5995 1003
5995 3243
5996 1004
5996 3244
5997 1005
5997 3245
5998 1006
5998 3246
5999 1007
5999 3247
6000 1008
6000 3248
6001 1009
6001 3249
6002 1010
6002 3250
6003 1011
6003 3251
6004 1012
6004 3252
6005 1013
6005 3253
6006 1014
6006 3254
6007 1015
6007 3255
6008 1016
6008 3256
6009 1017
6009 3257
6010 1018
6010 3258
6011 1019
6011 3259
6012 1020
6012 3260
6013 1021
6013 3261
6014 1022
6014 3262
6015 1023
6015 3263
6016 960
6016 3584
6017 961
6017 3585
6018 962
6018 3586
6019 963
6019 3587
6020 964
6020 3588
6021 965
6021 3589
6022 966
6022 3590
6023 967
6023 3591
6024 968
6024 3592
6025 969
6025 3593
6026 970
6026 3594
6027 971
6027 3595
6028 972
6028 3596
6029 973
6029 3597
6030 974
6030 3598
6031 975
6031 3599
6032 976
6032 3600
6033 977
6033 3601
6034 978
6034 3602
6035 979
6035 3603
6036 980
6036 3604
6037 981
6037 3605
6038 982
6038 3606
6039 983
6039 3607
6040 984
6040 3608
6041 985
6041 3609
6042 986
6042 3610
6043 987
6043 3611
6044 988
6044 3612
6045 989
6045 3613
6046 990
6046 3614
6047 991
6047 3615
6048 992
6048 3616
6049 993
6049 3617
6050 994
6050 3618
6051 995
6051 3619
6052 996
6052 3620
6053 997
6053 3621
6054 998
6054 3622
6055 999
6055 3623
6056 1000
6056 3624
6057 1001
6057 3625
6058 1002
6058 3626
6059 1003
6059 3627
6060 1004
6060 3628
6061 1005
6061 3629
6062 1006
6062 3630
6063 1007
6063 3631
6064 1008
6064 3632
6065 1009
6065 3633
6066 1010
6066 3634
6067 1011
6067 3635
6068 1012
6068 3636
6069 1013
6069 3637
6070 1014
6070 3638
6071 1015
6071 3639
6072 1016
6072 3640
6073 1017
6073 3641
6074 1018
6074 3642
6075 1019
6075 3643
6076 1020
6076 3644
6077 1021
6077 3645
6078 1022
6078 3646
6079 1023
6079 3647
6080 960
6080 3648
6081 961
6081 3649
6082 962
6082 3650
6083 963
6083 3651
6084 964
6084 3652
6085 965
6085 3653
6086 966
6086 3654
6087 967
6087 3655
6088 968
6088 3656
6089 969
6089 3657
6090 970
6090 3658
6091 971
6091 3659
6092 972
6092 3660
6093 973
6093 3661
6094 974
6094 3662
6095 975
6095 3663
6096 976
6096 3664
6097 977
6097 3665
6098 978
6098 3666
6099 979
6099 3667
6100 980
6100 3668
6101 981
6101 3669
6102 982
6102 3670
6103 983
6103 3671
6104 984
6104 3672
6105 985
6105 3673
6106 986
6106 3674
6107 987
6107 3675
6108 988
6108 3676
6109 989
6109 3677
6110 990
6110 3678
6111 991
6111 3679
6112 992
6112 3680
6113 993
6113 3681
6114 994
6114 3682
6115 995
6115 3683
6116 996
6116 3684
6117 997
6117 3685
6118 998
6118 3686
6119 999
6119 3687
6120 1000
6120 3688
6121 1001
6121 3689
6122 1002
6122 3690
6123 1003
6123 3691
6124 1004
6124 3692
6125 1005
6125 3693
6126 1006
6126 3694
6127 1007
6127 3695
6128 1008
6128 3696
6129 1009
6129 3697
6130 1010
6130 3698
6131 1011
6131 3699
6132 1012
6132 3700
6133 1013
6133 3701
6134 1014
6134 3702
6135 1015
6135 3703
6136 1016
6136 3704
6137 1017
6137 3705
6138 1018
6138 3706
6139 1019
6139 3707
6140 1020
6140 3708
6141 1021
6141 3709
6142 1022
6142 3710
6143 1023
6143 3711
6144 1024
6144 1984
6145 1025
6145 1985
6146 1026
6146 1986
6147 1027
6147 1987
6148 1028
6148 1988
6149 1029
6149 1989
6150 1030
6150 1990
6151 1031
6151 1991
6152 1032
6152 1992
6153 1033
6153 1993
6154 1034
6154 1994
6155 1035
6155 1995
6156 1036
6156 1996
6157 1037
6157 1997
6158 1038
6158 1998
6159 1039
6159 1999
6160 1040
6160 2000
6161 1041
6161 2001
6162 1042
6162 2002
6163 1043
6163 2003
6164 1044
6164 2004
6165 1045
6165 2005
6166 1046
6166 2006
6167 1047
6167 2007
6168 1048
6168 2008
6169 1049
6169 2009
6170 1050
6170 2010
6171 1051
6171 2011
6172 1052
6172 2012
6173 1053
6173 2013
6174 1054
6174 2014
6175 1055
6175 2015
6176 1056
6176 2016
6177 1057
6177 2017
6178 1058
6178 2018
6179 1059
6179 2019
6180 1060
6180 2020
6181 1061
6181 2021
6182 1062
6182 2022
6183 1063
6183 2023
6184 1064
6184 2024
6185 1065
6185 2025
6186 1066
6186 2026
6187 1067
6187 2027
6188 1068
6188 2028
6189 1069
6189 2029
6190 1070
6190 2030
6191 1071
6191 2031
6192 1072
6192 2032
6193 1073
6193 2033
6194 1074
6194 2034
6195 1075
6195 2035
6196 1076
6196 2036
6197 1077
6197 2037
6198 1078
6198 2038
6199 1079
6199 2039
6200 1080
6200 2040
6201 1081
6201 2041
6202 1082
6202 2042
6203 1083
6203 2043
6204 1084
6204 2044
6205 1085
6205 2045
6206 1086
6206 2046
6207 1087
6207 2047
6208 1024
6208 3008
6209 1025
6209 3009
6210 1026
6210 3010
6211 1027
6211 3011
6212 1028
6212 3012
6213 1029
6213 3013
6214 1030
6214 3014
6215 1031
6215 3015
6216 1032
6216 3016
6217 1033
6217 3017
6218 1034
6218 3018
6219 1035
6219 3019
6220 1036
6220 3020
6221 1037
6221 3021
6222 1038
6222 3022
6223 1039
6223 3023
6224 1040
6224 3024
6225 1041
6225 3025
6226 1042
6226 3026
6227 1043
6227 3027
6228 1044
6228 3028
6229 1045
6229 3029
6230 1046
6230 3030
6231 1047
6231 3031
6232 1048
6232 3032
6233 1049
6233 3033
6234 1050
6234 3034
6235 1051
6235 3035
6236 1052
6236 3036
6237 1053
6237 3037
6238 1054
6238 3038
6239 1055
6239 3039
6240 1056
6240 3040
6241 1057
6241 3041
6242 1058
6242 3042
6243 1059
6243 3043
6244 1060
6244 3044
6245 1061
6245 3045
6246 1062
6246 3046
6247 1063
6247 3047
6248 1064
6248 3048
6249 1065
6249 3049
6250 1066
6250 3050
6251 1067
6251 3051
6252 1068
6252 3052
6253 1069
6253 3053
6254 1070
6254 3054
6255 1071
6255 3055
6256 1072
6256 3056
6257 1073
6257 3057
6258 1074
6258 3058
6259 1075
6259 3059
6260 1076
6260 3060
6261 1077
6261 3061
6262 1078
6262 3062
6263 1079
6263 3063
6264 1080
6264 3064
6265 1081
6265 3065
6266 1082
6266 3066
6267 1083
6267 3067
6268 1084
6268 3068
6269 1085
6269 3069
6270 1086
6270 3070
6271 1087
6271 3071
6272 1024
6272 3072
6273 1025
6273 3073
6274 1026
6274 3074
6275 1027
6275 3075
6276 1028
6276 3076
6277 1029
6277 3077
6278 1030
6278 3078
6279 1031
6279 3079
6280 1032
6280 3080
6281 1033
6281 3081
6282 1034
6282 3082
6283 1035
6283 3083
6284 1036
6284 3084
6285 1037
6285 3085
6286 1038
6286 3086
6287 1039
6287 3087
6288 1040
6288 3088
6289 1041
6289 3089
6290 1042
6290 3090
6291 1043
6291 3091
6292 1044
6292 3092
6293 1045
6293 3093
6294 1046
6294 3094
6295 1047
6295 3095
6296 1048
6296 3096
6297 1049
6297 3097
6298 1050
6298 3098
6299 1051
6299 3099
6300 1052
6300 3100
6301 1053
6301 3101
6302 1054
6302 3102
6303 1055
6303 3103
6304 1056
6304 3104
6305 1057
6305 3105
6306 1058
6306 3106
6307 1059
6307 3107
6308 1060
6308 3108
6309 1061
6309 3109
6310 1062
6310 3110
6311 1063
6311 3111
6312 1064
6312 3112
6313 1065
6313 3113
6314 1066
6314 3114
6315 1067
6315 3115
6316 1068
6316 3116
6317 1069
6317 3117
6318 1070
6318 3118
6319 1071
6319 3119
6320 1072
6320 3120
6321 1073
6321 3121
6322 1074
6322 3122
6323 1075
6323 3123
6324 1076
6324 3124
6325 1077
6325 3125
6326 1078
6326 3126
6327 1079
6327 3127
6328 1080
6328 3128
6329 1081
6329 3129
6330 1082
6330 3130
6331 1083
6331 3131
6332 1084
6332 3132
6333 1085
6333 3133
6334 1086
6334 3134
6335 1087
6335 3135
6336 1024
6336 3136
6337 1025
6337 3137
6338 1026
6338 3138
6339 1027
6339 3139
6340 1028
6340 3140
6341 1029
6341 3141
6342 1030
6342 3142
6343 1031
6343 3143
6344 1032
6344 3144
6345 1033
6345 3145
6346 1034
6346 3146
6347 1035
6347 3147
6348 1036
6348 3148
6349 1037
6349 3149
6350 1038
6350 3150
6351 1039
6351 3151
6352 1040
6352 3152
6353 1041
6353 3153
6354 1042
6354 3154
6355 1043
6355 3155
6356 1044
6356 3156
6357 1045
6357 3157
6358 1046
6358 3158
6359 1047
6359 3159
6360 1048
6360 3160
6361 1049
6361 3161
6362 1050
6362 3162
6363 1051
6363 3163
6364 1052
6364 3164
6365 1053
6365 3165
6366 1054
6366 3166
6367 1055
6367 3167
6368 1056
6368 3168
6369 1057
6369 3169
6370 1058
6370 3170
6371 1059
6371 3171
6372 1060
6372 3172
6373 1061
6373 3173
6374 1062
6374 3174
6375 1063
6375 3175
6376 1064
6376 3176
6377 1065
6377 3177
6378 1066
6378 3178
6379 1067
6379 3179
6380 1068
6380 3180
6381 1069
6381 3181
6382 1070
6382 3182
6383 1071
6383 3183
6384 1072
6384 3184
6385 1073
6385 3185
6386 1074
6386 3186
6387 1075
6387 3187
6388 1076
6388 3188
6389 1077
6389 3189
6390 1078
6390 3190
6391 1079
6391 3191
6392 1080
6392 3192
6393 1081
6393 3193
6394 1082
6394 3194
6395 1083
6395 3195
6396 1084
6396 3196
6397 1085
6397 3197
6398 1086
6398 3198
6399 1087
6399 3199
6400 1024
6400 3200
6401 1025
6401 3201
6402 1026
6402 3202
6403 1027
6403 3203
6404 1028
6404 3204
6405 1029
6405 3205
6406 1030
6406 3206
6407 1031
6407 3207
6408 1032
6408 3208
6409 1033
6409 3209
6410 1034
6410 3210
6411 1035
6411 3211
6412 1036
6412 3212
6413 1037
6413 3213
6414 1038
6414 3214
6415 1039
6415 3215
6416 1040
6416 3216
6417 1041
6417 3217
6418 1042
6418 3218
6419 1043
6419 3219
6420 1044
6420 3220
6421 1045
6421 3221
6422 1046
6422 3222
6423 1047
6423 3223
6424 1048
6424 3224
6425 1049
6425 3225
6426 1050
6426 3226
6427 1051
6427 3227
6428 1052
6428 3228
6429 1053
6429 3229
6430 1054
6430 3230
6431 1055
6431 3231
6432 1056
6432 3232
6433 1057
6433 3233
6434 1058
6434 3234
6435 1059
6435 3235
6436 1060
6436 3236
6437 1061
6437 3237
6438 1062
6438 3238
6439 1063
6439 3239
6440 1064
6440 3240
6441 1065
6441 3241
6442 1066
6442 3242
6443 1067
6443 3243
6444 1068
6444 3244
6445 1069
6445 3245
6446 1070
6446 3246
6447 1071
6447 3247
6448 1072
6448 3248
6449 1073
6449 3249
6450 1074
6450 3250
6451 1075
6451 3251
6452 1076
6452 3252
6453 1077
6453 3253
6454 1078
6454 3254
6455 1079
6455 3255
6456 1080
6456 3256
6457 1081
6457 3257
6458 1082
6458 3258
6459 1083
6459 3259
6460 1084
6460 3260
6461 1085
6461 3261
6462 1086
6462 3262
6463 1087
6463 3263
6464 1024
6464 3264
6465 1025
6465 3265
6466 1026
6466 3266
6467 1027
6467 3267
6468 1028
6468 3268
6469 1029
6469 3269
6470 1030
6470 3270
6471 1031
6471 3271
6472 1032
6472 3272
6473 1033
6473 3273
6474 1034
6474 3274
6475 1035
6475 3275
6476 1036
6476 3276
6477 1037
6477 3277
6478 1038
6478 3278
6479 1039
6479 3279
6480 1040
6480 3280
6481 1041
6481 3281
6482 1042
6482 3282
6483 1043
6483 3283
6484 1044
6484 3284
6485 1045
6485 3285
6486 1046
6486 3286
6487 1047
6487 3287
6488 1048
6488 3288
6489 1049
6489 3289
6490 1050
6490 3290
6491 1051
6491 3291
6492 1052
6492 3292
6493 1053
6493 3293
6494 1054
6494 3294
6495 1055
6495 3295
6496 1056
6496 3296
6497 1057
6497 3297
6498 1058
6498 3298
6499 1059
6499 3299
6500 1060
6500 3300
6501 1061
6501 3301
6502 1062
6502 3302
6503 1063
6503 3303
6504 1064
6504 3304
6505 1065
6505 3305
6506 1066
6506 3306
6507 1067
6507 3307
6508 1068
6508 3308
6509 1069
6509 3309
6510 1070
6510 3310
6511 1071
6511 3311
6512 1072
6512 3312
6513 1073
6513 3313
6514 1074
6514 3314
6515 1075
6515 3315
6516 1076
6516 3316
6517 1077
6517 3317
6518 1078
6518 3318
6519 1079
6519 3319
6520 1080
6520 3320
6521 1081
6521 3321
6522 1082
6522 3322
6523 1083
6523 3323
6524 1084
6524 3324
6525 1085
6525 3325
6526 1086
6526 3326
6527 1087
6527 3327
6528 1088
6528 2240
6529 1089
6529 2241
6530 1090
6530 2242
6531 1091
6531 2243
6532 1092
6532 2244
6533 1093
6533 2245
6534 1094
6534 2246
6535 1095
6535 2247
6536 1096
6536 2248
6537 1097
6537 2249
6538 1098
6538 2250
6539 1099
6539 2251
6540 1100
6540 2252
6541 1101
6541 2253
6542 1102
6542 2254
6543 1103
6543 2255
6544 1104
6544 2256
6545 1105
6545 2257
6546 1106
6546 2258
6547 1107
6547 2259
6548 1108
6548 2260
6549 1109
6549 2261
6550 1110
6550 2262
6551 1111
6551 2263
6552 1112
6552 2264
6553 1113
6553 2265
6554 1114
6554 2266
6555 1115
6555 2267
6556 1116
6556 2268
6557 1117
6557 2269
6558 1118
6558 2270
6559 1119
6559 2271
6560 1120
6560 2272
6561 1121
6561 2273
6562 1122
6562 2274
6563 1123
6563 2275
6564 1124
6564 2276
6565 1125
6565 2277
6566 1126
6566 2278
6567 1127
6567 2279
6568 1128
6568 2280
6569 1129
6569 2281
6570 1130
6570 2282
6571 1131
6571 2283
6572 1132
6572 2284
6573 1133
6573 2285
6574 1134
6574 2286
6575 1135
6575 2287
6576 1136
6576 2288
6577 1137
6577 2289
6578 1138
6578 2290
6579 1139
6579 2291
6580 1140
6580 2292
6581 1141
6581 2293
6582 1142
6582 2294
6583 1143
6583 2295
6584 1144
6584 2296
6585 1145
6585 2297
6586 1146
6586 2298
6587 1147
6587 2299
6588 1148
6588 2300
6589 1149
6589 2301
6590 1150
6590 2302
6591 1151
6591 2303
6592 1088
6592 2624
6593 1089
6593 2625
6594 1090
6594 2626
6595 1091
6595 2627
6596 1092
6596 2628
6597 1093
6597 2629
6598 1094
6598 2630
6599 1095
6599 2631
6600 1096
6600 2632
6601 1097
6601 2633
6602 1098
6602 2634
6603 1099
6603 2635
6604 1100
6604 2636
6605 1101
6605 2637
6606 1102
6606 2638
6607 1103
6607 2639
6608 1104
6608 2640
6609 1105
6609 2641
6610 1106
6610 2642
6611 1107
6611 2643
6612 1108
6612 2644
6613 1109
6613 2645
6614 1110
6614 2646
6615 1111
6615 2647
6616 1112
6616 2648
6617 1113
6617 2649
6618 1114
6618 2650
6619 1115
6619 2651
6620 1116
6620 2652
6621 1117
6621 2653
6622 1118
6622 2654
6623 1119
6623 2655
6624 1120
6624 2656
6625 1121
6625 2657
6626 1122
6626 2658
6627 1123
6627 2659
6628 1124
6628 2660
6629 1125
6629 2661
6630 1126
6630 2662
6631 1127
6631 2663
6632 1128
6632 2664
6633 1129
6633 2665
6634 1130
6634 2666
6635 1131
6635 2667
6636 1132
6636 2668
6637 1133
6637 2669
6638 1134
6638 2670
6639 1135
6639 2671
6640 1136
6640 2672
6641 1137
6641 2673
6642 1138
6642 2674
6643 1139
6643 2675
6644 1140
6644 2676
6645 1141
6645 2677
6646 1142
6646 2678
6647 1143
6647 2679
6648 1144
6648 2680
6649 1145
6649 2681
6650 1146
6650 2682
6651 1147
6651 2683
6652 1148
6652 2684
6653 1149
6653 2685
6654 1150
6654 2686
6655 1151
6655 2687
6656 1088
6656 2816
6657 1089
6657 2817
6658 1090
6658 2818
6659 1091
6659 2819
6660 1092
6660 2820
6661 1093
6661 2821
6662 1094
6662 2822
6663 1095
6663 2823
6664 1096
6664 2824
6665 1097
6665 2825
6666 1098
6666 2826
6667 1099
6667 2827
6668 1100
6668 2828
6669 1101
6669 2829
6670 1102
6670 2830
6671 1103
6671 2831
6672 1104
6672 2832
6673 1105
6673 2833
6674 1106
6674 2834
6675 1107
6675 2835
6676 1108
6676 2836
6677 1109
6677 2837
6678 1110
6678 2838
6679 1111
6679 2839
6680 1112
6680 2840
6681 1113
6681 2841
6682 1114
6682 2842
6683 1115
6683 2843
6684 1116
6684 2844
6685 1117
6685 2845
6686 1118
6686 2846
6687 1119
6687 2847
6688 1120
6688 2848
6689 1121
6689 2849
6690 1122
6690 2850
6691 1123
6691 2851
6692 1124
6692 2852
6693 1125
6693 2853
6694 1126
6694 2854
6695 1127
6695 2855
6696 1128
6696 2856
6697 1129
6697 2857
6698 1130
6698 2858
6699 1131
6699 2859
6700 1132
6700 2860
6701 1133
6701 2861
6702 1134
6702 2862
6703 1135
6703 2863
6704 1136
6704 2864
6705 1137
6705 2865
6706 1138
6706 2866
6707 1139
6707 2867
6708 1140
6708 2868
6709 1141
6709 2869
6710 1142
6710 2870
6711 1143
6711 2871
6712 1144
6712 2872
6713 1145
6713 2873
6714 1146
6714 2874
6715 1147
6715 2875
6716 1148
6716 2876
6717 1149
6717 2877
6718 1150
6718 2878
6719 1151
6719 2879
6720 1088
6720 3008
6721 1089
6721 3009
6722 1090
6722 3010
6723 1091
6723 3011
6724 1092
6724 3012
6725 1093
6725 3013
6726 1094
6726 3014
6727 1095
6727 3015
6728 1096
6728 3016
6729 1097
6729 3017
6730 1098
6730 3018
6731 1099
6731 3019
6732 1100
6732 3020
6733 1101
6733 3021
6734 1102
6734 3022
6735 1103
6735 3023
6736 1104
6736 3024
6737 1105
6737 3025
6738 1106
6738 3026
6739 1107
6739 3027
6740 1108
6740 3028
6741 1109
6741 3029
6742 1110
6742 3030
6743 1111
6743 3031
6744 1112
6744 3032
6745 1113
6745 3033
6746 1114
6746 3034
6747 1115
6747 3035
6748 1116
6748 3036
6749 1117
6749 3037
6750 1118
6750 3038
6751 1119
6751 3039
6752 1120
6752 3040
6753 1121
6753 3041
6754 1122
6754 3042
6755 1123
6755 3043
6756 1124
6756 3044
6757 1125
6757 3045
6758 1126
6758 3046
6759 1127
6759 3047
6760 1128
6760 3048
6761 1129
6761 3049
6762 1130
6762 3050
6763 1131
6763 3051
6764 1132
6764 3052
6765 1133
6765 3053
6766 1134
6766 3054
6767 1135
6767 3055
6768 1136
6768 3056
6769 1137
6769 3057
6770 1138
6770 3058
6771 1139
6771 3059
6772 1140
6772 3060
6773 1141
6773 3061
6774 1142
6774 3062
6775 1143
6775 3063
6776 1144
6776 3064
6777 1145
6777 3065
6778 1146
6778 3066
6779 1147
6779 3067
6780 1148
6780 3068
6781 1149
6781 3069
6782 1150
6782 3070
6783 1151
6783 3071
6784 1088
6784 3520
6785 1089
6785 3521
6786 1090
6786 3522
6787 1091
6787 3523
6788 1092
6788 3524
6789 1093
6789 3525
6790 1094
6790 3526
6791 1095
6791 3527
6792 1096
6792 3528
6793 1097
6793 3529
6794 1098
6794 3530
6795 1099
6795 3531
6796 1100
6796 3532
6797 1101
6797 3533
6798 1102
6798 3534
6799 1103
6799 3535
6800 1104
6800 3536
6801 1105
6801 3537
6802 1106
6802 3538
6803 1107
6803 3539
6804 1108
6804 3540
6805 1109
6805 3541
6806 1110
6806 3542
6807 1111
6807 3543
6808 1112
6808 3544
6809 1113
6809 3545
6810 1114
6810 3546
6811 1115
6811 3547
6812 1116
6812 3548
6813 1117
6813 3549
6814 1118
6814 3550
6815 1119
6815 3551
6816 1120
6816 3552
6817 1121
6817 3553
6818 1122
6818 3554
6819 1123
6819 3555
6820 1124
6820 3556
6821 1125
6821 3557
6822 1126
6822 3558
6823 1127
6823 3559
6824 1128
6824 3560
6825 1129
6825 3561
6826 1130
6826 3562
6827 1131
6827 3563
6828 1132
6828 3564
6829 1133
6829 3565
6830 1134
6830 3566
6831 1135
6831 3567
6832 1136
6832 3568
6833 1137
6833 3569
6834 1138
6834 3570
6835 1139
6835 3571
6836 1140
6836 3572
6837 1141
6837 3573
6838 1142
6838 3574
6839 1143
6839 3575
6840 1144
6840 3576
6841 1145
6841 3577
6842 1146
6842 3578
6843 1147
6843 3579
6844 1148
6844 3580
6845 1149
6845 3581
6846 1150
6846 3582
6847 1151
6847 3583
6848 1088
6848 3712
6849 1089
6849 3713
6850 1090
6850 3714
6851 1091
6851 3715
6852 1092
6852 3716
6853 1093
6853 3717
6854 1094
6854 3718
6855 1095
6855 3719
6856 1096
6856 3720
6857 1097
6857 3721
6858 1098
6858 3722
6859 1099
6859 3723
6860 1100
6860 3724
6861 1101
6861 3725
6862 1102
6862 3726
6863 1103
6863 3727
6864 1104
6864 3728
6865 1105
6865 3729
6866 1106
6866 3730
6867 1107
6867 3731
6868 1108
6868 3732
6869 1109
6869 3733
6870 1110
6870 3734
6871 1111
6871 3735
6872 1112
6872 3736
6873 1113
6873 3737
6874 1114
6874 3738
6875 1115
6875 3739
6876 1116
6876 3740
6877 1117
6877 3741
6878 1118
6878 3742
6879 1119
6879 3743
6880 1120
6880 3744
6881 1121
6881 3745
6882 1122
6882 3746
6883 1123
6883 3747
6884 1124
6884 3748
6885 1125
6885 3749
6886 1126
6886 3750
6887 1127
6887 3751
6888 1128
6888 3752
6889 1129
6889 3753
6890 1130
6890 3754
6891 1131
6891 3755
6892 1132
6892 3756
6893 1133
6893 3757
6894 1134
6894 3758
6895 1135
6895 3759
6896 1136
6896 3760
6897 1137
6897 3761
6898 1138
6898 3762
6899 1139
6899 3763
6900 1140
6900 3764
6901 1141
6901 3765
6902 1142
6902 3766
6903 1143
6903 3767
6904 1144
6904 3768
6905 1145
6905 3769
6906 1146
6906 3770
6907 1147
6907 3771
6908 1148
6908 3772
6909 1149
6909 3773
6910 1150
6910 3774
6911 1151
6911 3775
6912 1152
6912 2304
6913 1153
6913 2305
6914 1154
6914 2306
6915 1155
6915 2307
6916 1156
6916 2308
6917 1157
6917 2309
6918 1158
6918 2310
6919 1159
6919 2311
6920 1160
6920 2312
6921 1161
6921 2313
6922 1162
6922 2314
6923 1163
6923 2315
6924 1164
6924 2316
6925 1165
6925 2317
6926 1166
6926 2318
6927 1167
6927 2319
6928 1168
6928 2320
6929 1169
6929 2321
6930 1170
6930 2322
6931 1171
6931 2323
6932 1172
6932 2324
6933 1173
6933 2325
6934 1174
6934 2326
6935 1175
6935 2327
6936 1176
6936 2328
6937 1177
6937 2329
6938 1178
6938 2330
6939 1179
6939 2331
6940 1180
6940 2332
6941 1181
6941 2333
6942 1182
6942 2334
6943 1183
6943 2335
6944 1184
6944 2336
6945 1185
6945 2337
6946 1186
6946 2338
6947 1187
6947 2339
6948 1188
6948 2340
6949 1189
6949 2341
6950 1190
6950 2342
6951 1191
6951 2343
6952 1192
6952 2344
6953 1193
6953 2345
6954 1194
6954 2346
6955 1195
6955 2347
6956 1196
6956 2348
6957 1197
6957 2349
6958 1198
6958 2350
6959 1199
6959 2351
6960 1200
6960 2352
6961 1201
6961 2353
6962 1202
6962 2354
6963 1203
6963 2355
6964 1204
6964 2356
6965 1205
6965 2357
6966 1206
6966 2358
6967 1207
6967 2359
6968 1208
6968 2360
6969 1209
6969 2361
6970 1210
6970 2362
6971 1211
6971 2363
6972 1212
6972 2364
6973 1213
6973 2365
6974 1214
6974 2366
6975 1215
6975 2367
6976 1152
6976 2496
6977 1153
6977 2497
6978 1154
6978 2498
6979 1155
6979 2499
6980 1156
6980 2500
6981 1157
6981 2501
6982 1158
6982 2502
6983 1159
6983 2503
6984 1160
6984 2504
6985 1161
6985 2505
6986 1162
6986 2506
6987 1163
6987 2507
6988 1164
6988 2508
6989 1165
6989 2509
6990 1166
6990 2510
6991 1167
6991 2511
6992 1168
6992 2512
6993 1169
6993 2513
6994 1170
6994 2514
6995 1171
6995 2515
6996 1172
6996 2516
6997 1173
6997 2517
6998 1174
6998 2518
6999 1175
6999 2519
7000 1176
7000 2520
7001 1177
7001 2521
7002 1178
7002 2522
7003 1179
7003 2523
7004 1180
7004 2524
7005 1181
7005 2525
7006 1182
7006 2526
7007 1183
7007 2527
7008 1184
7008 2528
7009 1185
7009 2529
7010 1186
7010 2530
7011 1187
7011 2531
7012 1188
7012 2532
7013 1189
7013 2533
7014 1190
7014 2534
7015 1191
7015 2535
7016 1192
7016 2536
7017 1193
7017 2537
7018 1194
7018 2538
7019 1195
7019 2539
7020 1196
7020 2540
7021 1197
7021 2541
7022 1198
7022 2542
7023 1199
7023 2543
7024 1200
7024 2544
7025 1201
7025 2545
7026 1202
7026 2546
7027 1203
7027 2547
7028 1204
7028 2548
7029 1205
7029 2549
7030 1206
7030 2550
7031 1207
7031 2551
7032 1208
7032 2552
7033 1209
7033 2553
7034 1210
7034 2554
7035 1211
7035 2555
7036 1212
7036 2556
7037 1213
7037 2557
7038 1214
7038 2558
7039 1215
7039 2559
7040 1152
7040 2752
7041 1153
7041 2753
7042 1154
7042 2754
7043 1155
7043 2755
7044 1156
7044 2756
7045 1157
7045 2757
7046 1158
7046 2758
7047 1159
7047 2759
7048 1160
7048 2760
7049 1161
7049 2761
7050 1162
7050 2762
7051 1163
7051 2763
7052 1164
7052 2764
7053 1165
7053 2765
7054 1166
7054 2766
7055 1167
7055 2767
7056 1168
7056 2768
7057 1169
7057 2769
7058 1170
7058 2770
7059 1171
7059 2771
7060 1172
7060 2772
7061 1173
7061 2773
7062 1174
7062 2774
7063 1175
7063 2775
7064 1176
7064 2776
7065 1177
7065 2777
7066 1178
7066 2778
7067 1179
7067 2779
7068 1180
7068 2780
7069 1181
7069 2781
7070 1182
7070 2782
7071 1183
7071 2783
7072 1184
7072 2784
7073 1185
7073 2785
7074 1186
7074 2786
7075 1187
7075 2787
7076 1188
7076 2788
7077 1189
7077 2789
7078 1190
7078 2790
7079 1191
7079 2791
7080 1192
7080 2792
7081 1193
7081 2793
7082 1194
7082 2794
7083 1195
7083 2795
7084 1196
7084 2796
7085 1197
7085 2797
7086 1198
7086 2798
7087 1199
7087 2799
7088 1200
7088 2800
7089 1201
7089 2801
7090 1202
7090 2802
7091 1203
7091 2803
7092 1204
7092 2804
7093 1205
7093 2805
7094 1206
7094 2806
7095 1207
7095 2807
7096 1208
7096 2808
7097 1209
7097 2809
7098 1210
7098 2810
7099 1211
7099 2811
7100 1212
7100 2812
7101 1213
7101 2813
7102 1214
7102 2814
7103 1215
7103 2815
7104 1152
7104 3008
7105 1153
7105 3009
7106 1154
7106 3010
7107 1155
7107 3011
7108 1156
7108 3012
7109 1157
7109 3013
7110 1158
7110 3014
7111 1159
7111 3015
7112 1160
7112 3016
7113 1161
7113 3017
7114 1162
7114 3018
7115 1163
7115 3019
7116 1164
7116 3020
7117 1165
7117 3021
7118 1166
7118 3022
7119 1167
7119 3023
7120 1168
7120 3024
7121 1169
7121 3025
7122 1170
7122 3026
7123 1171
7123 3027
7124 1172
7124 3028
7125 1173
7125 3029
7126 1174
7126 3030
7127 1175
7127 3031
7128 1176
7128 3032
7129 1177
7129 3033
7130 1178
7130 3034
7131 1179
7131 3035
7132 1180
7132 3036
7133 1181
7133 3037
7134 1182
7134 3038
7135 1183
7135 3039
7136 1184
7136 3040
7137 1185
7137 3041
7138 1186
7138 3042
7139 1187
7139 3043
7140 1188
7140 3044
7141 1189
7141 3045
7142 1190
7142 3046
7143 1191
7143 3047
7144 1192
7144 3048
7145 1193
7145 3049
7146 1194
7146 3050
7147 1195
7147 3051
7148 1196
7148 3052
7149 1197
7149 3053
7150 1198
7150 3054
7151 1199
7151 3055
7152 1200
7152 3056
7153 1201
7153 3057
7154 1202
7154 3058
7155 1203
7155 3059
7156 1204
7156 3060
7157 1205
7157 3061
7158 1206
7158 3062
7159 1207
7159 3063
7160 1208
7160 3064
7161 1209
7161 3065
7162 1210
7162 3066
7163 1211
7163 3067
7164 1212
7164 3068
7165 1213
7165 3069
7166 1214
7166 3070
7167 1215
7167 3071
7168 1152
7168 3584
7169 1153
7169 3585
7170 1154
7170 3586
7171 1155
7171 3587
7172 1156
7172 3588
7173 1157
7173 3589
7174 1158
7174 3590
7175 1159
7175 3591
7176 1160
7176 3592
7177 1161
7177 3593
7178 1162
7178 3594
7179 1163
7179 3595
7180 1164
7180 3596
7181 1165
7181 3597
7182 1166
7182 3598
7183 1167
7183 3599
7184 1168
7184 3600
7185 1169
7185 3601
7186 1170
7186 3602
7187 1171
7187 3603
7188 1172
7188 3604
7189 1173
7189 3605
7190 1174
7190 3606
7191 1175
7191 3607
7192 1176
7192 3608
7193 1177
7193 3609
7194 1178
7194 3610
7195 1179
7195 3611
7196 1180
7196 3612
7197 1181
7197 3613
7198 1182
7198 3614
7199 1183
7199 3615
7200 1184
7200 3616
7201 1185
7201 3617
7202 1186
7202 3618
7203 1187
7203 3619
7204 1188
7204 3620
7205 1189
7205 3621
7206 1190
7206 3622
7207 1191
7207 3623
7208 1192
7208 3624
7209 1193
7209 3625
7210 1194
7210 3626
7211 1195
7211 3627
7212 1196
7212 3628
7213 1197
7213 3629
7214 1198
7214 3630
7215 1199
7215 3631
7216 1200
7216 3632
7217 1201
7217 3633
7218 1202
7218 3634
7219 1203
7219 3635
7220 1204
7220 3636
7221 1205
7221 3637
7222 1206
7222 3638
7223 1207
7223 3639
7224 1208
7224 3640
7225 1209
7225 3641
7226 1210
7226 3642
7227 1211
7227 3643
7228 1212
7228 3644
7229 1213
7229 3645
7230 1214
7230 3646
7231 1215
7231 3647
7232 1152
7232 3840
7233 1153
7233 3841
7234 1154
7234 3842
7235 1155
7235 3843
7236 1156
7236 3844
7237 1157
7237 3845
7238 1158
7238 3846
7239 1159
7239 3847
7240 1160
7240 3848
7241 1161
7241 3849
7242 1162
7242 3850
7243 1163
7243 3851
7244 1164
7244 3852
7245 1165
7245 3853
7246 1166
7246 3854
7247 1167
7247 3855
7248 1168
7248 3856
7249 1169
7249 3857
7250 1170
7250 3858
7251 1171
7251 3859
7252 1172
7252 3860
7253 1173
7253 3861
7254 1174
7254 3862
7255 1175
7255 3863
7256 1176
7256 3864
7257 1177
7257 3865
7258 1178
7258 3866
7259 1179
7259 3867
7260 1180
7260 3868
7261 1181
7261 3869
7262 1182
7262 3870
7263 1183
7263 3871
7264 1184
7264 3872
7265 1185
7265 3873
7266 1186
7266 3874
7267 1187
7267 3875
7268 1188
7268 3876
7269 1189
7269 3877
7270 1190
7270 3878
7271 1191
7271 3879
7272 1192
7272 3880
7273 1193
7273 3881
7274 1194
7274 3882
7275 1195
7275 3883
7276 1196
7276 3884
7277 1197
7277 3885
7278 1198
7278 3886
7279 1199
7279 3887
7280 1200
7280 3888
7281 1201
7281 3889
7282 1202
7282 3890
7283 1203
7283 3891
7284 1204
7284 3892
7285 1205
7285 3893
7286 1206
7286 3894
7287 1207
7287 3895
7288 1208
7288 3896
7289 1209
7289 3897
7290 1210
7290 3898
7291 1211
7291 3899
7292 1212
7292 3900
7293 1213
7293 3901
7294 1214
7294 3902
7295 1215
7295 3903
7296 1216
7296 2112
7297 1217
7297 2113
7298 1218
7298 2114
7299 1219
7299 2115
7300 1220
7300 2116
7301 1221
7301 2117
7302 1222
7302 2118
7303 1223
7303 2119
7304 1224
7304 2120
7305 1225
7305 2121
7306 1226
7306 2122
7307 1227
7307 2123
7308 1228
7308 2124
7309 1229
7309 2125
7310 1230
7310 2126
7311 1231
7311 2127
7312 1232
7312 2128
7313 1233
7313 2129
7314 1234
7314 2130
7315 1235
7315 2131
7316 1236
7316 2132
7317 1237
7317 2133
7318 1238
7318 2134
7319 1239
7319 2135
7320 1240
7320 2136
7321 1241
7321 2137
7322 1242
7322 2138
7323 1243
7323 2139
7324 1244
7324 2140
7325 1245
7325 2141
7326 1246
7326 2142
7327 1247
7327 2143
7328 1248
7328 2144
7329 1249
7329 2145
7330 1250
7330 2146
7331 1251
7331 2147
7332 1252
7332 2148
7333 1253
7333 2149
7334 1254
7334 2150
7335 1255
7335 2151
7336 1256
7336 2152
7337 1257
7337 2153
7338 1258
7338 2154
7339 1259
7339 2155
7340 1260
7340 2156
7341 1261
7341 2157
7342 1262
7342 2158
7343 1263
7343 2159
7344 1264
7344 2160
7345 1265
7345 2161
7346 1266
7346 2162
7347 1267
7347 2163
7348 1268
7348 2164
7349 1269
7349 2165
7350 1270
7350 2166
7351 1271
7351 2167
7352 1272
7352 2168
7353 1273
7353 2169
7354 1274
7354 2170
7355 1275
7355 2171
7356 1276
7356 2172
7357 1277
7357 2173
7358 1278
7358 2174
7359 1279
7359 2175
7360 1216
7360 2560
7361 1217
7361 2561
7362 1218
7362 2562
7363 1219
7363 2563
7364 1220
7364 2564
7365 1221
7365 2565
7366 1222
7366 2566
7367 1223
7367 2567
7368 1224
7368 2568
7369 1225
7369 2569
7370 1226
7370 2570
7371 1227
7371 2571
7372 1228
7372 2572
7373 1229
7373 2573
7374 1230
7374 2574
7375 1231
7375 2575
7376 1232
7376 2576
7377 1233
7377 2577
7378 1234
7378 2578
7379 1235
7379 2579
7380 1236
7380 2580
7381 1237
7381 2581
7382 1238
7382 2582
7383 1239
7383 2583
7384 1240
7384 2584
7385 1241
7385 2585
7386 1242
7386 2586
7387 1243
7387 2587
7388 1244
7388 2588
7389 1245
7389 2589
7390 1246
7390 2590
7391 1247
7391 2591
7392 1248
7392 2592
7393 1249
7393 2593
7394 1250
7394 2594
7395 1251
7395 2595
7396 1252
7396 2596
7397 1253
7397 2597
7398 1254
7398 2598
7399 1255
7399 2599
7400 1256
7400 2600
7401 1257
7401 2601
7402 1258
7402 2602
7403 1259
7403 2603
7404 1260
7404 2604
7405 1261
7405 2605
7406 1262
7406 2606
7407 1263
7407 2607
7408 1264
7408 2608
7409 1265
7409 2609
7410 1266
7410 2610
7411 1267
7411 2611
7412 1268
7412 2612
7413 1269
7413 2613
7414 1270
7414 2614
7415 1271
7415 2615
7416 1272
7416 2616
7417 1273
7417 2617
7418 1274
7418 2618
7419 1275
7419 2619
7420 1276
7420 2620
7421 1277
7421 2621
7422 1278
7422 2622
7423 1279
7423 2623
7424 1216
7424 2944
7425 1217
7425 2945
7426 1218
7426 2946
7427 1219
7427 2947
7428 1220
7428 2948
7429 1221
7429 2949
7430 1222
7430 2950
7431 1223
7431 2951
7432 1224
7432 2952
7433 1225
7433 2953
7434 1226
7434 2954
7435 1227
7435 2955
7436 1228
7436 2956
7437 1229
7437 2957
7438 1230
7438 2958
7439 1231
7439 2959
7440 1232
7440 2960
7441 1233
7441 2961
7442 1234
7442 2962
7443 1235
7443 2963
7444 1236
7444 2964
7445 1237
7445 2965
7446 1238
7446 2966
7447 1239
7447 2967
7448 1240
7448 2968
7449 1241
7449 2969
7450 1242
7450 2970
7451 1243
7451 2971
7452 1244
7452 2972
7453 1245
7453 2973
7454 1246
7454 2974
7455 1247
7455 2975
7456 1248
7456 2976
7457 1249
7457 2977
7458 1250
7458 2978
7459 1251
7459 2979
7460 1252
7460 2980
7461 1253
7461 2981
7462 1254
7462 2982
7463 1255
7463 2983
7464 1256
7464 2984
7465 1257
7465 2985
7466 1258
7466 2986
7467 1259
7467 2987
7468 1260
7468 2988
7469 1261
7469 2989
7470 1262
7470 2990
7471 1263
7471 2991
7472 1264
7472 2992
7473 1265
7473 2993
7474 1266
7474 2994
7475 1267
7475 2995
7476 1268
7476 2996
7477 1269
7477 2997
7478 1270
7478 2998
7479 1271
7479 2999
7480 1272
7480 3000
7481 1273
7481 3001
7482 1274
7482 3002
7483 1275
7483 3003
7484 1276
7484 3004
7485 1277
7485 3005
7486 1278
7486 3006
7487 1279
7487 3007
7488 1216
7488 3008
7489 1217
7489 3009
7490 1218
7490 3010
7491 1219
7491 3011
7492 1220
7492 3012
7493 1221
7493 3013
7494 1222
7494 3014
7495 1223
7495 3015
7496 1224
7496 3016
7497 1225
7497 3017
7498 1226
7498 3018
7499 1227
7499 3019
7500 1228
7500 3020
7501 1229
7501 3021
7502 1230
7502 3022
7503 1231
7503 3023
7504 1232
7504 3024
7505 1233
7505 3025
7506 1234
7506 3026
7507 1235
7507 3027
7508 1236
7508 3028
7509 1237
7509 3029
7510 1238
7510 3030
7511 1239
7511 3031
7512 1240
7512 3032
7513 1241
7513 3033
7514 1242
7514 3034
7515 1243
7515 3035
7516 1244
7516 3036
7517 1245
7517 3037
7518 1246
7518 3038
7519 1247
7519 3039
7520 1248
7520 3040
7521 1249
7521 3041
7522 1250
7522 3042
7523 1251
7523 3043
7524 1252
7524 3044
7525 1253
7525 3045
7526 1254
7526 3046
7527 1255
7527 3047
7528 1256
7528 3048
7529 1257
7529 3049
7530 1258
7530 3050
7531 1259
7531 3051
7532 1260
7532 3052
7533 1261
7533 3053
7534 1262
7534 3054
7535 1263
7535 3055
7536 1264
7536 3056
7537 1265
7537 3057
7538 1266
7538 3058
7539 1267
7539 3059
7540 1268
7540 3060
7541 1269
7541 3061
7542 1270
7542 3062
7543 1271
7543 3063
7544 1272
7544 3064
7545 1273
7545 3065
7546 1274
7546 3066
7547 1275
7547 3067
7548 1276
7548 3068
7549 1277
7549 3069
7550 1278
7550 3070
7551 1279
7551 3071
7552 1216
7552 3392
7553 1217
7553 3393
7554 1218
7554 3394
7555 1219
7555 3395
7556 1220
7556 3396
7557 1221
7557 3397
7558 1222
7558 3398
7559 1223
7559 3399
7560 1224
7560 3400
7561 1225
7561 3401
7562 1226
7562 3402
7563 1227
7563 3403
7564 1228
7564 3404
7565 1229
7565 3405
7566 1230
7566 3406
7567 1231
7567 3407
7568 1232
7568 3408
7569 1233
7569 3409
7570 1234
7570 3410
7571 1235
7571 3411
7572 1236
7572 3412
7573 1237
7573 3413
7574 1238
7574 3414
7575 1239
7575 3415
7576 1240
7576 3416
7577 1241
7577 3417
7578 1242
7578 3418
7579 1243
7579 3419
7580 1244
7580 3420
7581 1245
7581 3421
7582 1246
7582 3422
7583 1247
7583 3423
7584 1248
7584 3424
7585 1249
7585 3425
7586 1250
7586 3426
7587 1251
7587 3427
7588 1252
7588 3428
7589 1253
7589 3429
7590 1254
7590 3430
7591 1255
7591 3431
7592 1256
7592 3432
7593 1257
7593 3433
7594 1258
7594 3434
7595 1259
7595 3435
7596 1260
7596 3436
7597 1261
7597 3437
7598 1262
7598 3438
7599 1263
7599 3439
7600 1264
7600 3440
7601 1265
7601 3441
7602 1266
7602 3442
7603 1267
7603 3443
7604 1268
7604 3444
7605 1269
7605 3445
7606 1270
7606 3446
7607 1271
7607 3447
7608 1272
7608 3448
7609 1273
7609 3449
7610 1274
7610 3450
7611 1275
7611 3451
7612 1276
7612 3452
7613 1277
7613 3453
7614 1278
7614 3454
7615 1279
7615 3455
7616 1216
7616 3776
7617 1217
7617 3777
7618 1218
7618 3778
7619 1219
7619 3779
7620 1220
7620 3780
7621 1221
7621 3781
7622 1222
7622 3782
7623 1223
7623 3783
7624 1224
7624 3784
7625 1225
7625 3785
7626 1226
7626 3786
7627 1227
7627 3787
7628 1228
7628 3788
7629 1229
7629 3789
7630 1230
7630 3790
7631 1231
7631 3791
7632 1232
7632 3792
7633 1233
7633 3793
7634 1234
7634 3794
7635 1235
7635 3795
7636 1236
7636 3796
7637 1237
7637 3797
7638 1238
7638 3798
7639 1239
7639 3799
7640 1240
7640 3800
7641 1241
7641 3801
7642 1242
7642 3802
7643 1243
7643 3803
7644 1244
7644 3804
7645 1245
7645 3805
7646 1246
7646 3806
7647 1247
7647 3807
7648 1248
7648 3808
7649 1249
7649 3809
7650 1250
7650 3810
7651 1251
7651 3811
7652 1252
7652 3812
7653 1253
7653 3813
7654 1254
7654 3814
7655 1255
7655 3815
7656 1256
7656 3816
7657 1257
7657 3817
7658 1258
7658 3818
7659 1259
7659 3819
7660 1260
7660 3820
7661 1261
7661 3821
7662 1262
7662 3822
7663 1263
7663 3823
7664 1264
7664 3824
7665 1265
7665 3825
7666 1266
7666 3826
7667 1267
7667 3827
7668 1268
7668 3828
7669 1269
7669 3829
7670 1270
7670 3830
7671 1271
7671 3831
7672 1272
7672 3832
7673 1273
7673 3833
7674 1274
7674 3834
7675 1275
7675 3835
7676 1276
7676 3836
7677 1277
7677 3837
7678 1278
7678 3838
7679 1279
7679 3839
7680 1280
7680 2176
7681 1281
7681 2177
7682 1282
7682 2178
7683 1283
7683 2179
7684 1284
7684 2180
7685 1285
7685 2181
7686 1286
7686 2182
7687 1287
7687 2183
7688 1288
7688 2184
7689 1289
7689 2185
7690 1290
7690 2186
7691 1291
7691 2187
7692 1292
7692 2188
7693 1293
7693 2189
7694 1294
7694 2190
7695 1295
7695 2191
7696 1296
7696 2192
7697 1297
7697 2193
7698 1298
7698 2194
7699 1299
7699 2195
7700 1300
7700 2196
7701 1301
7701 2197
7702 1302
7702 2198
7703 1303
7703 2199
7704 1304
7704 2200
7705 1305
7705 2201
7706 1306
7706 2202
7707 1307
7707 2203
7708 1308
7708 2204
7709 1309
7709 2205
7710 1310
7710 2206
7711 1311
7711 2207
7712 1312
7712 2208
7713 1313
7713 2209
7714 1314
7714 2210
7715 1315
7715 2211
7716 1316
7716 2212
7717 1317
7717 2213
7718 1318
7718 2214
7719 1319
7719 2215
7720 1320
7720 2216
7721 1321
7721 2217
7722 1322
7722 2218
7723 1323
7723 2219
7724 1324
7724 2220
7725 1325
7725 2221
7726 1326
7726 2222
7727 1327
7727 2223
7728 1328
7728 2224
7729 1329
7729 2225
7730 1330
7730 2226
7731 1331
7731 2227
7732 1332
7732 2228
7733 1333
7733 2229
7734 1334
7734 2230
7735 1335
7735 2231
7736 1336
7736 2232
7737 1337
7737 2233
7738 1338
7738 2234
7739 1339
7739 2235
7740 1340
7740 2236
7741 1341
7741 2237
7742 1342
7742 2238
7743 1343
7743 2239
7744 1280
7744 2432
7745 1281
7745 2433
7746 1282
7746 2434
7747 1283
7747 2435
7748 1284
7748 2436
7749 1285
7749 2437
7750 1286
7750 2438
7751 1287
7751 2439
7752 1288
7752 2440
7753 1289
7753 2441
7754 1290
7754 2442
7755 1291
7755 2443
7756 1292
7756 2444
7757 1293
7757 2445
7758 1294
7758 2446
7759 1295
7759 2447
7760 1296
7760 2448
7761 1297
7761 2449
7762 1298
7762 2450
7763 1299
7763 2451
7764 1300
7764 2452
7765 1301
7765 2453
7766 1302
7766 2454
7767 1303
7767 2455
7768 1304
7768 2456
7769 1305
7769 2457
7770 1306
7770 2458
7771 1307
7771 2459
7772 1308
7772 2460
7773 1309
7773 2461
7774 1310
7774 2462
7775 1311
7775 2463
7776 1312
7776 2464
7777 1313
7777 2465
7778 1314
7778 2466
7779 1315
7779 2467
7780 1316
7780 2468
7781 1317
7781 2469
7782 1318
7782 2470
7783 1319
7783 2471
7784 1320
7784 2472
7785 1321
7785 2473
7786 1322
7786 2474
7787 1323
7787 2475
7788 1324
7788 2476
7789 1325
7789 2477
7790 1326
7790 2478
7791 1327
7791 2479
7792 1328
7792 2480
7793 1329
7793 2481
7794 1330
7794 2482
7795 1331
7795 2483
7796 1332
7796 2484
7797 1333
7797 2485
7798 1334
7798 2486
7799 1335
7799 2487
7800 1336
7800 2488
7801 1337
7801 2489
7802 1338
7802 2490
7803 1339
7803 2491
7804 1340
7804 2492
7805 1341
7805 2493
7806 1342
7806 2494
7807 1343
7807 2495
7808 1280
7808 2880
7809 1281
7809 2881
7810 1282
7810 2882
7811 1283
7811 2883
7812 1284
7812 2884
7813 1285
7813 2885
7814 1286
7814 2886
7815 1287
7815 2887
7816 1288
7816 2888
7817 1289
7817 2889
7818 1290
7818 2890
7819 1291
7819 2891
7820 1292
7820 2892
7821 1293
7821 2893
7822 1294
7822 2894
7823 1295
7823 2895
7824 1296
7824 2896
7825 1297
7825 2897
7826 1298
7826 2898
7827 1299
7827 2899
7828 1300
7828 2900
7829 1301
7829 2901
7830 1302
7830 2902
7831 1303
7831 2903
7832 1304
7832 2904
7833 1305
7833 2905
7834 1306
7834 2906
7835 1307
7835 2907
7836 1308
7836 2908
7837 1309
7837 2909
7838 1310
7838 2910
7839 1311
7839 2911
7840 1312
7840 2912
7841 1313
7841 2913
7842 1314
7842 2914
7843 1315
7843 2915
7844 1316
7844 2916
7845 1317
7845 2917
7846 1318
7846 2918
7847 1319
7847 2919
7848 1320
7848 2920
7849 1321
7849 2921
7850 1322
7850 2922
7851 1323
7851 2923
7852 1324
7852 2924
7853 1325
7853 2925
7854 1326
7854 2926
7855 1327
7855 2927
7856 1328
7856 2928
7857 1329
7857 2929
7858 1330
7858 2930
7859 1331
7859 2931
7860 1332
7860 2932
7861 1333
7861 2933
7862 1334
7862 2934
7863 1335
7863 2935
7864 1336
7864 2936
7865 1337
7865 2937
7866 1338
7866 2938
7867 1339
7867 2939
7868 1340
7868 2940
7869 1341
7869 2941
7870 1342
7870 2942
7871 1343
7871 2943
7872 1280
7872 3008
7873 1281
7873 3009
7874 1282
7874 3010
7875 1283
7875 3011
7876 1284
7876 3012
7877 1285
7877 3013
7878 1286
7878 3014
7879 1287
7879 3015
7880 1288
7880 3016
7881 1289
7881 3017
7882 1290
7882 3018
7883 1291
7883 3019
7884 1292
7884 3020
7885 1293
7885 3021
7886 1294
7886 3022
7887 1295
7887 3023
7888 1296
7888 3024
7889 1297
7889 3025
7890 1298
7890 3026
7891 1299
7891 3027
7892 1300
7892 3028
7893 1301
7893 3029
7894 1302
7894 3030
7895 1303
7895 3031
7896 1304
7896 3032
7897 1305
7897 3033
7898 1306
7898 3034
7899 1307
7899 3035
7900 1308
7900 3036
7901 1309
7901 3037
7902 1310
7902 3038
7903 1311
7903 3039
7904 1312
7904 3040
7905 1313
7905 3041
7906 1314
7906 3042
7907 1315
7907 3043
7908 1316
7908 3044
7909 1317
7909 3045
7910 1318
7910 3046
7911 1319
7911 3047
7912 1320
7912 3048
7913 1321
7913 3049
7914 1322
7914 3050
7915 1323
7915 3051
7916 1324
7916 3052
7917 1325
7917 3053
7918 1326
7918 3054
7919 1327
7919 3055
7920 1328
7920 3056
7921 1329
7921 3057
7922 1330
7922 3058
7923 1331
7923 3059
7924 1332
7924 3060
7925 1333
7925 3061
7926 1334
7926 3062
7927 1335
7927 3063
7928 1336
7928 3064
7929 1337
7929 3065
7930 1338
7930 3066
7931 1339
7931 3067
7932 1340
7932 3068
7933 1341
7933 3069
7934 1342
7934 3070
7935 1343
7935 3071
7936 1280
7936 3456
7937 1281
7937 3457
7938 1282
7938 3458
7939 1283
7939 3459
7940 1284
7940 3460
7941 1285
7941 3461
7942 1286
7942 3462
7943 1287
7943 3463
7944 1288
7944 3464
7945 1289
7945 3465
7946 1290
7946 3466
7947 1291
7947 3467
7948 1292
7948 3468
7949 1293
7949 3469
7950 1294
7950 3470
7951 1295
7951 3471
7952 1296
7952 3472
7953 1297
7953 3473
7954 1298
7954 3474
7955 1299
7955 3475
7956 1300
7956 3476
7957 1301
7957 3477
7958 1302
7958 3478
7959 1303
7959 3479
7960 1304
7960 3480
7961 1305
7961 3481
7962 1306
7962 3482
7963 1307
7963 3483
7964 1308
7964 3484
7965 1309
7965 3485
7966 1310
7966 3486
7967 1311
7967 3487
7968 1312
7968 3488
7969 1313
7969 3489
7970 1314
7970 3490
7971 1315
7971 3491
7972 1316
7972 3492
7973 1317
7973 3493
7974 1318
7974 3494
7975 1319
7975 3495
7976 1320
7976 3496
7977 1321
7977 3497
7978 1322
7978 3498
7979 1323
7979 3499
7980 1324
7980 3500
7981 1325
7981 3501
7982 1326
7982 3502
7983 1327
7983 3503
7984 1328
7984 3504
7985 1329
7985 3505
7986 1330
7986 3506
7987 1331
7987 3507
7988 1332
7988 3508
7989 1333
7989 3509
7990 1334
7990 3510
7991 1335
7991 3511
7992 1336
7992 3512
7993 1337
7993 3513
7994 1338
7994 3514
7995 1339
7995 3515
7996 1340
7996 3516
7997 1341
7997 3517
7998 1342
7998 3518
7999 1343
7999 3519
8000 1280
8000 3904
8001 1281
8001 3905
8002 1282
8002 3906
8003 1283
8003 3907
8004 1284
8004 3908
8005 1285
8005 3909
8006 1286
8006 3910
8007 1287
8007 3911
8008 1288
8008 3912
8009 1289
8009 3913
8010 1290
8010 3914
8011 1291
8011 3915
8012 1292
8012 3916
8013 1293
8013 3917
8014 1294
8014 3918
8015 1295
8015 3919
8016 1296
8016 3920
8017 1297
8017 3921
8018 1298
8018 3922
8019 1299
8019 3923
8020 1300
8020 3924
8021 1301
8021 3925
8022 1302
8022 3926
8023 1303
8023 3927
8024 1304
8024 3928
8025 1305
8025 3929
8026 1306
8026 3930
8027 1307
8027 3931
8028 1308
8028 3932
8029 1309
8029 3933
8030 1310
8030 3934
8031 1311
8031 3935
8032 1312
8032 3936
8033 1313
8033 3937
8034 1314
8034 3938
8035 1315
8035 3939
8036 1316
8036 3940
8037 1317
8037 3941
8038 1318
8038 3942
8039 1319
8039 3943
8040 1320
8040 3944
8041 1321
8041 3945
8042 1322
8042 3946
8043 1323
8043 3947
8044 1324
8044 3948
8045 1325
8045 3949
8046 1326
8046 3950
8047 1327
8047 3951
8048 1328
8048 3952
8049 1329
8049 3953
8050 1330
8050 3954
8051 1331
8051 3955
8052 1332
8052 3956
8053 1333
8053 3957
8054 1334
8054 3958
8055 1335
8055 3959
8056 1336
8056 3960
8057 1337
8057 3961
8058 1338
8058 3962
8059 1339
8059 3963
8060 1340
8060 3964
8061 1341
8061 3965
8062 1342
8062 3966
8063 1343
8063 3967
8064 1344
8064 1984
8065 1345
8065 1985
8066 1346
8066 1986
8067 1347
8067 1987
8068 1348
8068 1988
8069 1349
8069 1989
8070 1350
8070 1990
8071 1351
8071 1991
8072 1352
8072 1992
8073 1353
8073 1993
8074 1354
8074 1994
8075 1355
8075 1995
8076 1356
8076 1996
8077 1357
8077 1997
8078 1358
8078 1998
8079 1359
8079 1999
8080 1360
8080 2000
8081 1361
8081 2001
8082 1362
8082 2002
8083 1363
8083 2003
8084 1364
8084 2004
8085 1365
8085 2005
8086 1366
8086 2006
8087 1367
8087 2007
8088 1368
8088 2008
8089 1369
8089 2009
8090 1370
8090 2010
8091 1371
8091 2011
8092 1372
8092 2012
8093 1373
8093 2013
8094 1374
8094 2014
8095 1375
8095 2015
8096 1376
8096 2016
8097 1377
8097 2017
8098 1378
8098 2018
8099 1379
8099 2019
8100 1380
8100 2020
8101 1381
8101 2021
8102 1382
8102 2022
8103 1383
8103 2023
8104 1384
8104 2024
8105 1385
8105 2025
8106 1386
8106 2026
8107 1387
8107 2027
8108 1388
8108 2028
8109 1389
8109 2029
8110 1390
8110 2030
8111 1391
8111 2031
8112 1392
8112 2032
8113 1393
8113 2033
8114 1394
8114 2034
8115 1395
8115 2035
8116 1396
8116 2036
8117 1397
8117 2037
8118 1398
8118 2038
8119 1399
8119 2039
8120 1400
8120 2040
8121 1401
8121 2041
8122 1402
8122 2042
8123 1403
8123 2043
8124 1404
8124 2044
8125 1405
8125 2045
8126 1406
8126 2046
8127 1407
8127 2047
8128 1344
8128 3328
8129 1345
8129 3329
8130 1346
8130 3330
8131 1347
8131 3331
8132 1348
8132 3332
8133 1349
8133 3333
8134 1350
8134 3334
8135 1351
8135 3335
8136 1352
8136 3336
8137 1353
8137 3337
8138 1354
8138 3338
8139 1355
8139 3339
8140 1356
8140 3340
8141 1357
8141 3341
8142 1358
8142 3342
8143 1359
8143 3343
8144 1360
8144 3344
8145 1361
8145 3345
8146 1362
8146 3346
8147 1363
8147 3347
8148 1364
8148 3348
8149 1365
8149 3349
8150 1366
8150 3350
8151 1367
8151 3351
8152 1368
8152 3352
8153 1369
8153 3353
8154 1370
8154 3354
8155 1371
8155 3355
8156 1372
8156 3356
8157 1373
8157 3357
8158 1374
8158 3358
8159 1375
8159 3359
8160 1376
8160 3360
8161 1377
8161 3361
8162 1378
8162 3362
8163 1379
8163 3363
8164 1380
8164 3364
8165 1381
8165 3365
8166 1382
8166 3366
8167 1383
8167 3367
8168 1384
8168 3368
8169 1385
8169 3369
8170 1386
8170 3370
8171 1387
8171 3371
8172 1388
8172 3372
8173 1389
8173 3373
8174 1390
8174 3374
8175 1391
8175 3375
8176 1392
8176 3376
8177 1393
8177 3377
8178 1394
8178 3378
8179 1395
8179 3379
8180 1396
8180 3380
8181 1397
8181 3381
8182 1398
8182 3382
8183 1399
8183 3383
8184 1400
8184 3384
8185 1401
8185 3385
8186 1402
8186 3386
8187 1403
8187 3387
8188 1404
8188 3388
8189 1405
8189 3389
8190 1406
8190 3390
8191 1407
8191 3391
8192 1344
8192 3392
8193 1345
8193 3393
8194 1346
8194 3394
8195 1347
8195 3395
8196 1348
8196 3396
8197 1349
8197 3397
8198 1350
8198 3398
8199 1351
8199 3399
8200 1352
8200 3400
8201 1353
8201 3401
8202 1354
8202 3402
8203 1355
8203 3403
8204 1356
8204 3404
8205 1357
8205 3405
8206 1358
8206 3406
8207 1359
8207 3407
8208 1360
8208 3408
8209 1361
8209 3409
8210 1362
8210 3410
8211 1363
8211 3411
8212 1364
8212 3412
8213 1365
8213 3413
8214 1366
8214 3414
8215 1367
8215 3415
8216 1368
8216 3416
8217 1369
8217 3417
8218 1370
8218 3418
8219 1371
8219 3419
8220 1372
8220 3420
8221 1373
8221 3421
8222 1374
8222 3422
8223 1375
8223 3423
8224 1376
8224 3424
8225 1377
8225 3425
8226 1378
8226 3426
8227 1379
8227 3427
8228 1380
8228 3428
8229 1381
8229 3429
8230 1382
8230 3430
8231 1383
8231 3431
8232 1384
8232 3432
8233 1385
8233 3433
8234 1386
8234 3434
8235 1387
8235 3435
8236 1388
8236 3436
8237 1389
8237 3437
8238 1390
8238 3438
8239 1391
8239 3439
8240 1392
8240 3440
8241 1393
8241 3441
8242 1394
8242 3442
8243 1395
8243 3443
8244 1396
8244 3444
8245 1397
8245 3445
8246 1398
8246 3446
8247 1399
8247 3447
8248 1400
8248 3448
8249 1401
8249 3449
8250 1402
8250 3450
8251 1403
8251 3451
8252 1404
8252 3452
8253 1405
8253 3453
8254 1406
8254 3454
8255 1407
8255 3455
8256 1344
8256 3456
8257 1345
8257 3457
8258 1346
8258 3458
8259 1347
8259 3459
8260 1348
8260 3460
8261 1349
8261 3461
8262 1350
8262 3462
8263 1351
8263 3463
8264 1352
8264 3464
8265 1353
8265 3465
8266 1354
8266 3466
8267 1355
8267 3467
8268 1356
8268 3468
8269 1357
8269 3469
8270 1358
8270 3470
8271 1359
8271 3471
8272 1360
8272 3472
8273 1361
8273 3473
8274 1362
8274 3474
8275 1363
8275 3475
8276 1364
8276 3476
8277 1365
8277 3477
8278 1366
8278 3478
8279 1367
8279 3479
8280 1368
8280 3480
8281 1369
8281 3481
8282 1370
8282 3482
8283 1371
8283 3483
8284 1372
8284 3484
8285 1373
8285 3485
8286 1374
8286 3486
8287 1375
8287 3487
8288 1376
8288 3488
8289 1377
8289 3489
8290 1378
8290 3490
8291 1379
8291 3491
8292 1380
8292 3492
8293 1381
8293 3493
8294 1382
8294 3494
8295 1383
8295 3495
8296 1384
8296 3496
8297 1385
8297 3497
8298 1386
8298 3498
8299 1387
8299 3499
8300 1388
8300 3500
8301 1389
8301 3501
8302 1390
8302 3502
8303 1391
8303 3503
8304 1392
8304 3504
8305 1393
8305 3505
8306 1394
8306 3506
8307 1395
8307 3507
8308 1396
8308 3508
8309 1397
8309 3509
8310 1398
8310 3510
8311 1399
8311 3511
8312 1400
8312 3512
8313 1401
8313 3513
8314 1402
8314 3514
8315 1403
8315 3515
8316 1404
8316 3516
8317 1405
8317 3517
8318 1406
8318 3518
8319 1407
8319 3519
8320 1344
8320 3520
8321 1345
8321 3521
8322 1346
8322 3522
8323 1347
8323 3523
8324 1348
8324 3524
8325 1349
8325 3525
8326 1350
8326 3526
8327 1351
8327 3527
8328 1352
8328 3528
8329 1353
8329 3529
8330 1354
8330 3530
8331 1355
8331 3531
8332 1356
8332 3532
8333 1357
8333 3533
8334 1358
8334 3534
8335 1359
8335 3535
8336 1360
8336 3536
8337 1361
8337 3537
8338 1362
8338 3538
8339 1363
8339 3539
8340 1364
8340 3540
8341 1365
8341 3541
8342 1366
8342 3542
8343 1367
8343 3543
8344 1368
8344 3544
8345 1369
8345 3545
8346 1370
8346 3546
8347 1371
8347 3547
8348 1372
8348 3548
8349 1373
8349 3549
8350 1374
8350 3550
8351 1375
8351 3551
8352 1376
8352 3552
8353 1377
8353 3553
8354 1378
8354 3554
8355 1379
8355 3555
8356 1380
8356 3556
8357 1381
8357 3557
8358 1382
8358 3558
8359 1383
8359 3559
8360 1384
8360 3560
8361 1385
8361 3561
8362 1386
8362 3562
8363 1387
8363 3563
8364 1388
8364 3564
8365 1389
8365 3565
8366 1390
8366 3566
8367 1391
8367 3567
8368 1392
8368 3568
8369 1393
8369 3569
8370 1394
8370 3570
8371 1395
8371 3571
8372 1396
8372 3572
8373 1397
8373 3573
8374 1398
8374 3574
8375 1399
8375 3575
8376 1400
8376 3576
8377 1401
8377 3577
8378 1402
8378 3578
8379 1403
8379 3579
8380 1404
8380 3580
8381 1405
8381 3581
8382 1406
8382 3582
8383 1407
8383 3583
8384 1344
8384 3584
8385 1345
8385 3585
8386 1346
8386 3586
8387 1347
8387 3587
8388 1348
8388 3588
8389 1349
8389 3589
8390 1350
8390 3590
8391 1351
8391 3591
8392 1352
8392 3592
8393 1353
8393 3593
8394 1354
8394 3594
8395 1355
8395 3595
8396 1356
8396 3596
8397 1357
8397 3597
8398 1358
8398 3598
8399 1359
8399 3599
8400 1360
8400 3600
8401 1361
8401 3601
8402 1362
8402 3602
8403 1363
8403 3603
8404 1364
8404 3604
8405 1365
8405 3605
8406 1366
8406 3606
8407 1367
8407 3607
8408 1368
8408 3608
8409 1369
8409 3609
8410 1370
8410 3610
8411 1371
8411 3611
8412 1372
8412 3612
8413 1373
8413 3613
8414 1374
8414 3614
8415 1375
8415 3615
8416 1376
8416 3616
8417 1377
8417 3617
8418 1378
8418 3618
8419 1379
8419 3619
8420 1380
8420 3620
8421 1381
8421 3621
8422 1382
8422 3622
8423 1383
8423 3623
8424 1384
8424 3624
8425 1385
8425 3625
8426 1386
8426 3626
8427 1387
8427 3627
8428 1388
8428 3628
8429 1389
8429 3629
8430 1390
8430 3630
8431 1391
8431 3631
8432 1392
8432 3632
8433 1393
8433 3633
8434 1394
8434 3634
8435 1395
8435 3635
8436 1396
8436 3636
8437 1397
8437 3637
8438 1398
8438 3638
8439 1399
8439 3639
8440 1400
8440 3640
8441 1401
8441 3641
8442 1402
8442 3642
8443 1403
8443 3643
8444 1404
8444 3644
8445 1405
8445 3645
8446 1406
8446 3646
8447 1407
8447 3647
8448 1408
8448 2176
8449 1409
8449 2177
8450 1410
8450 2178
8451 1411
8451 2179
8452 1412
8452 2180
8453 1413
8453 2181
8454 1414
8454 2182
8455 1415
8455 2183
8456 1416
8456 2184
8457 1417
8457 2185
8458 1418
8458 2186
8459 1419
8459 2187
8460 1420
8460 2188
8461 1421
8461 2189
8462 1422
8462 2190
8463 1423
8463 2191
8464 1424
8464 2192
8465 1425
8465 2193
8466 1426
8466 2194
8467 1427
8467 2195
8468 1428
8468 2196
8469 1429
8469 2197
8470 1430
8470 2198
8471 1431
8471 2199
8472 1432
8472 2200
8473 1433
8473 2201
8474 1434
8474 2202
8475 1435
8475 2203
8476 1436
8476 2204
8477 1437
8477 2205
8478 1438
8478 2206
8479 1439
8479 2207
8480 1440
8480 2208
8481 1441
8481 2209
8482 1442
8482 2210
8483 1443
8483 2211
8484 1444
8484 2212
8485 1445
8485 2213
8486 1446
8486 2214
8487 1447
8487 2215
8488 1448
8488 2216
8489 1449
8489 2217
8490 1450
8490 2218
8491 1451
8491 2219
8492 1452
8492 2220
8493 1453
8493 2221
8494 1454
8494 2222
8495 1455
8495 2223
8496 1456
8496 2224
8497 1457
8497 2225
8498 1458
8498 2226
8499 1459
8499 2227
8500 1460
8500 2228
8501 1461
8501 2229
8502 1462
8502 2230
8503 1463
8503 2231
8504 1464
8504 2232
8505 1465
8505 2233
8506 1466
8506 2234
8507 1467
8507 2235
8508 1468
8508 2236
8509 1469
8509 2237
8510 1470
8510 2238
8511 1471
8511 2239
8512 1408
8512 2624
8513 1409
8513 2625
8514 1410
8514 2626
8515 1411
8515 2627
8516 1412
8516 2628
8517 1413
8517 2629
8518 1414
8518 2630
8519 1415
8519 2631
8520 1416
8520 2632
8521 1417
8521 2633
8522 1418
8522 2634
8523 1419
8523 2635
8524 1420
8524 2636
8525 1421
8525 2637
8526 1422
8526 2638
8527 1423
8527 2639
8528 1424
8528 2640
8529 1425
8529 2641
8530 1426
8530 2642
8531 1427
8531 2643
8532 1428
8532 2644
8533 1429
8533 2645
8534 1430
8534 2646
8535 1431
8535 2647
8536 1432
8536 2648
8537 1433
8537 2649
8538 1434
8538 2650
8539 1435
8539 2651
8540 1436
8540 2652
8541 1437
8541 2653
8542 1438
8542 2654
8543 1439
8543 2655
8544 1440
8544 2656
8545 1441
8545 2657
8546 1442
8546 2658
8547 1443
8547 2659
8548 1444
8548 2660
8549 1445
8549 2661
8550 1446
8550 2662
8551 1447
8551 2663
8552 1448
8552 2664
8553 1449
8553 2665
8554 1450
8554 2666
8555 1451
8555 2667
8556 1452
8556 2668
8557 1453
8557 2669
8558 1454
8558 2670
8559 1455
8559 2671
8560 1456
8560 2672
8561 1457
8561 2673
8562 1458
8562 2674
8563 1459
8563 2675
8564 1460
8564 2676
8565 1461
8565 2677
8566 1462
8566 2678
8567 1463
8567 2679
8568 1464
8568 2680
8569 1465
8569 2681
8570 1466
8570 2682
8571 1467
8571 2683
8572 1468
8572 2684
8573 1469
8573 2685
8574 1470
8574 2686
8575 1471
8575 2687
8576 1408
8576 2752
8577 1409
8577 2753
8578 1410
8578 2754
8579 1411
8579 2755
8580 1412
8580 2756
8581 1413
8581 2757
8582 1414
8582 2758
8583 1415
8583 2759
8584 1416
8584 2760
8585 1417
8585 2761
8586 1418
8586 2762
8587 1419
8587 2763
8588 1420
8588 2764
8589 1421
8589 2765
8590 1422
8590 2766
8591 1423
8591 2767
8592 1424
8592 2768
8593 1425
8593 2769
8594 1426
8594 2770
8595 1427
8595 2771
8596 1428
8596 2772
8597 1429
8597 2773
8598 1430
8598 2774
8599 1431
8599 2775
8600 1432
8600 2776
8601 1433
8601 2777
8602 1434
8602 2778
8603 1435
8603 2779
8604 1436
8604 2780
8605 1437
8605 2781
8606 1438
8606 2782
8607 1439
8607 2783
8608 1440
8608 2784
8609 1441
8609 2785
8610 1442
8610 2786
8611 1443
8611 2787
8612 1444
8612 2788
8613 1445
8613 2789
8614 1446
8614 2790
8615 1447
8615 2791
8616 1448
8616 2792
8617 1449
8617 2793
8618 1450
8618 2794
8619 1451
8619 2795
8620 1452
8620 2796
8621 1453
8621 2797
8622 1454
8622 2798
8623 1455
8623 2799
8624 1456
8624 2800
8625 1457
8625 2801
8626 1458
8626 2802
8627 1459
8627 2803
8628 1460
8628 2804
8629 1461
8629 2805
8630 1462
8630 2806
8631 1463
8631 2807
8632 1464
8632 2808
8633 1465
8633 2809
8634 1466
8634 2810
8635 1467
8635 2811
8636 1468
8636 2812
8637 1469
8637 2813
8638 1470
8638 2814
8639 1471
8639 2815
8640 1408
8640 3200
8641 1409
8641 3201
8642 1410
8642 3202
8643 1411
8643 3203
8644 1412
8644 3204
8645 1413
8645 3205
8646 1414
8646 3206
8647 1415
8647 3207
8648 1416
8648 3208
8649 1417
8649 3209
8650 1418
8650 3210
8651 1419
8651 3211
8652 1420
8652 3212
8653 1421
8653 3213
8654 1422
8654 3214
8655 1423
8655 3215
8656 1424
8656 3216
8657 1425
8657 3217
8658 1426
8658 3218
8659 1427
8659 3219
8660 1428
8660 3220
8661 1429
8661 3221
8662 1430
8662 3222
8663 1431
8663 3223
8664 1432
8664 3224
8665 1433
8665 3225
8666 1434
8666 3226
8667 1435
8667 3227
8668 1436
8668 3228
8669 1437
8669 3229
8670 1438
8670 3230
8671 1439
8671 3231
8672 1440
8672 3232
8673 1441
8673 3233
8674 1442
8674 3234
8675 1443
8675 3235
8676 1444
8676 3236
8677 1445
8677 3237
8678 1446
8678 3238
8679 1447
8679 3239
8680 1448
8680 3240
8681 1449
8681 3241
8682 1450
8682 3242
8683 1451
8683 3243
8684 1452
8684 3244
8685 1453
8685 3245
8686 1454
8686 3246
8687 1455
8687 3247
8688 1456
8688 3248
8689 1457
8689 3249
8690 1458
8690 3250
8691 1459
8691 3251
8692 1460
8692 3252
8693 1461
8693 3253
8694 1462
8694 3254
8695 1463
8695 3255
8696 1464
8696 3256
8697 1465
8697 3257
8698 1466
8698 3258
8699 1467
8699 3259
8700 1468
8700 3260
8701 1469
8701 3261
8702 1470
8702 3262
8703 1471
8703 3263
8704 1408
8704 3328
8705 1409
8705 3329
8706 1410
8706 3330
8707 1411
8707 3331
8708 1412
8708 3332
8709 1413
8709 3333
8710 1414
8710 3334
8711 1415
8711 3335
8712 1416
8712 3336
8713 1417
8713 3337
8714 1418
8714 3338
8715 1419
8715 3339
8716 1420
8716 3340
8717 1421
8717 3341
8718 1422
8718 3342
8719 1423
8719 3343
8720 1424
8720 3344
8721 1425
8721 3345
8722 1426
8722 3346
8723 1427
8723 3347
8724 1428
8724 3348
8725 1429
8725 3349
8726 1430
8726 3350
8727 1431
8727 3351
8728 1432
8728 3352
8729 1433
8729 3353
8730 1434
8730 3354
8731 1435
8731 3355
8732 1436
8732 3356
8733 1437
8733 3357
8734 1438
8734 3358
8735 1439
8735 3359
8736 1440
8736 3360
8737 1441
8737 3361
8738 1442
8738 3362
8739 1443
8739 3363
8740 1444
8740 3364
8741 1445
8741 3365
8742 1446
8742 3366
8743 1447
8743 3367
8744 1448
8744 3368
8745 1449
8745 3369
8746 1450
8746 3370
8747 1451
8747 3371
8748 1452
8748 3372
8749 1453
8749 3373
8750 1454
8750 3374
8751 1455
8751 3375
8752 1456
8752 3376
8753 1457
8753 3377
8754 1458
8754 3378
8755 1459
8755 3379
8756 1460
8756 3380
8757 1461
8757 3381
8758 1462
8758 3382
8759 1463
8759 3383
8760 1464
8760 3384
8761 1465
8761 3385
8762 1466
8762 3386
8763 1467
8763 3387
8764 1468
8764 3388
8765 1469
8765 3389
8766 1470
8766 3390
8767 1471
8767 3391
8768 1408
8768 3776
8769 1409
8769 3777
8770 1410
8770 3778
8771 1411
8771 3779
8772 1412
8772 3780
8773 1413
8773 3781
8774 1414
8774 3782
8775 1415
8775 3783
8776 1416
8776 3784
8777 1417
8777 3785
8778 1418
8778 3786
8779 1419
8779 3787
8780 1420
8780 3788
8781 1421
8781 3789
8782 1422
8782 3790
8783 1423
8783 3791
8784 1424
8784 3792
8785 1425
8785 3793
8786 1426
8786 3794
8787 1427
8787 3795
8788 1428
8788 3796
8789 1429
8789 3797
8790 1430
8790 3798
8791 1431
8791 3799
8792 1432
8792 3800
8793 1433
8793 3801
8794 1434
8794 3802
8795 1435
8795 3803
8796 1436
8796 3804
8797 1437
8797 3805
8798 1438
8798 3806
8799 1439
8799 3807
8800 1440
8800 3808
8801 1441
8801 3809
8802 1442
8802 3810
8803 1443
8803 3811
8804 1444
8804 3812
8805 1445
8805 3813
8806 1446
8806 3814
8807 1447
8807 3815
8808 1448
8808 3816
8809 1449
8809 3817
8810 1450
8810 3818
8811 1451
8811 3819
8812 1452
8812 3820
8813 1453
8813 3821
8814 1454
8814 3822
8815 1455
8815 3823
8816 1456
8816 3824
8817 1457
8817 3825
8818 1458
8818 3826
8819 1459
8819 3827
8820 1460
8820 3828
8821 1461
8821 3829
8822 1462
8822 3830
8823 1463
8823 3831
8824 1464
8824 3832
8825 1465
8825 3833
8826 1466
8826 3834
8827 1467
8827 3835
8828 1468
8828 3836
8829 1469
8829 3837
8830 1470
8830 3838
8831 1471
8831 3839
8832 1472
8832 2112
8833 1473
8833 2113
8834 1474
8834 2114
8835 1475
8835 2115
8836 1476
8836 2116
8837 1477
8837 2117
8838 1478
8838 2118
8839 1479
8839 2119
8840 1480
8840 2120
8841 1481
8841 2121
8842 1482
8842 2122
8843 1483
8843 2123
8844 1484
8844 2124
8845 1485
8845 2125
8846 1486
8846 2126
8847 1487
8847 2127
8848 1488
8848 2128
8849 1489
8849 2129
8850 1490
8850 2130
8851 1491
8851 2131
8852 1492
8852 2132
8853 1493
8853 2133
8854 1494
8854 2134
8855 1495
8855 2135
8856 1496
8856 2136
8857 1497
8857 2137
8858 1498
8858 2138
8859 1499
8859 2139
8860 1500
8860 2140
8861 1501
8861 2141
8862 1502
8862 2142
8863 1503
8863 2143
8864 1504
8864 2144
8865 1505
8865 2145
8866 1506
8866 2146
8867 1507
8867 2147
8868 1508
8868 2148
8869 1509
8869 2149
8870 1510
8870 2150
8871 1511
8871 2151
8872 1512
8872 2152
8873 1513
8873 2153
8874 1514
8874 2154
8875 1515
8875 2155
8876 1516
8876 2156
8877 1517
8877 2157
8878 1518
8878 2158
8879 1519
8879 2159
8880 1520
8880 2160
8881 1521
8881 2161
8882 1522
8882 2162
8883 1523
8883 2163
8884 1524
8884 2164
8885 1525
8885 2165
8886 1526
8886 2166
8887 1527
8887 2167
8888 1528
8888 2168
8889 1529
8889 2169
8890 1530
8890 2170
8891 1531
8891 2171
8892 1532
8892 2172
8893 1533
8893 2173
8894 1534
8894 2174
8895 1535
8895 2175
8896 1472
8896 2496
8897 1473
8897 2497
8898 1474
8898 2498
8899 1475
8899 2499
8900 1476
8900 2500
8901 1477
8901 2501
8902 1478
8902 2502
8903 1479
8903 2503
8904 1480
8904 2504
8905 1481
8905 2505
8906 1482
8906 2506
8907 1483
8907 2507
8908 1484
8908 2508
8909 1485
8909 2509
8910 1486
8910 2510
8911 1487
8911 2511
8912 1488
8912 2512
8913 1489
8913 2513
8914 1490
8914 2514
8915 1491
8915 2515
8916 1492
8916 2516
8917 1493
8917 2517
8918 1494
8918 2518
8919 1495
8919 2519
8920 1496
8920 2520
8921 1497
8921 2521
8922 1498
8922 2522
8923 1499
8923 2523
8924 1500
8924 2524
8925 1501
8925 2525
8926 1502
8926 2526
8927 1503
8927 2527
8928 1504
8928 2528
8929 1505
8929 2529
8930 1506
8930 2530
8931 1507
8931 2531
8932 1508
8932 2532
8933 1509
8933 2533
8934 1510
8934 2534
8935 1511
8935 2535
8936 1512
8936 2536
8937 1513
8937 2537
8938 1514
8938 2538
8939 1515
8939 2539
8940 1516
8940 2540
8941 1517
8941 2541
8942 1518
8942 2542
8943 1519
8943 2543
8944 1520
8944 2544
8945 1521
8945 2545
8946 1522
8946 2546
8947 1523
8947 2547
8948 1524
8948 2548
8949 1525
8949 2549
8950 1526
8950 2550
8951 1527
8951 2551
8952 1528
8952 2552
8953 1529
8953 2553
8954 1530
8954 2554
8955 1531
8955 2555
8956 1532
8956 2556
8957 1533
8957 2557
8958 1534
8958 2558
8959 1535
8959 2559
8960 1472
8960 2880
8961 1473
8961 2881
8962 1474
8962 2882
8963 1475
8963 2883
8964 1476
8964 2884
8965 1477
8965 2885
8966 1478
8966 2886
8967 1479
8967 2887
8968 1480
8968 2888
8969 1481
8969 2889
8970 1482
8970 2890
8971 1483
8971 2891
8972 1484
8972 2892
8973 1485
8973 2893
8974 1486
8974 2894
8975 1487
8975 2895
8976 1488
8976 2896
8977 1489
8977 2897
8978 1490
8978 2898
8979 1491
8979 2899
8980 1492
8980 2900
8981 1493
8981 2901
8982 1494
8982 2902
8983 1495
8983 2903
8984 1496
8984 2904
8985 1497
8985 2905
8986 1498
8986 2906
8987 1499
8987 2907
8988 1500
8988 2908
8989 1501
8989 2909
8990 1502
8990 2910
8991 1503
8991 2911
8992 1504
8992 2912
8993 1505
8993 2913
8994 1506
8994 2914
8995 1507
8995 2915
8996 1508
8996 2916
8997 1509
8997 2917
8998 1510
8998 2918
8999 1511
8999 2919
9000 1512
9000 2920
9001 1513
9001 2921
9002 1514
9002 2922
9003 1515
9003 2923
9004 1516
9004 2924
9005 1517
9005 2925
9006 1518
9006 2926
9007 1519
9007 2927
9008 1520
9008 2928
9009 1521
9009 2929
9010 1522
9010 2930
9011 1523
9011 2931
9012 1524
9012 2932
9013 1525
9013 2933
9014 1526
9014 2934
9015 1527
9015 2935
9016 1528
9016 2936
9017 1529
9017 2937
9018 1530
9018 2938
9019 1531
9019 2939
9020 1532
9020 2940
9021 1533
9021 2941
9022 1534
9022 2942
9023 1535
9023 2943
9024 1472
9024 3264
9025 1473
9025 3265
9026 1474
9026 3266
9027 1475
9027 3267
9028 1476
9028 3268
9029 1477
9029 3269
9030 1478
9030 3270
9031 1479
9031 3271
9032 1480
9032 3272
9033 1481
9033 3273
9034 1482
9034 3274
9035 1483
9035 3275
9036 1484
9036 3276
9037 1485
9037 3277
9038 1486
9038 3278
9039 1487
9039 3279
9040 1488
9040 3280
9041 1489
9041 3281
9042 1490
9042 3282
9043 1491
9043 3283
9044 1492
9044 3284
9045 1493
9045 3285
9046 1494
9046 3286
9047 1495
9047 3287
9048 1496
9048 3288
9049 1497
9049 3289
9050 1498
9050 3290
9051 1499
9051 3291
9052 1500
9052 3292
9053 1501
9053 3293
9054 1502
9054 3294
9055 1503
9055 3295
9056 1504
9056 3296
9057 1505
9057 3297
9058 1506
9058 3298
9059 1507
9059 3299
9060 1508
9060 3300
9061 1509
9061 3301
9062 1510
9062 3302
9063 1511
9063 3303
9064 1512
9064 3304
9065 1513
9065 3305
9066 1514
9066 3306
9067 1515
9067 3307
9068 1516
9068 3308
9069 1517
9069 3309
9070 1518
9070 3310
9071 1519
9071 3311
9072 1520
9072 3312
9073 1521
9073 3313
9074 1522
9074 3314
9075 1523
9075 3315
9076 1524
9076 3316
9077 1525
9077 3317
9078 1526
9078 3318
9079 1527
9079 3319
9080 1528
9080 3320
9081 1529
9081 3321
9082 1530
9082 3322
9083 1531
9083 3323
9084 1532
9084 3324
9085 1533
9085 3325
9086 1534
9086 3326
9087 1535
9087 3327
9088 1472
9088 3328
9089 1473
9089 3329
9090 1474
9090 3330
9091 1475
9091 3331
9092 1476
9092 3332
9093 1477
9093 3333
9094 1478
9094 3334
9095 1479
9095 3335
9096 1480
9096 3336
9097 1481
9097 3337
9098 1482
9098 3338
9099 1483
9099 3339
9100 1484
9100 3340
9101 1485
9101 3341
9102 1486
9102 3342
9103 1487
9103 3343
9104 1488
9104 3344
9105 1489
9105 3345
9106 1490
9106 3346
9107 1491
9107 3347
9108 1492
9108 3348
9109 1493
9109 3349
9110 1494
9110 3350
9111 1495
9111 3351
9112 1496
9112 3352
9113 1497
9113 3353
9114 1498
9114 3354
9115 1499
9115 3355
9116 1500
9116 3356
9117 1501
9117 3357
9118 1502
9118 3358
9119 1503
9119 3359
9120 1504
9120 3360
9121 1505
9121 3361
9122 1506
9122 3362
9123 1507
9123 3363
9124 1508
9124 3364
9125 1509
9125 3365
9126 1510
9126 3366
9127 1511
9127 3367
9128 1512
9128 3368
9129 1513
9129 3369
9130 1514
9130 3370
9131 1515
9131 3371
9132 1516
9132 3372
9133 1517
9133 3373
9134 1518
9134 3374
9135 1519
9135 3375
9136 1520
9136 3376
9137 1521
9137 3377
9138 1522
9138 3378
9139 1523
9139 3379
9140 1524
9140 3380
9141 1525
9141 3381
9142 1526
9142 3382
9143 1527
9143 3383
9144 1528
9144 3384
9145 1529
9145 3385
9146 1530
9146 3386
9147 1531
9147 3387
9148 1532
9148 3388
9149 1533
9149 3389
9150 1534
9150 3390
9151 1535
9151 3391
9152 1472
9152 3712
9153 1473
9153 3713
9154 1474
9154 3714
9155 1475
9155 3715
9156 1476
9156 3716
9157 1477
9157 3717
9158 1478
9158 3718
9159 1479
9159 3719
9160 1480
9160 3720
9161 1481
9161 3721
9162 1482
9162 3722
9163 1483
9163 3723
9164 1484
9164 3724
9165 1485
9165 3725
9166 1486
9166 3726
9167 1487
9167 3727
9168 1488
9168 3728
9169 1489
9169 3729
9170 1490
9170 3730
9171 1491
9171 3731
9172 1492
9172 3732
9173 1493
9173 3733
9174 1494
9174 3734
9175 1495
9175 3735
9176 1496
9176 3736
9177 1497
9177 3737
9178 1498
9178 3738
9179 1499
9179 3739
9180 1500
9180 3740
9181 1501
9181 3741
9182 1502
9182 3742
9183 1503
9183 3743
9184 1504
9184 3744
9185 1505
9185 3745
9186 1506
9186 3746
9187 1507
9187 3747
9188 1508
9188 3748
9189 1509
9189 3749
9190 1510
9190 3750
9191 1511
9191 3751
9192 1512
9192 3752
9193 1513
9193 3753
9194 1514
9194 3754
9195 1515
9195 3755
9196 1516
9196 3756
9197 1517
9197 3757
9198 1518
9198 3758
9199 1519
9199 3759
9200 1520
9200 3760
9201 1521
9201 3761
9202 1522
9202 3762
9203 1523
9203 3763
9204 1524
9204 3764
9205 1525
9205 3765
9206 1526
9206 3766
9207 1527
9207 3767
9208 1528
9208 3768
9209 1529
9209 3769
9210 1530
9210 3770
9211 1531
9211 3771
9212 1532
9212 3772
9213 1533
9213 3773
9214 1534
9214 3774
9215 1535
9215 3775
9216 1536
9216 2304
9217 1537
9217 2305
9218 1538
9218 2306
9219 1539
9219 2307
9220 1540
9220 2308
9221 1541
9221 2309
9222 1542
9222 2310
9223 1543
9223 2311
9224 1544
9224 2312
9225 1545
9225 2313
9226 1546
9226 2314
9227 1547
9227 2315
9228 1548
9228 2316
9229 1549
9229 2317
9230 1550
9230 2318
9231 1551
9231 2319
9232 1552
9232 2320
9233 1553
9233 2321
9234 1554
9234 2322
9235 1555
9235 2323
9236 1556
9236 2324
9237 1557
9237 2325
9238 1558
9238 2326
9239 1559
9239 2327
9240 1560
9240 2328
9241 1561
9241 2329
9242 1562
9242 2330
9243 1563
9243 2331
9244 1564
9244 2332
9245 1565
9245 2333
9246 1566
9246 2334
9247 1567
9247 2335
9248 1568
9248 2336
9249 1569
9249 2337
9250 1570
9250 2338
9251 1571
9251 2339
9252 1572
9252 2340
9253 1573
9253 2341
9254 1574
9254 2342
9255 1575
9255 2343
9256 1576
9256 2344
9257 1577
9257 2345
9258 1578
9258 2346
9259 1579
9259 2347
9260 1580
9260 2348
9261 1581
9261 2349
9262 1582
9262 2350
9263 1583
9263 2351
9264 1584
9264 2352
9265 1585
9265 2353
9266 1586
9266 2354
9267 1587
9267 2355
9268 1588
9268 2356
9269 1589
9269 2357
9270 1590
9270 2358
9271 1591
9271 2359
9272 1592
9272 2360
9273 1593
9273 2361
9274 1594
9274 2362
9275 1595
9275 2363
9276 1596
9276 2364
9277 1597
9277 2365
9278 1598
9278 2366
9279 1599
9279 2367
9280 1536
9280 2560
9281 1537
9281 2561
9282 1538
9282 2562
9283 1539
9283 2563
9284 1540
9284 2564
9285 1541
9285 2565
9286 1542
9286 2566
9287 1543
9287 2567
9288 1544
9288 2568
9289 1545
9289 2569
9290 1546
9290 2570
9291 1547
9291 2571
9292 1548
9292 2572
9293 1549
9293 2573
9294 1550
9294 2574
9295 1551
9295 2575
9296 1552
9296 2576
9297 1553
9297 2577
9298 1554
9298 2578
9299 1555
9299 2579
9300 1556
9300 2580
9301 1557
9301 2581
9302 1558
9302 2582
9303 1559
9303 2583
9304 1560
9304 2584
9305 1561
9305 2585
9306 1562
9306 2586
9307 1563
9307 2587
9308 1564
9308 2588
9309 1565
9309 2589
9310 1566
9310 2590
9311 1567
9311 2591
9312 1568
9312 2592
9313 1569
9313 2593
9314 1570
9314 2594
9315 1571
9315 2595
9316 1572
9316 2596
9317 1573
9317 2597
9318 1574
9318 2598
9319 1575
9319 2599
9320 1576
9320 2600
9321 1577
9321 2601
9322 1578
9322 2602
9323 1579
9323 2603
9324 1580
9324 2604
9325 1581
9325 2605
9326 1582
9326 2606
9327 1583
9327 2607
9328 1584
9328 2608
9329 1585
9329 2609
9330 1586
9330 2610
9331 1587
9331 2611
9332 1588
9332 2612
9333 1589
9333 2613
9334 1590
9334 2614
9335 1591
9335 2615
9336 1592
9336 2616
9337 1593
9337 2617
9338 1594
9338 2618
9339 1595
9339 2619
9340 1596
9340 2620
9341 1597
9341 2621
9342 1598
9342 2622
9343 1599
9343 2623
9344 1536
9344 2816
9345 1537
9345 2817
9346 1538
9346 2818
9347 1539
9347 2819
9348 1540
9348 2820
9349 1541
9349 2821
9350 1542
9350 2822
9351 1543
9351 2823
9352 1544
9352 2824
9353 1545
9353 2825
9354 1546
9354 2826
9355 1547
9355 2827
9356 1548
9356 2828
9357 1549
9357 2829
9358 1550
9358 2830
9359 1551
9359 2831
9360 1552
9360 2832
9361 1553
9361 2833
9362 1554
9362 2834
9363 1555
9363 2835
9364 1556
9364 2836
9365 1557
9365 2837
9366 1558
9366 2838
9367 1559
9367 2839
9368 1560
9368 2840
9369 1561
9369 2841
9370 1562
9370 2842
9371 1563
9371 2843
9372 1564
9372 2844
9373 1565
9373 2845
9374 1566
9374 2846
9375 1567
9375 2847
9376 1568
9376 2848
9377 1569
9377 2849
9378 1570
9378 2850
9379 1571
9379 2851
9380 1572
9380 2852
9381 1573
9381 2853
9382 1574
9382 2854
9383 1575
9383 2855
9384 1576
9384 2856
9385 1577
9385 2857
9386 1578
9386 2858
9387 1579
9387 2859
9388 1580
9388 2860
9389 1581
9389 2861
9390 1582
9390 2862
9391 1583
9391 2863
9392 1584
9392 2864
9393 1585
9393 2865
9394 1586
9394 2866
9395 1587
9395 2867
9396 1588
9396 2868
9397 1589
9397 2869
9398 1590
9398 2870
9399 1591
9399 2871
9400 1592
9400 2872
9401 1593
9401 2873
9402 1594
9402 2874
9403 1595
9403 2875
9404 1596
9404 2876
9405 1597
9405 2877
9406 1598
9406 2878
9407 1599
9407 2879
9408 1536
9408 3072
9409 1537
9409 3073
9410 1538
9410 3074
9411 1539
9411 3075
9412 1540
9412 3076
9413 1541
9413 3077
9414 1542
9414 3078
9415 1543
9415 3079
9416 1544
9416 3080
9417 1545
9417 3081
9418 1546
9418 3082
9419 1547
9419 3083
9420 1548
9420 3084
9421 1549
9421 3085
9422 1550
9422 3086
9423 1551
9423 3087
9424 1552
9424 3088
9425 1553
9425 3089
9426 1554
9426 3090
9427 1555
9427 3091
9428 1556
9428 3092
9429 1557
9429 3093
9430 1558
9430 3094
9431 1559
9431 3095
9432 1560
9432 3096
9433 1561
9433 3097
9434 1562
9434 3098
9435 1563
9435 3099
9436 1564
9436 3100
9437 1565
9437 3101
9438 1566
9438 3102
9439 1567
9439 3103
9440 1568
9440 3104
9441 1569
9441 3105
9442 1570
9442 3106
9443 1571
9443 3107
9444 1572
9444 3108
9445 1573
9445 3109
9446 1574
9446 3110
9447 1575
9447 3111
9448 1576
9448 3112
9449 1577
9449 3113
9450 1578
9450 3114
9451 1579
9451 3115
9452 1580
9452 3116
9453 1581
9453 3117
9454 1582
9454 3118
9455 1583
9455 3119
9456 1584
9456 3120
9457 1585
9457 3121
9458 1586
9458 3122
9459 1587
9459 3123
9460 1588
9460 3124
9461 1589
9461 3125
9462 1590
9462 3126
9463 1591
9463 3127
9464 1592
9464 3128
9465 1593
9465 3129
9466 1594
9466 3130
9467 1595
9467 3131
9468 1596
9468 3132
9469 1597
9469 3133
9470 1598
9470 3134
9471 1599
9471 3135
9472 1536
9472 3328
9473 1537
9473 3329
9474 1538
9474 3330
9475 1539
9475 3331
9476 1540
9476 3332
9477 1541
9477 3333
9478 1542
9478 3334
9479 1543
9479 3335
9480 1544
9480 3336
9481 1545
9481 3337
9482 1546
9482 3338
9483 1547
9483 3339
9484 1548
9484 3340
9485 1549
9485 3341
9486 1550
9486 3342
9487 1551
9487 3343
9488 1552
9488 3344
9489 1553
9489 3345
9490 1554
9490 3346
9491 1555
9491 3347
9492 1556
9492 3348
9493 1557
9493 3349
9494 1558
9494 3350
9495 1559
9495 3351
9496 1560
9496 3352
9497 1561
9497 3353
9498 1562
9498 3354
9499 1563
9499 3355
9500 1564
9500 3356
9501 1565
9501 3357
9502 1566
9502 3358
9503 1567
9503 3359
9504 1568
9504 3360
9505 1569
9505 3361
9506 1570
9506 3362
9507 1571
9507 3363
9508 1572
9508 3364
9509 1573
9509 3365
9510 1574
9510 3366
9511 1575
9511 3367
9512 1576
9512 3368
9513 1577
9513 3369
9514 1578
9514 3370
9515 1579
9515 3371
9516 1580
9516 3372
9517 1581
9517 3373
9518 1582
9518 3374
9519 1583
9519 3375
9520 1584
9520 3376
9521 1585
9521 3377
9522 1586
9522 3378
9523 1587
9523 3379
9524 1588
9524 3380
9525 1589
9525 3381
9526 1590
9526 3382
9527 1591
9527 3383
9528 1592
9528 3384
9529 1593
9529 3385
9530 1594
9530 3386
9531 1595
9531 3387
9532 1596
9532 3388
9533 1597
9533 3389
9534 1598
9534 3390
9535 1599
9535 3391
9536 1536
9536 3904
9537 1537
9537 3905
9538 1538
9538 3906
9539 1539
9539 3907
9540 1540
9540 3908
9541 1541
9541 3909
9542 1542
9542 3910
9543 1543
9543 3911
9544 1544
9544 3912
9545 1545
9545 3913
9546 1546
9546 3914
9547 1547
9547 3915
9548 1548
9548 3916
9549 1549
9549 3917
9550 1550
9550 3918
9551 1551
9551 3919
9552 1552
9552 3920
9553 1553
9553 3921
9554 1554
9554 3922
9555 1555
9555 3923
9556 1556
9556 3924
9557 1557
9557 3925
9558 1558
9558 3926
9559 1559
9559 3927
9560 1560
9560 3928
9561 1561
9561 3929
9562 1562
9562 3930
9563 1563
9563 3931
9564 1564
9564 3932
9565 1565
9565 3933
9566 1566
9566 3934
9567 1567
9567 3935
9568 1568
9568 3936
9569 1569
9569 3937
9570 1570
9570 3938
9571 1571
9571 3939
9572 1572
9572 3940
9573 1573
9573 3941
9574 1574
9574 3942
9575 1575
9575 3943
9576 1576
9576 3944
9577 1577
9577 3945
9578 1578
9578 3946
9579 1579
9579 3947
9580 1580
9580 3948
9581 1581
9581 3949
9582 1582
9582 3950
9583 1583
9583 3951
9584 1584
9584 3952
9585 1585
9585 3953
9586 1586
9586 3954
9587 1587
9587 3955
9588 1588
9588 3956
9589 1589
9589 3957
9590 1590
9590 3958
9591 1591
9591 3959
9592 1592
9592 3960
9593 1593
9593 3961
9594 1594
9594 3962
9595 1595
9595 3963
9596 1596
9596 3964
9597 1597
9597 3965
9598 1598
9598 3966
9599 1599
9599 3967
9600 1600
9600 2240
9601 1601
9601 2241
9602 1602
9602 2242
9603 1603
9603 2243
9604 1604
9604 2244
9605 1605
9605 2245
9606 1606
9606 2246
9607 1607
9607 2247
9608 1608
9608 2248
9609 1609
9609 2249
9610 1610
9610 2250
9611 1611
9611 2251
9612 1612
9612 2252
9613 1613
9613 2253
9614 1614
9614 2254
9615 1615
9615 2255
9616 1616
9616 2256
9617 1617
9617 2257
9618 1618
9618 2258
9619 1619
9619 2259
9620 1620
9620 2260
9621 1621
9621 2261
9622 1622
9622 2262
9623 1623
9623 2263
9624 1624
9624 2264
9625 1625
9625 2265
9626 1626
9626 2266
9627 1627
9627 2267
9628 1628
9628 2268
9629 1629
9629 2269
9630 1630
9630 2270
9631 1631
9631 2271
9632 1632
9632 2272
9633 1633
9633 2273
9634 1634
9634 2274
9635 1635
9635 2275
9636 1636
9636 2276
9637 1637
9637 2277
9638 1638
9638 2278
9639 1639
9639 2279
9640 1640
9640 2280
9641 1641
9641 2281
9642 1642
9642 2282
9643 1643
9643 2283
9644 1644
9644 2284
9645 1645
9645 2285
9646 1646
9646 2286
9647 1647
9647 2287
9648 1648
9648 2288
9649 1649
9649 2289
9650 1650
9650 2290
9651 1651
9651 2291
9652 1652
9652 2292
9653 1653
9653 2293
9654 1654
9654 2294
9655 1655
9655 2295
9656 1656
9656 2296
9657 1657
9657 2297
9658 1658
9658 2298
9659 1659
9659 2299
9660 1660
9660 2300
9661 1661
9661 2301
9662 1662
9662 2302
9663 1663
9663 2303
9664 1600
9664 2432
9665 1601
9665 2433
9666 1602
9666 2434
9667 1603
9667 2435
9668 1604
9668 2436
9669 1605
9669 2437
9670 1606
9670 2438
9671 1607
9671 2439
9672 1608
9672 2440
9673 1609
9673 2441
9674 1610
9674 2442
9675 1611
9675 2443
9676 1612
9676 2444
9677 1613
9677 2445
9678 1614
9678 2446
9679 1615
9679 2447
9680 1616
9680 2448
9681 1617
9681 2449
9682 1618
9682 2450
9683 1619
9683 2451
9684 1620
9684 2452
9685 1621
9685 2453
9686 1622
9686 2454
9687 1623
9687 2455
9688 1624
9688 2456
9689 1625
9689 2457
9690 1626
9690 2458
9691 1627
9691 2459
9692 1628
9692 2460
9693 1629
9693 2461
9694 1630
9694 2462
9695 1631
9695 2463
9696 1632
9696 2464
9697 1633
9697 2465
9698 1634
9698 2466
9699 1635
9699 2467
9700 1636
9700 2468
9701 1637
9701 2469
9702 1638
9702 2470
9703 1639
9703 2471
9704 1640
9704 2472
9705 1641
9705 2473
9706 1642
9706 2474
9707 1643
9707 2475
9708 1644
9708 2476
9709 1645
9709 2477
9710 1646
9710 2478
9711 1647
9711 2479
9712 1648
9712 2480
9713 1649
9713 2481
9714 1650
9714 2482
9715 1651
9715 2483
9716 1652
9716 2484
9717 1653
9717 2485
9718 1654
9718 2486
9719 1655
9719 2487
9720 1656
9720 2488
9721 1657
9721 2489
9722 1658
9722 2490
9723 1659
9723 2491
9724 1660
9724 2492
9725 1661
9725 2493
9726 1662
9726 2494
9727 1663
9727 2495
9728 1600
9728 2944
9729 1601
9729 2945
9730 1602
9730 2946
9731 1603
9731 2947
9732 1604
9732 2948
9733 1605
9733 2949
9734 1606
9734 2950
9735 1607
9735 2951
9736 1608
9736 2952
9737 1609
9737 2953
9738 1610
9738 2954
9739 1611
9739 2955
9740 1612
9740 2956
9741 1613
9741 2957
9742 1614
9742 2958
9743 1615
9743 2959
9744 1616
9744 2960
9745 1617
9745 2961
9746 1618
9746 2962
9747 1619
9747 2963
9748 1620
9748 2964
9749 1621
9749 2965
9750 1622
9750 2966
9751 1623
9751 2967
9752 1624
9752 2968
9753 1625
9753 2969
9754 1626
9754 2970
9755 1627
9755 2971
9756 1628
9756 2972
9757 1629
9757 2973
9758 1630
9758 2974
9759 1631
9759 2975
9760 1632
9760 2976
9761 1633
9761 2977
9762 1634
9762 2978
9763 1635
9763 2979
9764 1636
9764 2980
9765 1637
9765 2981
9766 1638
9766 2982
9767 1639
9767 2983
9768 1640
9768 2984
9769 1641
9769 2985
9770 1642
9770 2986
9771 1643
9771 2987
9772 1644
9772 2988
9773 1645
9773 2989
9774 1646
9774 2990
9775 1647
9775 2991
9776 1648
9776 2992
9777 1649
9777 2993
9778 1650
9778 2994
9779 1651
9779 2995
9780 1652
9780 2996
9781 1653
9781 2997
9782 1654
9782 2998
9783 1655
9783 2999
9784 1656
9784 3000
9785 1657
9785 3001
9786 1658
9786 3002
9787 1659
9787 3003
9788 1660
9788 3004
9789 1661
9789 3005
9790 1662
9790 3006
9791 1663
9791 3007
9792 1600
9792 3136
9793 1601
9793 3137
9794 1602
9794 3138
9795 1603
9795 3139
9796 1604
9796 3140
9797 1605
9797 3141
9798 1606
9798 3142
9799 1607
9799 3143
9800 1608
9800 3144
9801 1609
9801 3145
9802 1610
9802 3146
9803 1611
9803 3147
9804 1612
9804 3148
9805 1613
9805 3149
9806 1614
9806 3150
9807 1615
9807 3151
9808 1616
9808 3152
9809 1617
9809 3153
9810 1618
9810 3154
9811 1619
9811 3155
9812 1620
9812 3156
9813 1621
9813 3157
9814 1622
9814 3158
9815 1623
9815 3159
9816 1624
9816 3160
9817 1625
9817 3161
9818 1626
9818 3162
9819 1627
9819 3163
9820 1628
9820 3164
9821 1629
9821 3165
9822 1630
9822 3166
9823 1631
9823 3167
9824 1632
9824 3168
9825 1633
9825 3169
9826 1634
9826 3170
9827 1635
9827 3171
9828 1636
9828 3172
9829 1637
9829 3173
9830 1638
9830 3174
9831 1639
9831 3175
9832 1640
9832 3176
9833 1641
9833 3177
9834 1642
9834 3178
9835 1643
9835 3179
9836 1644
9836 3180
9837 1645
9837 3181
9838 1646
9838 3182
9839 1647
9839 3183
9840 1648
9840 3184
9841 1649
9841 3185
9842 1650
9842 3186
9843 1651
9843 3187
9844 1652
9844 3188
9845 1653
9845 3189
9846 1654
9846 3190
9847 1655
9847 3191
9848 1656
9848 3192
9849 1657
9849 3193
9850 1658
9850 3194
9851 1659
9851 3195
9852 1660
9852 3196
9853 1661
9853 3197
9854 1662
9854 3198
9855 1663
9855 3199
9856 1600
9856 3328
9857 1601
9857 3329
9858 1602
9858 3330
9859 1603
9859 3331
9860 1604
9860 3332
9861 1605
9861 3333
9862 1606
9862 3334
9863 1607
9863 3335
9864 1608
9864 3336
9865 1609
9865 3337
9866 1610
9866 3338
9867 1611
9867 3339
9868 1612
9868 3340
9869 1613
9869 3341
9870 1614
9870 3342
9871 1615
9871 3343
9872 1616
9872 3344
9873 1617
9873 3345
9874 1618
9874 3346
9875 1619
9875 3347
9876 1620
9876 3348
9877 1621
9877 3349
9878 1622
9878 3350
9879 1623
9879 3351
9880 1624
9880 3352
9881 1625
9881 3353
9882 1626
9882 3354
9883 1627
9883 3355
9884 1628
9884 3356
9885 1629
9885 3357
9886 1630
9886 3358
9887 1631
9887 3359
9888 1632
9888 3360
9889 1633
9889 3361
9890 1634
9890 3362
9891 1635
9891 3363
9892 1636
9892 3364
9893 1637
9893 3365
9894 1638
9894 3366
9895 1639
9895 3367
9896 1640
9896 3368
9897 1641
9897 3369
9898 1642
9898 3370
9899 1643
9899 3371
9900 1644
9900 3372
9901 1645
9901 3373
9902 1646
9902 3374
9903 1647
9903 3375
9904 1648
9904 3376
9905 1649
9905 3377
9906 1650
9906 3378
9907 1651
9907 3379
9908 1652
9908 3380
9909 1653
9909 3381
9910 1654
9910 3382
9911 1655
9911 3383
9912 1656
9912 3384
9913 1657
9913 3385
9914 1658
9914 3386
9915 1659
9915 3387
9916 1660
9916 3388
9917 1661
9917 3389
9918 1662
9918 3390
9919 1663
9919 3391
9920 1600
9920 3840
9921 1601
9921 3841
9922 1602
9922 3842
9923 1603
9923 3843
9924 1604
9924 3844
9925 1605
9925 3845
9926 1606
9926 3846
9927 1607
9927 3847
9928 1608
9928 3848
9929 1609
9929 3849
9930 1610
9930 3850
9931 1611
9931 3851
9932 1612
9932 3852
9933 1613
9933 3853
9934 1614
9934 3854
9935 1615
9935 3855
9936 1616
9936 3856
9937 1617
9937 3857
9938 1618
9938 3858
9939 1619
9939 3859
9940 1620
9940 3860
9941 1621
9941 3861
9942 1622
9942 3862
9943 1623
9943 3863
9944 1624
9944 3864
9945 1625
9945 3865
9946 1626
9946 3866
9947 1627
9947 3867
9948 1628
9948 3868
9949 1629
9949 3869
9950 1630
9950 3870
9951 1631
9951 3871
9952 1632
9952 3872
9953 1633
9953 3873
9954 1634
9954 3874
9955 1635
9955 3875
9956 1636
9956 3876
9957 1637
9957 3877
9958 1638
9958 3878
9959 1639
9959 3879
9960 1640
9960 3880
9961 1641
9961 3881
9962 1642
9962 3882
9963 1643
9963 3883
9964 1644
9964 3884
9965 1645
9965 3885
9966 1646
9966 3886
9967 1647
9967 3887
9968 1648
9968 3888
9969 1649
9969 3889
9970 1650
9970 3890
9971 1651
9971 3891
9972 1652
9972 3892
9973 1653
9973 3893
9974 1654
9974 3894
9975 1655
9975 3895
9976 1656
9976 3896
9977 1657
9977 3897
9978 1658
9978 3898
9979 1659
9979 3899
9980 1660
9980 3900
9981 1661
9981 3901
9982 1662
9982 3902
9983 1663
9983 3903
9984 1664
9984 1984
9985 1665
9985 1985
9986 1666
9986 1986
9987 1667
9987 1987
9988 1668
9988 1988
9989 1669
9989 1989
9990 1670
9990 1990
9991 1671
9991 1991
9992 1672
9992 1992
9993 1673
9993 1993
9994 1674
9994 1994
9995 1675
9995 1995
9996 1676
9996 1996
9997 1677
9997 1997
9998 1678
9998 1998
9999 1679
9999 1999
10000 1680
10000 2000
10001 1681
10001 2001
10002 1682
10002 2002
10003 1683
10003 2003
10004 1684
10004 2004
10005 1685
10005 2005
10006 1686
10006 2006
10007 1687
10007 2007
10008 1688
10008 2008
10009 1689
10009 2009
10010 1690
10010 2010
10011 1691
10011 2011
10012 1692
10012 2012
10013 1693
10013 2013
10014 1694
10014 2014
10015 1695
10015 2015
10016 1696
10016 2016
10017 1697
10017 2017
10018 1698
10018 2018
10019 1699
10019 2019
10020 1700
10020 2020
10021 1701
10021 2021
10022 1702
10022 2022
10023 1703
10023 2023
10024 1704
10024 2024
10025 1705
10025 2025
10026 1706
10026 2026
10027 1707
10027 2027
10028 1708
10028 2028
10029 1709
10029 2029
10030 1710
10030 2030
10031 1711
10031 2031
10032 1712
10032 2032
10033 1713
10033 2033
10034 1714
10034 2034
10035 1715
10035 2035
10036 1716
10036 2036
10037 1717
10037 2037
10038 1718
10038 2038
10039 1719
10039 2039
10040 1720
10040 2040
10041 1721
10041 2041
10042 1722
10042 2042
10043 1723
10043 2043
10044 1724
10044 2044
10045 1725
10045 2045
10046 1726
10046 2046
10047 1727
10047 2047
10048 1664
10048 2688
10049 1665
10049 2689
10050 1666
10050 2690
10051 1667
10051 2691
10052 1668
10052 2692
10053 1669
10053 2693
10054 1670
10054 2694
10055 1671
10055 2695
10056 1672
10056 2696
10057 1673
10057 2697
10058 1674
10058 2698
10059 1675
10059 2699
10060 1676
10060 2700
10061 1677
10061 2701
10062 1678
10062 2702
10063 1679
10063 2703
10064 1680
10064 2704
10065 1681
10065 2705
10066 1682
10066 2706
10067 1683
10067 2707
10068 1684
10068 2708
10069 1685
10069 2709
10070 1686
10070 2710
10071 1687
10071 2711
10072 1688
10072 2712
10073 1689
10073 2713
10074 1690
10074 2714
10075 1691
10075 2715
10076 1692
10076 2716
10077 1693
10077 2717
10078 1694
10078 2718
10079 1695
10079 2719
10080 1696
10080 2720
10081 1697
10081 2721
10082 1698
10082 2722
10083 1699
10083 2723
10084 1700
10084 2724
10085 1701
10085 2725
10086 1702
10086 2726
10087 1703
10087 2727
10088 1704
10088 2728
10089 1705
10089 2729
10090 1706
10090 2730
10091 1707
10091 2731
10092 1708
10092 2732
10093 1709
10093 2733
10094 1710
10094 2734
10095 1711
10095 2735
10096 1712
10096 2736
10097 1713
10097 2737
10098 1714
10098 2738
10099 1715
10099 2739
10100 1716
10100 2740
10101 1717
10101 2741
10102 1718
10102 2742
10103 1719
10103 2743
10104 1720
10104 2744
10105 1721
10105 2745
10106 1722
10106 2746
10107 1723
10107 2747
10108 1724
10108 2748
10109 1725
10109 2749
10110 1726
10110 2750
10111 1727
10111 2751
10112 1664
10112 2752
10113 1665
10113 2753
10114 1666
10114 2754
10115 1667
10115 2755
10116 1668
10116 2756
10117 1669
10117 2757
10118 1670
10118 2758
10119 1671
10119 2759
10120 1672
10120 2760
10121 1673
10121 2761
10122 1674
10122 2762
10123 1675
10123 2763
10124 1676
10124 2764
10125 1677
10125 2765
10126 1678
10126 2766
10127 1679
10127 2767
10128 1680
10128 2768
10129 1681
10129 2769
10130 1682
10130 2770
10131 1683
10131 2771
10132 1684
10132 2772
10133 1685
10133 2773
10134 1686
10134 2774
10135 1687
10135 2775
10136 1688
10136 2776
10137 1689
10137 2777
10138 1690
10138 2778
10139 1691
10139 2779
10140 1692
10140 2780
10141 1693
10141 2781
10142 1694
10142 2782
10143 1695
10143 2783
10144 1696
10144 2784
10145 1697
10145 2785
10146 1698
10146 2786
10147 1699
10147 2787
10148 1700
10148 2788
10149 1701
10149 2789
10150 1702
10150 2790
10151 1703
10151 2791
10152 1704
10152 2792
10153 1705
10153 2793
10154 1706
10154 2794
10155 1707
10155 2795
10156 1708
10156 2796
10157 1709
10157 2797
10158 1710
10158 2798
10159 1711
10159 2799
10160 1712
10160 2800
10161 1713
10161 2801
10162 1714
10162 2802
10163 1715
10163 2803
10164 1716
10164 2804
10165 1717
10165 2805
10166 1718
10166 2806
10167 1719
10167 2807
10168 1720
10168 2808
10169 1721
10169 2809
10170 1722
10170 2810
10171 1723
10171 2811
10172 1724
10172 2812
10173 1725
10173 2813
10174 1726
10174 2814
10175 1727
10175 2815
10176 1664
10176 2816
10177 1665
10177 2817
10178 1666
10178 2818
10179 1667
10179 2819
10180 1668
10180 2820
10181 1669
10181 2821
10182 1670
10182 2822
10183 1671
10183 2823
10184 1672
10184 2824
10185 1673
10185 2825
10186 1674
10186 2826
10187 1675
10187 2827
10188 1676
10188 2828
10189 1677
10189 2829
10190 1678
10190 2830
10191 1679
10191 2831
10192 1680
10192 2832
10193 1681
10193 2833
10194 1682
10194 2834
10195 1683
10195 2835
10196 1684
10196 2836
10197 1685
10197 2837
10198 1686
10198 2838
10199 1687
10199 2839
10200 1688
10200 2840
10201 1689
10201 2841
10202 1690
10202 2842
10203 1691
10203 2843
10204 1692
10204 2844
10205 1693
10205 2845
10206 1694
10206 2846
10207 1695
10207 2847
10208 1696
10208 2848
10209 1697
10209 2849
10210 1698
10210 2850
10211 1699
10211 2851
10212 1700
10212 2852
10213 1701
10213 2853
10214 1702
10214 2854
10215 1703
10215 2855
10216 1704
10216 2856
10217 1705
10217 2857
10218 1706
10218 2858
10219 1707
10219 2859
10220 1708
10220 2860
10221 1709
10221 2861
10222 1710
10222 2862
10223 1711
10223 2863
10224 1712
10224 2864
10225 1713
10225 2865
10226 1714
10226 2866
10227 1715
10227 2867
10228 1716
10228 2868
10229 1717
10229 2869
10230 1718
10230 2870
10231 1719
10231 2871
10232 1720
10232 2872
10233 1721
10233 2873
10234 1722
10234 2874
10235 1723
10235 2875
10236 1724
10236 2876
10237 1725
10237 2877
10238 1726
10238 2878
10239 1727
10239 2879
10240 1664
10240 2880
10241 1665
10241 2881
10242 1666
10242 2882
10243 1667
10243 2883
10244 1668
10244 2884
10245 1669
10245 2885
10246 1670
10246 2886
10247 1671
10247 2887
10248 1672
10248 2888
10249 1673
10249 2889
10250 1674
10250 2890
10251 1675
10251 2891
10252 1676
10252 2892
10253 1677
10253 2893
10254 1678
10254 2894
10255 1679
10255 2895
10256 1680
10256 2896
10257 1681
10257 2897
10258 1682
10258 2898
10259 1683
10259 2899
10260 1684
10260 2900
10261 1685
10261 2901
10262 1686
10262 2902
10263 1687
10263 2903
10264 1688
10264 2904
10265 1689
10265 2905
10266 1690
10266 2906
10267 1691
10267 2907
10268 1692
10268 2908
10269 1693
10269 2909
10270 1694
10270 2910
10271 1695
10271 2911
10272 1696
10272 2912
10273 1697
10273 2913
10274 1698
10274 2914
10275 1699
10275 2915
10276 1700
10276 2916
10277 1701
10277 2917
10278 1702
10278 2918
10279 1703
10279 2919
10280 1704
10280 2920
10281 1705
10281 2921
10282 1706
10282 2922
10283 1707
10283 2923
10284 1708
10284 2924
10285 1709
10285 2925
10286 1710
10286 2926
10287 1711
10287 2927
10288 1712
10288 2928
10289 1713
10289 2929
10290 1714
10290 2930
10291 1715
10291 2931
10292 1716
10292 2932
10293 1717
10293 2933
10294 1718
10294 2934
10295 1719
10295 2935
10296 1720
10296 2936
10297 1721
10297 2937
10298 1722
10298 2938
10299 1723
10299 2939
10300 1724
10300 2940
10301 1725
10301 2941
10302 1726
10302 2942
10303 1727
10303 2943
10304 1664
10304 2944
10305 1665
10305 2945
10306 1666
10306 2946
10307 1667
10307 2947
10308 1668
10308 2948
10309 1669
10309 2949
10310 1670
10310 2950
10311 1671
10311 2951
10312 1672
10312 2952
10313 1673
10313 2953
10314 1674
10314 2954
10315 1675
10315 2955
10316 1676
10316 2956
10317 1677
10317 2957
10318 1678
10318 2958
10319 1679
10319 2959
10320 1680
10320 2960
10321 1681
10321 2961
10322 1682
10322 2962
10323 1683
10323 2963
10324 1684
10324 2964
10325 1685
10325 2965
10326 1686
10326 2966
10327 1687
10327 2967
10328 1688
10328 2968
10329 1689
10329 2969
10330 1690
10330 2970
10331 1691
10331 2971
10332 1692
10332 2972
10333 1693
10333 2973
10334 1694
10334 2974
10335 1695
10335 2975
10336 1696
10336 2976
10337 1697
10337 2977
10338 1698
10338 2978
10339 1699
10339 2979
10340 1700
10340 2980
10341 1701
10341 2981
10342 1702
10342 2982
10343 1703
10343 2983
10344 1704
10344 2984
10345 1705
10345 2985
10346 1706
10346 2986
10347 1707
10347 2987
10348 1708
10348 2988
10349 1709
10349 2989
10350 1710
10350 2990
10351 1711
10351 2991
10352 1712
10352 2992
10353 1713
10353 2993
10354 1714
10354 2994
10355 1715
10355 2995
10356 1716
10356 2996
10357 1717
10357 2997
10358 1718
10358 2998
10359 1719
10359 2999
10360 1720
10360 3000
10361 1721
10361 3001
10362 1722
10362 3002
10363 1723
10363 3003
10364 1724
10364 3004
10365 1725
10365 3005
10366 1726
10366 3006
10367 1727
10367 3007
10368 1728
10368 2112
10369 1729
10369 2113
10370 1730
10370 2114
10371 1731
10371 2115
10372 1732
10372 2116
10373 1733
10373 2117
10374 1734
10374 2118
10375 1735
10375 2119
10376 1736
10376 2120
10377 1737
10377 2121
10378 1738
10378 2122
10379 1739
10379 2123
10380 1740
10380 2124
10381 1741
10381 2125
10382 1742
10382 2126
10383 1743
10383 2127
10384 1744
10384 2128
10385 1745
10385 2129
10386 1746
10386 2130
10387 1747
10387 2131
10388 1748
10388 2132
10389 1749
10389 2133
10390 1750
10390 2134
10391 1751
10391 2135
10392 1752
10392 2136
10393 1753
10393 2137
10394 1754
10394 2138
10395 1755
10395 2139
10396 1756
10396 2140
10397 1757
10397 2141
10398 1758
10398 2142
10399 1759
10399 2143
10400 1760
10400 2144
10401 1761
10401 2145
10402 1762
10402 2146
10403 1763
10403 2147
10404 1764
10404 2148
10405 1765
10405 2149
10406 1766
10406 2150
10407 1767
10407 2151
10408 1768
10408 2152
10409 1769
10409 2153
10410 1770
10410 2154
10411 1771
10411 2155
10412 1772
10412 2156
10413 1773
10413 2157
10414 1774
10414 2158
10415 1775
10415 2159
10416 1776
10416 2160
10417 1777
10417 2161
10418 1778
10418 2162
10419 1779
10419 2163
10420 1780
10420 2164
10421 1781
10421 2165
10422 1782
10422 2166
10423 1783
10423 2167
10424 1784
10424 2168
10425 1785
10425 2169
10426 1786
10426 2170
10427 1787
10427 2171
10428 1788
10428 2172
10429 1789
10429 2173
10430 1790
10430 2174
10431 1791
10431 2175
10432 1728
10432 2624
10433 1729
10433 2625
10434 1730
10434 2626
10435 1731
10435 2627
10436 1732
10436 2628
10437 1733
10437 2629
10438 1734
10438 2630
10439 1735
10439 2631
10440 1736
10440 2632
10441 1737
10441 2633
10442 1738
10442 2634
10443 1739
10443 2635
10444 1740
10444 2636
10445 1741
10445 2637
10446 1742
10446 2638
10447 1743
10447 2639
10448 1744
10448 2640
10449 1745
10449 2641
10450 1746
10450 2642
10451 1747
10451 2643
10452 1748
10452 2644
10453 1749
10453 2645
10454 1750
10454 2646
10455 1751
10455 2647
10456 1752
10456 2648
10457 1753
10457 2649
10458 1754
10458 2650
10459 1755
10459 2651
10460 1756
10460 2652
10461 1757
10461 2653
10462 1758
10462 2654
10463 1759
10463 2655
10464 1760
10464 2656
10465 1761
10465 2657
10466 1762
10466 2658
10467 1763
10467 2659
10468 1764
10468 2660
10469 1765
10469 2661
10470 1766
10470 2662
10471 1767
10471 2663
10472 1768
10472 2664
10473 1769
10473 2665
10474 1770
10474 2666
10475 1771
10475 2667
10476 1772
10476 2668
10477 1773
10477 2669
10478 1774
10478 2670
10479 1775
10479 2671
10480 1776
10480 2672
10481 1777
10481 2673
10482 1778
10482 2674
10483 1779
10483 2675
10484 1780
10484 2676
10485 1781
10485 2677
10486 1782
10486 2678
10487 1783
10487 2679
10488 1784
10488 2680
10489 1785
10489 2681
10490 1786
10490 2682
10491 1787
10491 2683
10492 1788
10492 2684
10493 1789
10493 2685
10494 1790
10494 2686
10495 1791
10495 2687
10496 1728
10496 2688
10497 1729
10497 2689
10498 1730
10498 2690
10499 1731
10499 2691
10500 1732
10500 2692
10501 1733
10501 2693
10502 1734
10502 2694
10503 1735
10503 2695
10504 1736
10504 2696
10505 1737
10505 2697
10506 1738
10506 2698
10507 1739
10507 2699
10508 1740
10508 2700
10509 1741
10509 2701
10510 1742
10510 2702
10511 1743
10511 2703
10512 1744
10512 2704
10513 1745
10513 2705
10514 1746
10514 2706
10515 1747
10515 2707
10516 1748
10516 2708
10517 1749
10517 2709
10518 1750
10518 2710
10519 1751
10519 2711
10520 1752
10520 2712
10521 1753
10521 2713
10522 1754
10522 2714
10523 1755
10523 2715
10524 1756
10524 2716
10525 1757
10525 2717
10526 1758
10526 2718
10527 1759
10527 2719
10528 1760
10528 2720
10529 1761
10529 2721
10530 1762
10530 2722
10531 1763
10531 2723
10532 1764
10532 2724
10533 1765
10533 2725
10534 1766
10534 2726
10535 1767
10535 2727
10536 1768
10536 2728
10537 1769
10537 2729
10538 1770
10538 2730
10539 1771
10539 2731
10540 1772
10540 2732
10541 1773
10541 2733
10542 1774
10542 2734
10543 1775
10543 2735
10544 1776
10544 2736
10545 1777
10545 2737
10546 1778
10546 2738
10547 1779
10547 2739
10548 1780
10548 2740
10549 1781
10549 2741
10550 1782
10550 2742
10551 1783
10551 2743
10552 1784
10552 2744
10553 1785
10553 2745
10554 1786
10554 2746
10555 1787
10555 2747
10556 1788
10556 2748
10557 1789
10557 2749
10558 1790
10558 2750
10559 1791
10559 2751
10560 1728
10560 3072
10561 1729
10561 3073
10562 1730
10562 3074
10563 1731
10563 3075
10564 1732
10564 3076
10565 1733
10565 3077
10566 1734
10566 3078
10567 1735
10567 3079
10568 1736
10568 3080
10569 1737
10569 3081
10570 1738
10570 3082
10571 1739
10571 3083
10572 1740
10572 3084
10573 1741
10573 3085
10574 1742
10574 3086
10575 1743
10575 3087
10576 1744
10576 3088
10577 1745
10577 3089
10578 1746
10578 3090
10579 1747
10579 3091
10580 1748
10580 3092
10581 1749
10581 3093
10582 1750
10582 3094
10583 1751
10583 3095
10584 1752
10584 3096
10585 1753
10585 3097
10586 1754
10586 3098
10587 1755
10587 3099
10588 1756
10588 3100
10589 1757
10589 3101
10590 1758
10590 3102
10591 1759
10591 3103
10592 1760
10592 3104
10593 1761
10593 3105
10594 1762
10594 3106
10595 1763
10595 3107
10596 1764
10596 3108
10597 1765
10597 3109
10598 1766
10598 3110
10599 1767
10599 3111
10600 1768
10600 3112
10601 1769
10601 3113
10602 1770
10602 3114
10603 1771
10603 3115
10604 1772
10604 3116
10605 1773
10605 3117
10606 1774
10606 3118
10607 1775
10607 3119
10608 1776
10608 3120
10609 1777
10609 3121
10610 1778
10610 3122
10611 1779
10611 3123
10612 1780
10612 3124
10613 1781
10613 3125
10614 1782
10614 3126
10615 1783
10615 3127
10616 1784
10616 3128
10617 1785
10617 3129
10618 1786
10618 3130
10619 1787
10619 3131
10620 1788
10620 3132
10621 1789
10621 3133
10622 1790
10622 3134
10623 1791
10623 3135
10624 1728
10624 3456
10625 1729
10625 3457
10626 1730
10626 3458
10627 1731
10627 3459
10628 1732
10628 3460
10629 1733
10629 3461
10630 1734
10630 3462
10631 1735
10631 3463
10632 1736
10632 3464
10633 1737
10633 3465
10634 1738
10634 3466
10635 1739
10635 3467
10636 1740
10636 3468
10637 1741
10637 3469
10638 1742
10638 3470
10639 1743
10639 3471
10640 1744
10640 3472
10641 1745
10641 3473
10642 1746
10642 3474
10643 1747
10643 3475
10644 1748
10644 3476
10645 1749
10645 3477
10646 1750
10646 3478
10647 1751
10647 3479
10648 1752
10648 3480
10649 1753
10649 3481
10650 1754
10650 3482
10651 1755
10651 3483
10652 1756
10652 3484
10653 1757
10653 3485
10654 1758
10654 3486
10655 1759
10655 3487
10656 1760
10656 3488
10657 1761
10657 3489
10658 1762
10658 3490
10659 1763
10659 3491
10660 1764
10660 3492
10661 1765
10661 3493
10662 1766
10662 3494
10663 1767
10663 3495
10664 1768
10664 3496
10665 1769
10665 3497
10666 1770
10666 3498
10667 1771
10667 3499
10668 1772
10668 3500
10669 1773
10669 3501
10670 1774
10670 3502
10671 1775
10671 3503
10672 1776
10672 3504
10673 1777
10673 3505
10674 1778
10674 3506
10675 1779
10675 3507
10676 1780
10676 3508
10677 1781
10677 3509
10678 1782
10678 3510
10679 1783
10679 3511
10680 1784
10680 3512
10681 1785
10681 3513
10682 1786
10682 3514
10683 1787
10683 3515
10684 1788
10684 3516
10685 1789
10685 3517
10686 1790
10686 3518
10687 1791
10687 3519
10688 1728
10688 3840
10689 1729
10689 3841
10690 1730
10690 3842
10691 1731
10691 3843
10692 1732
10692 3844
10693 1733
10693 3845
10694 1734
10694 3846
10695 1735
10695 3847
10696 1736
10696 3848
10697 1737
10697 3849
10698 1738
10698 3850
10699 1739
10699 3851
10700 1740
10700 3852
10701 1741
10701 3853
10702 1742
10702 3854
10703 1743
10703 3855
10704 1744
10704 3856
10705 1745
10705 3857
10706 1746
10706 3858
10707 1747
10707 3859
10708 1748
10708 3860
10709 1749
10709 3861
10710 1750
10710 3862
10711 1751
10711 3863
10712 1752
10712 3864
10713 1753
10713 3865
10714 1754
10714 3866
10715 1755
10715 3867
10716 1756
10716 3868
10717 1757
10717 3869
10718 1758
10718 3870
10719 1759
10719 3871
10720 1760
10720 3872
10721 1761
10721 3873
10722 1762
10722 3874
10723 1763
10723 3875
10724 1764
10724 3876
10725 1765
10725 3877
10726 1766
10726 3878
10727 1767
10727 3879
10728 1768
10728 3880
10729 1769
10729 3881
10730 1770
10730 3882
10731 1771
10731 3883
10732 1772
10732 3884
10733 1773
10733 3885
10734 1774
10734 3886
10735 1775
10735 3887
10736 1776
10736 3888
10737 1777
10737 3889
10738 1778
10738 3890
10739 1779
10739 3891
10740 1780
10740 3892
10741 1781
10741 3893
10742 1782
10742 3894
10743 1783
10743 3895
10744 1784
10744 3896
10745 1785
10745 3897
10746 1786
10746 3898
10747 1787
10747 3899
10748 1788
10748 3900
10749 1789
10749 3901
10750 1790
10750 3902
10751 1791
10751 3903
10752 1792
10752 2240
10753 1793
10753 2241
10754 1794
10754 2242
10755 1795
10755 2243
10756 1796
10756 2244
10757 1797
10757 2245
10758 1798
10758 2246
10759 1799
10759 2247
10760 1800
10760 2248
10761 1801
10761 2249
10762 1802
10762 2250
10763 1803
10763 2251
10764 1804
10764 2252
10765 1805
10765 2253
10766 1806
10766 2254
10767 1807
10767 2255
10768 1808
10768 2256
10769 1809
10769 2257
10770 1810
10770 2258
10771 1811
10771 2259
10772 1812
10772 2260
10773 1813
10773 2261
10774 1814
10774 2262
10775 1815
10775 2263
10776 1816
10776 2264
10777 1817
10777 2265
10778 1818
10778 2266
10779 1819
10779 2267
10780 1820
10780 2268
10781 1821
10781 2269
10782 1822
10782 2270
10783 1823
10783 2271
10784 1824
10784 2272
10785 1825
10785 2273
10786 1826
10786 2274
10787 1827
10787 2275
10788 1828
10788 2276
10789 1829
10789 2277
10790 1830
10790 2278
10791 1831
10791 2279
10792 1832
10792 2280
10793 1833
10793 2281
10794 1834
10794 2282
10795 1835
10795 2283
10796 1836
10796 2284
10797 1837
10797 2285
10798 1838
10798 2286
10799 1839
10799 2287
10800 1840
10800 2288
10801 1841
10801 2289
10802 1842
10802 2290
10803 1843
10803 2291
10804 1844
10804 2292
10805 1845
10805 2293
10806 1846
10806 2294
10807 1847
10807 2295
10808 1848
10808 2296
10809 1849
10809 2297
10810 1850
10810 2298
10811 1851
10811 2299
10812 1852
10812 2300
10813 1853
10813 2301
10814 1854
10814 2302
10815 1855
10815 2303
10816 1792
10816 2496
10817 1793
10817 2497
10818 1794
10818 2498
10819 1795
10819 2499
10820 1796
10820 2500
10821 1797
10821 2501
10822 1798
10822 2502
10823 1799
10823 2503
10824 1800
10824 2504
10825 1801
10825 2505
10826 1802
10826 2506
10827 1803
10827 2507
10828 1804
10828 2508
10829 1805
10829 2509
10830 1806
10830 2510
10831 1807
10831 2511
10832 1808
10832 2512
10833 1809
10833 2513
10834 1810
10834 2514
10835 1811
10835 2515
10836 1812
10836 2516
10837 1813
10837 2517
10838 1814
10838 2518
10839 1815
10839 2519
10840 1816
10840 2520
10841 1817
10841 2521
10842 1818
10842 2522
10843 1819
10843 2523
10844 1820
10844 2524
10845 1821
10845 2525
10846 1822
10846 2526
10847 1823
10847 2527
10848 1824
10848 2528
10849 1825
10849 2529
10850 1826
10850 2530
10851 1827
10851 2531
10852 1828
10852 2532
10853 1829
10853 2533
10854 1830
10854 2534
10855 1831
10855 2535
10856 1832
10856 2536
10857 1833
10857 2537
10858 1834
10858 2538
10859 1835
10859 2539
10860 1836
10860 2540
10861 1837
10861 2541
10862 1838
10862 2542
10863 1839
10863 2543
10864 1840
10864 2544
10865 1841
10865 2545
10866 1842
10866 2546
10867 1843
10867 2547
10868 1844
10868 2548
10869 1845
10869 2549
10870 1846
10870 2550
10871 1847
10871 2551
10872 1848
10872 2552
10873 1849
10873 2553
10874 1850
10874 2554
10875 1851
10875 2555
10876 1852
10876 2556
10877 1853
10877 2557
10878 1854
10878 2558
10879 1855
10879 2559
10880 1792
10880 2688
10881 1793
10881 2689
10882 1794
10882 2690
10883 1795
10883 2691
10884 1796
10884 2692
10885 1797
10885 2693
10886 1798
10886 2694
10887 1799
10887 2695
10888 1800
10888 2696
10889 1801
10889 2697
10890 1802
10890 2698
10891 1803
10891 2699
10892 1804
10892 2700
10893 1805
10893 2701
10894 1806
10894 2702
10895 1807
10895 2703
10896 1808
10896 2704
10897 1809
10897 2705
10898 1810
10898 2706
10899 1811
10899 2707
10900 1812
10900 2708
10901 1813
10901 2709
10902 1814
10902 2710
10903 1815
10903 2711
10904 1816
10904 2712
10905 1817
10905 2713
10906 1818
10906 2714
10907 1819
10907 2715
10908 1820
10908 2716
10909 1821
10909 2717
10910 1822
10910 2718
10911 1823
10911 2719
10912 1824
10912 2720
10913 1825
10913 2721
10914 1826
10914 2722
10915 1827
10915 2723
10916 1828
10916 2724
10917 1829
10917 2725
10918 1830
10918 2726
10919 1831
10919 2727
10920 1832
10920 2728
10921 1833
10921 2729
10922 1834
10922 2730
10923 1835
10923 2731
10924 1836
10924 2732
10925 1837
10925 2733
10926 1838
10926 2734
10927 1839
10927 2735
10928 1840
10928 2736
10929 1841
10929 2737
10930 1842
10930 2738
10931 1843
10931 2739
10932 1844
10932 2740
10933 1845
10933 2741
10934 1846
10934 2742
10935 1847
10935 2743
10936 1848
10936 2744
10937 1849
10937 2745
10938 1850
10938 2746
10939 1851
10939 2747
10940 1852
10940 2748
10941 1853
10941 2749
10942 1854
10942 2750
10943 1855
10943 2751
10944 1792
10944 3200
10945 1793
10945 3201
10946 1794
10946 3202
10947 1795
10947 3203
10948 1796
10948 3204
10949 1797
10949 3205
10950 1798
10950 3206
10951 1799
10951 3207
10952 1800
10952 3208
10953 1801
10953 3209
10954 1802
10954 3210
10955 1803
10955 3211
10956 1804
10956 3212
10957 1805
10957 3213
10958 1806
10958 3214
10959 1807
10959 3215
10960 1808
10960 3216
10961 1809
10961 3217
10962 1810
10962 3218
10963 1811
10963 3219
10964 1812
10964 3220
10965 1813
10965 3221
10966 1814
10966 3222
10967 1815
10967 3223
10968 1816
10968 3224
10969 1817
10969 3225
10970 1818
10970 3226
10971 1819
10971 3227
10972 1820
10972 3228
10973 1821
10973 3229
10974 1822
10974 3230
10975 1823
10975 3231
10976 1824
10976 3232
10977 1825
10977 3233
10978 1826
10978 3234
10979 1827
10979 3235
10980 1828
10980 3236
10981 1829
10981 3237
10982 1830
10982 3238
10983 1831
10983 3239
10984 1832
10984 3240
10985 1833
10985 3241
10986 1834
10986 3242
10987 1835
10987 3243
10988 1836
10988 3244
10989 1837
10989 3245
10990 1838
10990 3246
10991 1839
10991 3247
10992 1840
10992 3248
10993 1841
10993 3249
10994 1842
10994 3250
10995 1843
10995 3251
10996 1844
10996 3252
10997 1845
10997 3253
10998 1846
10998 3254
10999 1847
10999 3255
11000 1848
11000 3256
11001 1849
11001 3257
11002 1850
11002 3258
11003 1851
11003 3259
11004 1852
11004 3260
11005 1853
11005 3261
11006 1854
11006 3262
11007 1855
11007 3263
11008 1792
11008 3392
11009 1793
11009 3393
11010 1794
11010 3394
11011 1795
11011 3395
11012 1796
11012 3396
11013 1797
11013 3397
11014 1798
11014 3398
11015 1799
11015 3399
11016 1800
11016 3400
11017 1801
11017 3401
11018 1802
11018 3402
11019 1803
11019 3403
11020 1804
11020 3404
11021 1805
11021 3405
11022 1806
11022 3406
11023 1807
11023 3407
11024 1808
11024 3408
11025 1809
11025 3409
11026 1810
11026 3410
11027 1811
11027 3411
11028 1812
11028 3412
11029 1813
11029 3413
11030 1814
11030 3414
11031 1815
11031 3415
11032 1816
11032 3416
11033 1817
11033 3417
11034 1818
11034 3418
11035 1819
11035 3419
11036 1820
11036 3420
11037 1821
11037 3421
11038 1822
11038 3422
11039 1823
11039 3423
11040 1824
11040 3424
11041 1825
11041 3425
11042 1826
11042 3426
11043 1827
11043 3427
11044 1828
11044 3428
11045 1829
11045 3429
11046 1830
11046 3430
11047 1831
11047 3431
11048 1832
11048 3432
11049 1833
11049 3433
11050 1834
11050 3434
11051 1835
11051 3435
11052 1836
11052 3436
11053 1837
11053 3437
11054 1838
11054 3438
11055 1839
11055 3439
11056 1840
11056 3440
11057 1841
11057 3441
11058 1842
11058 3442
11059 1843
11059 3443
11060 1844
11060 3444
11061 1845
11061 3445
11062 1846
11062 3446
11063 1847
11063 3447
11064 1848
11064 3448
11065 1849
11065 3449
11066 1850
11066 3450
11067 1851
11067 3451
11068 1852
11068 3452
11069 1853
11069 3453
11070 1854
11070 3454
11071 1855
11071 3455
11072 1792
11072 3904
11073 1793
11073 3905
11074 1794
11074 3906
11075 1795
11075 3907
11076 1796
11076 3908
11077 1797
11077 3909
11078 1798
11078 3910
11079 1799
11079 3911
11080 1800
11080 3912
11081 1801
11081 3913
11082 1802
11082 3914
11083 1803
11083 3915
11084 1804
11084 3916
11085 1805
11085 3917
11086 1806
11086 3918
11087 1807
11087 3919
11088 1808
11088 3920
11089 1809
11089 3921
11090 1810
11090 3922
11091 1811
11091 3923
11092 1812
11092 3924
11093 1813
11093 3925
11094 1814
11094 3926
11095 1815
11095 3927
11096 1816
11096 3928
11097 1817
11097 3929
11098 1818
11098 3930
11099 1819
11099 3931
11100 1820
11100 3932
11101 1821
11101 3933
11102 1822
11102 3934
11103 1823
11103 3935
11104 1824
11104 3936
11105 1825
11105 3937
11106 1826
11106 3938
11107 1827
11107 3939
11108 1828
11108 3940
11109 1829
11109 3941
11110 1830
11110 3942
11111 1831
11111 3943
11112 1832
11112 3944
11113 1833
11113 3945
11114 1834
11114 3946
11115 1835
11115 3947
11116 1836
11116 3948
11117 1837
11117 3949
11118 1838
11118 3950
11119 1839
11119 3951
11120 1840
11120 3952
11121 1841
11121 3953
11122 1842
11122 3954
11123 1843
11123 3955
11124 1844
11124 3956
11125 1845
11125 3957
11126 1846
11126 3958
11127 1847
11127 3959
11128 1848
11128 3960
11129 1849
11129 3961
11130 1850
11130 3962
11131 1851
11131 3963
11132 1852
11132 3964
11133 1853
11133 3965
11134 1854
11134 3966
11135 1855
11135 3967
11136 1856
11136 2176
11137 1857
11137 2177
11138 1858
11138 2178
11139 1859
11139 2179
11140 1860
11140 2180
11141 1861
11141 2181
11142 1862
11142 2182
11143 1863
11143 2183
11144 1864
11144 2184
11145 1865
11145 2185
11146 1866
11146 2186
11147 1867
11147 2187
11148 1868
11148 2188
11149 1869
11149 2189
11150 1870
11150 2190
11151 1871
11151 2191
11152 1872
11152 2192
11153 1873
11153 2193
11154 1874
11154 2194
11155 1875
11155 2195
11156 1876
11156 2196
11157 1877
11157 2197
11158 1878
11158 2198
11159 1879
11159 2199
11160 1880
11160 2200
11161 1881
11161 2201
11162 1882
11162 2202
11163 1883
11163 2203
11164 1884
11164 2204
11165 1885
11165 2205
11166 1886
11166 2206
11167 1887
11167 2207
11168 1888
11168 2208
11169 1889
11169 2209
11170 1890
11170 2210
11171 1891
11171 2211
11172 1892
11172 2212
11173 1893
11173 2213
11174 1894
11174 2214
11175 1895
11175 2215
11176 1896
11176 2216
11177 1897
11177 2217
11178 1898
11178 2218
11179 1899
11179 2219
11180 1900
11180 2220
11181 1901
11181 2221
11182 1902
11182 2222
11183 1903
11183 2223
11184 1904
11184 2224
11185 1905
11185 2225
11186 1906
11186 2226
11187 1907
11187 2227
11188 1908
11188 2228
11189 1909
11189 2229
11190 1910
11190 2230
11191 1911
11191 2231
11192 1912
11192 2232
11193 1913
11193 2233
11194 1914
11194 2234
11195 1915
11195 2235
11196 1916
11196 2236
11197 1917
11197 2237
11198 1918
11198 2238
11199 1919
11199 2239
11200 1856
11200 2560
11201 1857
11201 2561
11202 1858
11202 2562
11203 1859
11203 2563
11204 1860
11204 2564
11205 1861
11205 2565
11206 1862
11206 2566
11207 1863
11207 2567
11208 1864
11208 2568
11209 1865
11209 2569
11210 1866
11210 2570
11211 1867
11211 2571
11212 1868
11212 2572
11213 1869
11213 2573
11214 1870
11214 2574
11215 1871
11215 2575
11216 1872
11216 2576
11217 1873
11217 2577
11218 1874
11218 2578
11219 1875
11219 2579
11220 1876
11220 2580
11221 1877
11221 2581
11222 1878
11222 2582
11223 1879
11223 2583
11224 1880
11224 2584
11225 1881
11225 2585
11226 1882
11226 2586
11227 1883
11227 2587
11228 1884
11228 2588
11229 1885
11229 2589
11230 1886
11230 2590
11231 1887
11231 2591
11232 1888
11232 2592
11233 1889
11233 2593
11234 1890
11234 2594
11235 1891
11235 2595
11236 1892
11236 2596
11237 1893
11237 2597
11238 1894
11238 2598
11239 1895
11239 2599
11240 1896
11240 2600
11241 1897
11241 2601
11242 1898
11242 2602
11243 1899
11243 2603
11244 1900
11244 2604
11245 1901
11245 2605
11246 1902
11246 2606
11247 1903
11247 2607
11248 1904
11248 2608
11249 1905
11249 2609
11250 1906
11250 2610
11251 1907
11251 2611
11252 1908
11252 2612
11253 1909
11253 2613
11254 1910
11254 2614
11255 1911
11255 2615
11256 1912
11256 2616
11257 1913
11257 2617
11258 1914
11258 2618
11259 1915
11259 2619
11260 1916
11260 2620
11261 1917
11261 2621
11262 1918
11262 2622
11263 1919
11263 2623
11264 1856
11264 2688
11265 1857
11265 2689
11266 1858
11266 2690
11267 1859
11267 2691
11268 1860
11268 2692
11269 1861
11269 2693
11270 1862
11270 2694
11271 1863
11271 2695
11272 1864
11272 2696
11273 1865
11273 2697
11274 1866
11274 2698
11275 1867
11275 2699
11276 1868
11276 2700
11277 1869
11277 2701
11278 1870
11278 2702
11279 1871
11279 2703
11280 1872
11280 2704
11281 1873
11281 2705
11282 1874
11282 2706
11283 1875
11283 2707
11284 1876
11284 2708
11285 1877
11285 2709
11286 1878
11286 2710
11287 1879
11287 2711
11288 1880
11288 2712
11289 1881
11289 2713
11290 1882
11290 2714
11291 1883
11291 2715
11292 1884
11292 2716
11293 1885
11293 2717
11294 1886
11294 2718
11295 1887
11295 2719
11296 1888
11296 2720
11297 1889
11297 2721
11298 1890
11298 2722
11299 1891
11299 2723
11300 1892
11300 2724
11301 1893
11301 2725
11302 1894
11302 2726
11303 1895
11303 2727
11304 1896
11304 2728
11305 1897
11305 2729
11306 1898
11306 2730
11307 1899
11307 2731
11308 1900
11308 2732
11309 1901
11309 2733
11310 1902
11310 2734
11311 1903
11311 2735
11312 1904
11312 2736
11313 1905
11313 2737
11314 1906
11314 2738
11315 1907
11315 2739
11316 1908
11316 2740
11317 1909
11317 2741
11318 1910
11318 2742
11319 1911
11319 2743
11320 1912
11320 2744
11321 1913
11321 2745
11322 1914
11322 2746
11323 1915
11323 2747
11324 1916
11324 2748
11325 1917
11325 2749
11326 1918
11326 2750
11327 1919
11327 2751
11328 1856
11328 3136
11329 1857
11329 3137
11330 1858
11330 3138
11331 1859
11331 3139
11332 1860
11332 3140
11333 1861
11333 3141
11334 1862
11334 3142
11335 1863
11335 3143
11336 1864
11336 3144
11337 1865
11337 3145
11338 1866
11338 3146
11339 1867
11339 3147
11340 1868
11340 3148
11341 1869
11341 3149
11342 1870
11342 3150
11343 1871
11343 3151
11344 1872
11344 3152
11345 1873
11345 3153
11346 1874
11346 3154
11347 1875
11347 3155
11348 1876
11348 3156
11349 1877
11349 3157
11350 1878
11350 3158
11351 1879
11351 3159
11352 1880
11352 3160
11353 1881
11353 3161
11354 1882
11354 3162
11355 1883
11355 3163
11356 1884
11356 3164
11357 1885
11357 3165
11358 1886
11358 3166
11359 1887
11359 3167
11360 1888
11360 3168
11361 1889
11361 3169
11362 1890
11362 3170
11363 1891
11363 3171
11364 1892
11364 3172
11365 1893
11365 3173
11366 1894
11366 3174
11367 1895
11367 3175
11368 1896
11368 3176
11369 1897
11369 3177
11370 1898
11370 3178
11371 1899
11371 3179
11372 1900
11372 3180
11373 1901
11373 3181
11374 1902
11374 3182
11375 1903
11375 3183
11376 1904
11376 3184
11377 1905
11377 3185
11378 1906
11378 3186
11379 1907
11379 3187
11380 1908
11380 3188
11381 1909
11381 3189
11382 1910
11382 3190
11383 1911
11383 3191
11384 1912
11384 3192
11385 1913
11385 3193
11386 1914
11386 3194
11387 1915
11387 3195
11388 1916
11388 3196
11389 1917
11389 3197
11390 1918
11390 3198
11391 1919
11391 3199
11392 1856
11392 3584
11393 1857
11393 3585
11394 1858
11394 3586
11395 1859
11395 3587
11396 1860
11396 3588
11397 1861
11397 3589
11398 1862
11398 3590
11399 1863
11399 3591
11400 1864
11400 3592
11401 1865
11401 3593
11402 1866
11402 3594
11403 1867
11403 3595
11404 1868
11404 3596
11405 1869
11405 3597
11406 1870
11406 3598
11407 1871
11407 3599
11408 1872
11408 3600
11409 1873
11409 3601
11410 1874
11410 3602
11411 1875
11411 3603
11412 1876
11412 3604
11413 1877
11413 3605
11414 1878
11414 3606
11415 1879
11415 3607
11416 1880
11416 3608
11417 1881
11417 3609
11418 1882
11418 3610
11419 1883
11419 3611
11420 1884
11420 3612
11421 1885
11421 3613
11422 1886
11422 3614
11423 1887
11423 3615
11424 1888
11424 3616
11425 1889
11425 3617
11426 1890
11426 3618
11427 1891
11427 3619
11428 1892
11428 3620
11429 1893
11429 3621
11430 1894
11430 3622
11431 1895
11431 3623
11432 1896
11432 3624
11433 1897
11433 3625
11434 1898
11434 3626
11435 1899
11435 3627
11436 1900
11436 3628
11437 1901
11437 3629
11438 1902
11438 3630
11439 1903
11439 3631
11440 1904
11440 3632
11441 1905
11441 3633
11442 1906
11442 3634
11443 1907
11443 3635
11444 1908
11444 3636
11445 1909
11445 3637
11446 1910
11446 3638
11447 1911
11447 3639
11448 1912
11448 3640
11449 1913
11449 3641
11450 1914
11450 3642
11451 1915
11451 3643
11452 1916
11452 3644
11453 1917
11453 3645
11454 1918
11454 3646
11455 1919
11455 3647
11456 1856
11456 3712
11457 1857
11457 3713
11458 1858
11458 3714
11459 1859
11459 3715
11460 1860
11460 3716
11461 1861
11461 3717
11462 1862
11462 3718
11463 1863
11463 3719
11464 1864
11464 3720
11465 1865
11465 3721
11466 1866
11466 3722
11467 1867
11467 3723
11468 1868
11468 3724
11469 1869
11469 3725
11470 1870
11470 3726
11471 1871
11471 3727
11472 1872
11472 3728
11473 1873
11473 3729
11474 1874
11474 3730
11475 1875
11475 3731
11476 1876
11476 3732
11477 1877
11477 3733
11478 1878
11478 3734
11479 1879
11479 3735
11480 1880
11480 3736
11481 1881
11481 3737
11482 1882
11482 3738
11483 1883
11483 3739
11484 1884
11484 3740
11485 1885
11485 3741
11486 1886
11486 3742
11487 1887
11487 3743
11488 1888
11488 3744
11489 1889
11489 3745
11490 1890
11490 3746
11491 1891
11491 3747
11492 1892
11492 3748
11493 1893
11493 3749
11494 1894
11494 3750
11495 1895
11495 3751
11496 1896
11496 3752
11497 1897
11497 3753
11498 1898
11498 3754
11499 1899
11499 3755
11500 1900
11500 3756
11501 1901
11501 3757
11502 1902
11502 3758
11503 1903
11503 3759
11504 1904
11504 3760
11505 1905
11505 3761
11506 1906
11506 3762
11507 1907
11507 3763
11508 1908
11508 3764
11509 1909
11509 3765
11510 1910
11510 3766
11511 1911
11511 3767
11512 1912
11512 3768
11513 1913
11513 3769
11514 1914
11514 3770
11515 1915
11515 3771
11516 1916
11516 3772
11517 1917
11517 3773
11518 1918
11518 3774
11519 1919
11519 3775
11520 1920
11520 2304
11521 1921
11521 2305
11522 1922
11522 2306
11523 1923
11523 2307
11524 1924
11524 2308
11525 1925
11525 2309
11526 1926
11526 2310
11527 1927
11527 2311
11528 1928
11528 2312
11529 1929
11529 2313
11530 1930
11530 2314
11531 1931
11531 2315
11532 1932
11532 2316
11533 1933
11533 2317
11534 1934
11534 2318
11535 1935
11535 2319
11536 1936
11536 2320
11537 1937
11537 2321
11538 1938
11538 2322
11539 1939
11539 2323
11540 1940
11540 2324
11541 1941
11541 2325
11542 1942
11542 2326
11543 1943
11543 2327
11544 1944
11544 2328
11545 1945
11545 2329
11546 1946
11546 2330
11547 1947
11547 2331
11548 1948
11548 2332
11549 1949
11549 2333
11550 1950
11550 2334
11551 1951
11551 2335
11552 1952
11552 2336
11553 1953
11553 2337
11554 1954
11554 2338
11555 1955
11555 2339
11556 1956
11556 2340
11557 1957
11557 2341
11558 1958
11558 2342
11559 1959
11559 2343
11560 1960
11560 2344
11561 1961
11561 2345
11562 1962
11562 2346
11563 1963
11563 2347
11564 1964
11564 2348
11565 1965
11565 2349
11566 1966
11566 2350
11567 1967
11567 2351
11568 1968
11568 2352
11569 1969
11569 2353
11570 1970
11570 2354
11571 1971
11571 2355
11572 1972
11572 2356
11573 1973
11573 2357
11574 1974
11574 2358
11575 1975
11575 2359
11576 1976
11576 2360
11577 1977
11577 2361
11578 1978
11578 2362
11579 1979
11579 2363
11580 1980
11580 2364
11581 1981
11581 2365
11582 1982
11582 2366
11583 1983
11583 2367
11584 1920
11584 2432
11585 1921
11585 2433
11586 1922
11586 2434
11587 1923
11587 2435
11588 1924
11588 2436
11589 1925
11589 2437
11590 1926
11590 2438
11591 1927
11591 2439
11592 1928
11592 2440
11593 1929
11593 2441
11594 1930
11594 2442
11595 1931
11595 2443
11596 1932
11596 2444
11597 1933
11597 2445
11598 1934
11598 2446
11599 1935
11599 2447
11600 1936
11600 2448
11601 1937
11601 2449
11602 1938
11602 2450
11603 1939
11603 2451
11604 1940
11604 2452
11605 1941
11605 2453
11606 1942
11606 2454
11607 1943
11607 2455
11608 1944
11608 2456
11609 1945
11609 2457
11610 1946
11610 2458
11611 1947
11611 2459
11612 1948
11612 2460
11613 1949
11613 2461
11614 1950
11614 2462
11615 1951
11615 2463
11616 1952
11616 2464
11617 1953
11617 2465
11618 1954
11618 2466
11619 1955
11619 2467
11620 1956
11620 2468
11621 1957
11621 2469
11622 1958
11622 2470
11623 1959
11623 2471
11624 1960
11624 2472
11625 1961
11625 2473
11626 1962
11626 2474
11627 1963
11627 2475
11628 1964
11628 2476
11629 1965
11629 2477
11630 1966
11630 2478
11631 1967
11631 2479
11632 1968
11632 2480
11633 1969
11633 2481
11634 1970
11634 2482
11635 1971
11635 2483
11636 1972
11636 2484
11637 1973
11637 2485
11638 1974
11638 2486
11639 1975
11639 2487
11640 1976
11640 2488
11641 1977
11641 2489
11642 1978
11642 2490
11643 1979
11643 2491
11644 1980
11644 2492
11645 1981
11645 2493
11646 1982
11646 2494
11647 1983
11647 2495
11648 1920
11648 2688
11649 1921
11649 2689
11650 1922
11650 2690
11651 1923
11651 2691
11652 1924
11652 2692
11653 1925
11653 2693
11654 1926
11654 2694
11655 1927
11655 2695
11656 1928
11656 2696
11657 1929
11657 2697
11658 1930
11658 2698
11659 1931
11659 2699
11660 1932
11660 2700
11661 1933
11661 2701
11662 1934
11662 2702
11663 1935
11663 2703
11664 1936
11664 2704
11665 1937
11665 2705
11666 1938
11666 2706
11667 1939
11667 2707
11668 1940
11668 2708
11669 1941
11669 2709
11670 1942
11670 2710
11671 1943
11671 2711
11672 1944
11672 2712
11673 1945
11673 2713
11674 1946
11674 2714
11675 1947
11675 2715
11676 1948
11676 2716
11677 1949
11677 2717
11678 1950
11678 2718
11679 1951
11679 2719
11680 1952
11680 2720
11681 1953
11681 2721
11682 1954
11682 2722
11683 1955
11683 2723
11684 1956
11684 2724
11685 1957
11685 2725
11686 1958
11686 2726
11687 1959
11687 2727
11688 1960
11688 2728
11689 1961
11689 2729
11690 1962
11690 2730
11691 1963
11691 2731
11692 1964
11692 2732
11693 1965
11693 2733
11694 1966
11694 2734
11695 1967
11695 2735
11696 1968
11696 2736
11697 1969
11697 2737
11698 1970
11698 2738
11699 1971
11699 2739
11700 1972
11700 2740
11701 1973
11701 2741
11702 1974
11702 2742
11703 1975
11703 2743
11704 1976
11704 2744
11705 1977
11705 2745
11706 1978
11706 2746
11707 1979
11707 2747
11708 1980
11708 2748
11709 1981
11709 2749
11710 1982
11710 2750
11711 1983
11711 2751
11712 1920
11712 3264
11713 1921
11713 3265
11714 1922
11714 3266
11715 1923
11715 3267
11716 1924
11716 3268
11717 1925
11717 3269
11718 1926
11718 3270
11719 1927
11719 3271
11720 1928
11720 3272
11721 1929
11721 3273
11722 1930
11722 3274
11723 1931
11723 3275
11724 1932
11724 3276
11725 1933
11725 3277
11726 1934
11726 3278
11727 1935
11727 3279
11728 1936
11728 3280
11729 1937
11729 3281
11730 1938
11730 3282
11731 1939
11731 3283
11732 1940
11732 3284
11733 1941
11733 3285
11734 1942
11734 3286
11735 1943
11735 3287
11736 1944
11736 3288
11737 1945
11737 3289
11738 1946
11738 3290
11739 1947
11739 3291
11740 1948
11740 3292
11741 1949
11741 3293
11742 1950
11742 3294
11743 1951
11743 3295
11744 1952
11744 3296
11745 1953
11745 3297
11746 1954
11746 3298
11747 1955
11747 3299
11748 1956
11748 3300
11749 1957
11749 3301
11750 1958
11750 3302
11751 1959
11751 3303
11752 1960
11752 3304
11753 1961
11753 3305
11754 1962
11754 3306
11755 1963
11755 3307
11756 1964
11756 3308
11757 1965
11757 3309
11758 1966
11758 3310
11759 1967
11759 3311
11760 1968
11760 3312
11761 1969
11761 3313
11762 1970
11762 3314
11763 1971
11763 3315
11764 1972
11764 3316
11765 1973
11765 3317
11766 1974
11766 3318
11767 1975
11767 3319
11768 1976
11768 3320
11769 1977
11769 3321
11770 1978
11770 3322
11771 1979
11771 3323
11772 1980
11772 3324
11773 1981
11773 3325
11774 1982
11774 3326
11775 1983
11775 3327
11776 1920
11776 3520
11777 1921
11777 3521
11778 1922
11778 3522
11779 1923
11779 3523
11780 1924
11780 3524
11781 1925
11781 3525
11782 1926
11782 3526
11783 1927
11783 3527
11784 1928
11784 3528
11785 1929
11785 3529
11786 1930
11786 3530
11787 1931
11787 3531
11788 1932
11788 3532
11789 1933
11789 3533
11790 1934
11790 3534
11791 1935
11791 3535
11792 1936
11792 3536
11793 1937
11793 3537
11794 1938
11794 3538
11795 1939
11795 3539
11796 1940
11796 3540
11797 1941
11797 3541
11798 1942
11798 3542
11799 1943
11799 3543
11800 1944
11800 3544
11801 1945
11801 3545
11802 1946
11802 3546
11803 1947
11803 3547
11804 1948
11804 3548
11805 1949
11805 3549
11806 1950
11806 3550
11807 1951
11807 3551
11808 1952
11808 3552
11809 1953
11809 3553
11810 1954
11810 3554
11811 1955
11811 3555
11812 1956
11812 3556
11813 1957
11813 3557
11814 1958
11814 3558
11815 1959
11815 3559
11816 1960
11816 3560
11817 1961
11817 3561
11818 1962
11818 3562
11819 1963
11819 3563
11820 1964
11820 3564
11821 1965
11821 3565
11822 1966
11822 3566
11823 1967
11823 3567
11824 1968
11824 3568
11825 1969
11825 3569
11826 1970
11826 3570
11827 1971
11827 3571
11828 1972
11828 3572
11829 1973
11829 3573
11830 1974
11830 3574
11831 1975
11831 3575
11832 1976
11832 3576
11833 1977
11833 3577
11834 1978
11834 3578
11835 1979
11835 3579
11836 1980
11836 3580
11837 1981
11837 3581
11838 1982
11838 3582
11839 1983
11839 3583
11840 1920
11840 3776
11841 1921
11841 3777
11842 1922
11842 3778
11843 1923
11843 3779
11844 1924
11844 3780
11845 1925
11845 3781
11846 1926
11846 3782
11847 1927
11847 3783
11848 1928
11848 3784
11849 1929
11849 3785
11850 1930
11850 3786
11851 1931
11851 3787
11852 1932
11852 3788
11853 1933
11853 3789
11854 1934
11854 3790
11855 1935
11855 3791
11856 1936
11856 3792
11857 1937
11857 3793
11858 1938
11858 3794
11859 1939
11859 3795
11860 1940
11860 3796
11861 1941
11861 3797
11862 1942
11862 3798
11863 1943
11863 3799
11864 1944
11864 3800
11865 1945
11865 3801
11866 1946
11866 3802
11867 1947
11867 3803
11868 1948
11868 3804
11869 1949
11869 3805
11870 1950
11870 3806
11871 1951
11871 3807
11872 1952
11872 3808
11873 1953
11873 3809
11874 1954
11874 3810
11875 1955
11875 3811
11876 1956
11876 3812
11877 1957
11877 3813
11878 1958
11878 3814
11879 1959
11879 3815
11880 1960
11880 3816
11881 1961
11881 3817
11882 1962
11882 3818
11883 1963
11883 3819
11884 1964
11884 3820
11885 1965
11885 3821
11886 1966
11886 3822
11887 1967
11887 3823
11888 1968
11888 3824
11889 1969
11889 3825
11890 1970
11890 3826
11891 1971
11891 3827
11892 1972
11892 3828
11893 1973
11893 3829
11894 1974
11894 3830
11895 1975
11895 3831
11896 1976
11896 3832
11897 1977
11897 3833
11898 1978
11898 3834
11899 1979
11899 3835
11900 1980
11900 3836
11901 1981
11901 3837
11902 1982
11902 3838
11903 1983
11903 3839
