22400 6400 44800
0 1
0 128
1 2
1 129
2 3
2 130
3 4
3 131
4 5
4 132
5 6
5 133
6 7
6 134
7 8
7 135
8 9
8 136
9 10
9 137
10 11
10 138
11 12
11 139
12 13
12 140
13 14
13 141
14 15
14 142
15 16
15 143
16 17
16 144
17 18
17 145
18 19
18 146
19 20
19 147
20 21
20 148
21 22
21 149
22 23
22 150
23 24
23 151
24 25
24 152
25 26
25 153
26 27
26 154
27 28
27 155
28 29
28 156
29 30
29 157
30 31
30 158
31 32
31 159
32 33
32 160
33 34
33 161
34 35
34 162
35 36
35 163
36 37
36 164
37 38
37 165
38 39
38 166
39 40
39 167
40 41
40 168
41 42
41 169
42 43
42 170
43 44
43 171
44 45
44 172
45 46
45 173
46 47
46 174
47 48
47 175
48 49
48 176
49 50
49 177
50 51
50 178
51 52
51 179
52 53
52 180
53 54
53 181
54 55
54 182
55 56
55 183
56 57
56 184
57 58
57 185
58 59
58 186
59 60
59 187
60 61
60 188
61 62
61 189
62 63
62 190
63 64
63 191
64 65
64 192
65 66
65 193
66 67
66 194
67 68
67 195
68 69
68 196
69 70
69 197
70 71
70 198
71 72
71 199
72 73
72 200
73 74
73 201
74 75
74 202
75 76
75 203
76 77
76 204
77 78
77 205
78 79
78 206
79 80
79 207
80 81
80 208
81 82
81 209
82 83
82 210
83 84
83 211
84 85
84 212
85 86
85 213
86 87
86 214
87 88
87 215
88 89
88 216
89 90
89 217
90 91
90 218
91 92
91 219
92 93
92 220
93 94
93 221
94 95
94 222
95 96
95 223
96 97
96 224
97 98
97 225
98 99
98 226
99 100
99 227
100 101
100 228
101 102
101 229
102 103
102 230
103 104
103 231
104 105
104 232
105 106
105 233
106 107
106 234
107 108
107 235
108 109
108 236
109 110
109 237
110 111
110 238
111 112
111 239
112 113
112 240
113 114
113 241
114 115
114 242
115 116
115 243
116 117
116 244
117 118
117 245
118 119
118 246
119 120
119 247
120 121
120 248
121 122
121 249
122 123
122 250
123 124
123 251
124 125
124 252
125 126
125 253
126 127
126 254
127 0
127 255
128 0
128 512
129 1
129 513
130 2
130 514
131 3
131 515
132 4
132 516
133 5
133 517
134 6
134 518
135 7
135 519
136 8
136 520
137 9
137 521
138 10
138 522
139 11
139 523
140 12
140 524
141 13
141 525
142 14
142 526
143 15
143 527
144 16
144 528
145 17
145 529
146 18
146 530
147 19
147 531
148 20
148 532
149 21
149 533
150 22
150 534
151 23
151 535
152 24
152 536
153 25
153 537
154 26
154 538
155 27
155 539
156 28
156 540
157 29
157 541
158 30
158 542
159 31
159 543
160 32
160 544
161 33
161 545
162 34
162 546
163 35
163 547
164 36
164 548
165 37
165 549
166 38
166 550
167 39
167 551
168 40
168 552
169 41
169 553
170 42
170 554
171 43
171 555
172 44
172 556
173 45
173 557
174 46
174 558
175 47
175 559
176 48
176 560
177 49
177 561
178 50
178 562
179 51
179 563
180 52
180 564
181 53
181 565
182 54
182 566
183 55
183 567
184 56
184 568
185 57
185 569
186 58
186 570
187 59
187 571
188 60
188 572
189 61
189 573
190 62
190 574
191 63
191 575
192 64
192 576
193 65
193 577
194 66
194 578
195 67
195 579
196 68
196 580
197 69
197 581
198 70
198 582
199 71
199 583
200 72
200 584
201 73
201 585
202 74
202 586
203 75
203 587
204 76
204 588
205 77
205 589
206 78
206 590
207 79
207 591
208 80
208 592
209 81
209 593
210 82
210 594
211 83
211 595
212 84
212 596
213 85
213 597
214 86
214 598
215 87
215 599
216 88
216 600
217 89
217 601
218 90
218 602
219 91
219 603
220 92
220 604
221 93
221 605
222 94
222 606
223 95
223 607
224 96
224 608
225 97
225 609
226 98
226 610
227 99
227 611
228 100
228 612
229 101
229 613
230 102
230 614
231 103
231 615
232 104
232 616
233 105
233 617
234 106
234 618
235 107
235 619
236 108
236 620
237 109
237 621
238 110
238 622
239 111
239 623
240 112
240 624
241 113
241 625
242 114
242 626
243 115
243 627
244 116
244 628
245 117
245 629
246 118
246 630
247 119
247 631
248 120
248 632
249 121
249 633
250 122
250 634
251 123
251 635
252 124
252 636
253 125
253 637
254 126
254 638
255 127
255 639
256 0
256 3200
257 1
257 3201
258 2
258 3202
259 3
259 3203
260 4
260 3204
261 5
261 3205
262 6
262 3206
263 7
263 3207
264 8
264 3208
265 9
265 3209
266 10
266 3210
267 11
267 3211
268 12
268 3212
269 13
269 3213
270 14
270 3214
271 15
271 3215
272 16
272 3216
273 17
273 3217
274 18
274 3218
275 19
275 3219
276 20
276 3220
277 21
277 3221
278 22
278 3222
279 23
279 3223
280 24
280 3224
281 25
281 3225
282 26
282 3226
283 27
283 3227
284 28
284 3228
285 29
285 3229
286 30
286 3230
287 31
287 3231
288 32
288 3232
289 33
289 3233
290 34
290 3234
291 35
291 3235
292 36
292 3236
293 37
293 3237
294 38
294 3238
295 39
295 3239
296 40
296 3240
297 41
297 3241
298 42
298 3242
299 43
299 3243
300 44
300 3244
301 45
301 3245
302 46
302 3246
303 47
303 3247
304 48
304 3248
305 49
305 3249
306 50
306 3250
307 51
307 3251
308 52
308 3252
309 53
309 3253
310 54
310 3254
311 55
311 3255
312 56
312 3256
313 57
313 3257
314 58
314 3258
315 59
315 3259
316 60
316 3260
317 61
317 3261
318 62
318 3262
319 63
319 3263
320 64
320 3264
321 65
321 3265
322 66
322 3266
323 67
323 3267
324 68
324 3268
325 69
325 3269
326 70
326 3270
327 71
327 3271
328 72
328 3272
329 73
329 3273
330 74
330 3274
331 75
331 3275
332 76
332 3276
333 77
333 3277
334 78
334 3278
335 79
335 3279
336 80
336 3280
337 81
337 3281
338 82
338 3282
339 83
339 3283
340 84
340 3284
341 85
341 3285
342 86
342 3286
343 87
343 3287
344 88
344 3288
345 89
345 3289
346 90
346 3290
347 91
347 3291
348 92
348 3292
349 93
349 3293
350 94
350 3294
351 95
351 3295
352 96
352 3296
353 97
353 3297
354 98
354 3298
355 99
355 3299
356 100
356 3300
357 101
357 3301
358 102
358 3302
359 103
359 3303
360 104
360 3304
361 105
361 3305
362 106
362 3306
363 107
363 3307
364 108
364 3308
365 109
365 3309
366 110
366 3310
367 111
367 3311
368 112
368 3312
369 113
369 3313
370 114
370 3314
371 115
371 3315
372 116
372 3316
373 117
373 3317
374 118
374 3318
375 119
375 3319
376 120
376 3320
377 121
377 3321
378 122
378 3322
379 123
379 3323
380 124
380 3324
381 125
381 3325
382 126
382 3326
383 127
383 3327
384 0
384 3840
385 1
385 3841
386 2
386 3842
387 3
387 3843
388 4
388 3844
389 5
389 3845
390 6
390 3846
391 7
391 3847
392 8
392 3848
393 9
393 3849
394 10
394 3850
395 11
395 3851
396 12
396 3852
397 13
397 3853
398 14
398 3854
399 15
399 3855
400 16
400 3856
401 17
401 3857
402 18
402 3858
403 19
403 3859
404 20
404 3860
405 21
405 3861
406 22
406 3862
407 23
407 3863
408 24
408 3864
409 25
409 3865
410 26
410 3866
411 27
411 3867
412 28
412 3868
413 29
413 3869
414 30
414 3870
415 31
415 3871
416 32
416 3872
417 33
417 3873
418 34
418 3874
419 35
419 3875
420 36
420 3876
421 37
421 3877
422 38
422 3878
423 39
423 3879
424 40
424 3880
425 41
425 3881
426 42
426 3882
427 43
427 3883
428 44
428 3884
429 45
429 3885
430 46
430 3886
431 47
431 3887
432 48
432 3888
433 49
433 3889
434 50
434 3890
435 51
435 3891
436 52
436 3892
437 53
437 3893
438 54
438 3894
439 55
439 3895
440 56
440 3896
441 57
441 3897
442 58
442 3898
443 59
443 3899
444 60
444 3900
445 61
445 3901
446 62
446 3902
447 63
447 3903
448 64
448 3904
449 65
449 3905
450 66
450 3906
451 67
451 3907
452 68
452 3908
453 69
453 3909
454 70
454 3910
455 71
455 3911
456 72
456 3912
457 73
457 3913
458 74
458 3914
459 75
459 3915
460 76
460 3916
461 77
461 3917
462 78
462 3918
463 79
463 3919
464 80
464 3920
465 81
465 3921
466 82
466 3922
467 83
467 3923
468 84
468 3924
469 85
469 3925
470 86
470 3926
471 87
471 3927
472 88
472 3928
473 89
473 3929
474 90
474 3930
475 91
475 3931
476 92
476 3932
477 93
477 3933
478 94
478 3934
479 95
479 3935
480 96
480 3936
481 97
481 3937
482 98
482 3938
483 99
483 3939
484 100
484 3940
485 101
485 3941
486 102
486 3942
487 103
487 3943
488 104
488 3944
489 105
489 3945
490 106
490 3946
491 107
491 3947
492 108
492 3948
493 109
493 3949
494 110
494 3950
495 111
495 3951
496 112
496 3952
497 113
497 3953
498 114
498 3954
499 115
499 3955
500 116
500 3956
501 117
501 3957
502 118
502 3958
503 119
503 3959
504 120
504 3960
505 121
505 3961
506 122
506 3962
507 123
507 3963
508 124
508 3964
509 125
509 3965
510 126
510 3966
511 127
511 3967
512 0
512 4480
513 1
513 4481
514 2
514 4482
515 3
515 4483
516 4
516 4484
517 5
517 4485
518 6
518 4486
519 7
519 4487
520 8
520 4488
521 9
521 4489
522 10
522 4490
523 11
523 4491
524 12
524 4492
525 13
525 4493
526 14
526 4494
527 15
527 4495
528 16
528 4496
529 17
529 4497
530 18
530 4498
531 19
531 4499
532 20
532 4500
533 21
533 4501
534 22
534 4502
535 23
535 4503
536 24
536 4504
537 25
537 4505
538 26
538 4506
539 27
539 4507
540 28
540 4508
541 29
541 4509
542 30
542 4510
543 31
543 4511
544 32
544 4512
545 33
545 4513
546 34
546 4514
547 35
547 4515
548 36
548 4516
549 37
549 4517
550 38
550 4518
551 39
551 4519
552 40
552 4520
553 41
553 4521
554 42
554 4522
555 43
555 4523
556 44
556 4524
557 45
557 4525
558 46
558 4526
559 47
559 4527
560 48
560 4528
561 49
561 4529
562 50
562 4530
563 51
563 4531
564 52
564 4532
565 53
565 4533
566 54
566 4534
567 55
567 4535
568 56
568 4536
569 57
569 4537
570 58
570 4538
571 59
571 4539
572 60
572 4540
573 61
573 4541
574 62
574 4542
575 63
575 4543
576 64
576 4544
577 65
577 4545
578 66
578 4546
579 67
579 4547
580 68
580 4548
581 69
581 4549
582 70
582 4550
583 71
583 4551
584 72
584 4552
585 73
585 4553
586 74
586 4554
587 75
587 4555
588 76
588 4556
589 77
589 4557
590 78
590 4558
591 79
591 4559
592 80
592 4560
593 81
593 4561
594 82
594 4562
595 83
595 4563
596 84
596 4564
597 85
597 4565
598 86
598 4566
599 87
599 4567
600 88
600 4568
601 89
601 4569
602 90
602 4570
603 91
603 4571
604 92
604 4572
605 93
605 4573
606 94
606 4574
607 95
607 4575
608 96
608 4576
609 97
609 4577
610 98
610 4578
611 99
611 4579
612 100
612 4580
613 101
613 4581
614 102
614 4582
615 103
615 4583
616 104
616 4584
617 105
617 4585
618 106
618 4586
619 107
619 4587
620 108
620 4588
621 109
621 4589
622 110
622 4590
623 111
623 4591
624 112
624 4592
625 113
625 4593
626 114
626 4594
627 115
627 4595
628 116
628 4596
629 117
629 4597
630 118
630 4598
631 119
631 4599
632 120
632 4600
633 121
633 4601
634 122
634 4602
635 123
635 4603
636 124
636 4604
637 125
637 4605
638 126
638 4606
639 127
639 4607
640 0
640 5120
641 1
641 5121
642 2
642 5122
643 3
643 5123
644 4
644 5124
645 5
645 5125
646 6
646 5126
647 7
647 5127
648 8
648 5128
649 9
649 5129
650 10
650 5130
651 11
651 5131
652 12
652 5132
653 13
653 5133
654 14
654 5134
655 15
655 5135
656 16
656 5136
657 17
657 5137
658 18
658 5138
659 19
659 5139
660 20
660 5140
661 21
661 5141
662 22
662 5142
663 23
663 5143
664 24
664 5144
665 25
665 5145
666 26
666 5146
667 27
667 5147
668 28
668 5148
669 29
669 5149
670 30
670 5150
671 31
671 5151
672 32
672 5152
673 33
673 5153
674 34
674 5154
675 35
675 5155
676 36
676 5156
677 37
677 5157
678 38
678 5158
679 39
679 5159
680 40
680 5160
681 41
681 5161
682 42
682 5162
683 43
683 5163
684 44
684 5164
685 45
685 5165
686 46
686 5166
687 47
687 5167
688 48
688 5168
689 49
689 5169
690 50
690 5170
691 51
691 5171
692 52
692 5172
693 53
693 5173
694 54
694 5174
695 55
695 5175
696 56
696 5176
697 57
697 5177
698 58
698 5178
699 59
699 5179
700 60
700 5180
701 61
701 5181
702 62
702 5182
703 63
703 5183
704 64
704 5184
705 65
705 5185
706 66
706 5186
707 67
707 5187
708 68
708 5188
709 69
709 5189
710 70
710 5190
711 71
711 5191
712 72
712 5192
713 73
713 5193
714 74
714 5194
715 75
715 5195
716 76
716 5196
717 77
717 5197
718 78
718 5198
719 79
719 5199
720 80
720 5200
721 81
721 5201
722 82
722 5202
723 83
723 5203
724 84
724 5204
725 85
725 5205
726 86
726 5206
727 87
727 5207
728 88
728 5208
729 89
729 5209
730 90
730 5210
731 91
731 5211
732 92
732 5212
733 93
733 5213
734 94
734 5214
735 95
735 5215
736 96
736 5216
737 97
737 5217
738 98
738 5218
739 99
739 5219
740 100
740 5220
741 101
741 5221
742 102
742 5222
743 103
743 5223
744 104
744 5224
745 105
745 5225
746 106
746 5226
747 107
747 5227
748 108
748 5228
749 109
749 5229
750 110
750 5230
751 111
751 5231
752 112
752 5232
753 113
753 5233
754 114
754 5234
755 115
755 5235
756 116
756 5236
757 117
757 5237
758 118
758 5238
759 119
759 5239
760 120
760 5240
761 121
761 5241
762 122
762 5242
763 123
763 5243
764 124
764 5244
765 125
765 5245
766 126
766 5246
767 127
767 5247
768 0
768 5760
769 1
769 5761
770 2
770 5762
771 3
771 5763
772 4
772 5764
773 5
773 5765
774 6
774 5766
775 7
775 5767
776 8
776 5768
777 9
777 5769
778 10
778 5770
779 11
779 5771
780 12
780 5772
781 13
781 5773
782 14
782 5774
783 15
783 5775
784 16
784 5776
785 17
785 5777
786 18
786 5778
787 19
787 5779
788 20
788 5780
789 21
789 5781
790 22
790 5782
791 23
791 5783
792 24
792 5784
793 25
793 5785
794 26
794 5786
795 27
795 5787
796 28
796 5788
797 29
797 5789
798 30
798 5790
799 31
799 5791
800 32
800 5792
801 33
801 5793
802 34
802 5794
803 35
803 5795
804 36
804 5796
805 37
805 5797
806 38
806 5798
807 39
807 5799
808 40
808 5800
809 41
809 5801
810 42
810 5802
811 43
811 5803
812 44
812 5804
813 45
813 5805
814 46
814 5806
815 47
815 5807
816 48
816 5808
817 49
817 5809
818 50
818 5810
819 51
819 5811
820 52
820 5812
821 53
821 5813
822 54
822 5814
823 55
823 5815
824 56
824 5816
825 57
825 5817
826 58
826 5818
827 59
827 5819
828 60
828 5820
829 61
829 5821
830 62
830 5822
831 63
831 5823
832 64
832 5824
833 65
833 5825
834 66
834 5826
835 67
835 5827
836 68
836 5828
837 69
837 5829
838 70
838 5830
839 71
839 5831
840 72
840 5832
841 73
841 5833
842 74
842 5834
843 75
843 5835
844 76
844 5836
845 77
845 5837
846 78
846 5838
847 79
847 5839
848 80
848 5840
849 81
849 5841
850 82
850 5842
851 83
851 5843
852 84
852 5844
853 85
853 5845
854 86
854 5846
855 87
855 5847
856 88
856 5848
857 89
857 5849
858 90
858 5850
859 91
859 5851
860 92
860 5852
861 93
861 5853
862 94
862 5854
863 95
863 5855
864 96
864 5856
865 97
865 5857
866 98
866 5858
867 99
867 5859
868 100
868 5860
869 101
869 5861
870 102
870 5862
871 103
871 5863
872 104
872 5864
873 105
873 5865
874 106
874 5866
875 107
875 5867
876 108
876 5868
877 109
877 5869
878 110
878 5870
879 111
879 5871
880 112
880 5872
881 113
881 5873
882 114
882 5874
883 115
883 5875
884 116
884 5876
885 117
885 5877
886 118
886 5878
887 119
887 5879
888 120
888 5880
889 121
889 5881
890 122
890 5882
891 123
891 5883
892 124
892 5884
893 125
893 5885
894 126
894 5886
895 127
895 5887
896 128
896 256
897 129
897 257
898 130
898 258
899 131
899 259
900 132
900 260
901 133
901 261
902 134
902 262
903 135
903 263
904 136
904 264
905 137
905 265
906 138
906 266
907 139
907 267
908 140
908 268
909 141
909 269
910 142
910 270
911 143
911 271
912 144
912 272
913 145
913 273
914 146
914 274
915 147
915 275
916 148
916 276
917 149
917 277
918 150
918 278
919 151
919 279
920 152
920 280
921 153
921 281
922 154
922 282
923 155
923 283
924 156
924 284
925 157
925 285
926 158
926 286
927 159
927 287
928 160
928 288
929 161
929 289
930 162
930 290
931 163
931 291
932 164
932 292
933 165
933 293
934 166
934 294
935 167
935 295
936 168
936 296
937 169
937 297
938 170
938 298
939 171
939 299
940 172
940 300
941 173
941 301
942 174
942 302
943 175
943 303
944 176
944 304
945 177
945 305
946 178
946 306
947 179
947 307
948 180
948 308
949 181
949 309
950 182
950 310
951 183
951 311
952 184
952 312
953 185
953 313
954 186
954 314
955 187
955 315
956 188
956 316
957 189
957 317
958 190
958 318
959 191
959 319
960 192
960 320
961 193
961 321
962 194
962 322
963 195
963 323
964 196
964 324
965 197
965 325
966 198
966 326
967 199
967 327
968 200
968 328
969 201
969 329
970 202
970 330
971 203
971 331
972 204
972 332
973 205
973 333
974 206
974 334
975 207
975 335
976 208
976 336
977 209
977 337
978 210
978 338
979 211
979 339
980 212
980 340
981 213
981 341
982 214
982 342
983 215
983 343
984 216
984 344
985 217
985 345
986 218
986 346
987 219
987 347
988 220
988 348
989 221
989 349
990 222
990 350
991 223
991 351
992 224
992 352
993 225
993 353
994 226
994 354
995 227
995 355
996 228
996 356
997 229
997 357
998 230
998 358
999 231
999 359
1000 232
1000 360
1001 233
1001 361
1002 234
1002 362
1003 235
1003 363
1004 236
1004 364
1005 237
1005 365
1006 238
1006 366
1007 239
1007 367
1008 240
1008 368
1009 241
1009 369
1010 242
1010 370
1011 243
1011 371
1012 244
1012 372
1013 245
1013 373
1014 246
1014 374
1015 247
1015 375
1016 248
1016 376
1017 249
1017 377
1018 250
1018 378
1019 251
1019 379
1020 252
1020 380
1021 253
1021 381
1022 254
1022 382
1023 255
1023 383
1024 128
1024 3328
1025 129
1025 3329
1026 130
1026 3330
1027 131
1027 3331
1028 132
1028 3332
1029 133
1029 3333
1030 134
1030 3334
1031 135
1031 3335
1032 136
1032 3336
1033 137
1033 3337
1034 138
1034 3338
1035 139
1035 3339
1036 140
1036 3340
1037 141
1037 3341
1038 142
1038 3342
1039 143
1039 3343
1040 144
1040 3344
1041 145
1041 3345
1042 146
1042 3346
1043 147
1043 3347
1044 148
1044 3348
1045 149
1045 3349
1046 150
1046 3350
1047 151
1047 3351
1048 152
1048 3352
1049 153
1049 3353
1050 154
1050 3354
1051 155
1051 3355
1052 156
1052 3356
1053 157
1053 3357
1054 158
1054 3358
1055 159
1055 3359
1056 160
1056 3360
1057 161
1057 3361
1058 162
1058 3362
1059 163
1059 3363
1060 164
1060 3364
1061 165
1061 3365
1062 166
1062 3366
1063 167
1063 3367
1064 168
1064 3368
1065 169
1065 3369
1066 170
1066 3370
1067 171
1067 3371
1068 172
1068 3372
1069 173
1069 3373
1070 174
1070 3374
1071 175
1071 3375
1072 176
1072 3376
1073 177
1073 3377
1074 178
1074 3378
1075 179
1075 3379
1076 180
1076 3380
1077 181
1077 3381
1078 182
1078 3382
1079 183
1079 3383
1080 184
1080 3384
1081 185
1081 3385
1082 186
1082 3386
1083 187
1083 3387
1084 188
1084 3388
1085 189
1085 3389
1086 190
1086 3390
1087 191
1087 3391
1088 192
1088 3392
1089 193
1089 3393
1090 194
1090 3394
1091 195
1091 3395
1092 196
1092 3396
1093 197
1093 3397
1094 198
1094 3398
1095 199
1095 3399
1096 200
1096 3400
1097 201
1097 3401
1098 202
1098 3402
1099 203
1099 3403
1100 204
1100 3404
1101 205
1101 3405
1102 206
1102 3406
1103 207
1103 3407
1104 208
1104 3408
1105 209
1105 3409
1106 210
1106 3410
1107 211
1107 3411
1108 212
1108 3412
1109 213
1109 3413
1110 214
1110 3414
1111 215
1111 3415
1112 216
1112 3416
1113 217
1113 3417
1114 218
1114 3418
1115 219
1115 3419
1116 220
1116 3420
1117 221
1117 3421
1118 222
1118 3422
1119 223
1119 3423
1120 224
1120 3424
1121 225
1121 3425
1122 226
1122 3426
1123 227
1123 3427
1124 228
1124 3428
1125 229
1125 3429
1126 230
1126 3430
1127 231
1127 3431
1128 232
1128 3432
1129 233
1129 3433
1130 234
1130 3434
1131 235
1131 3435
1132 236
1132 3436
1133 237
1133 3437
1134 238
1134 3438
1135 239
1135 3439
1136 240
1136 3440
1137 241
1137 3441
1138 242
1138 3442
1139 243
1139 3443
1140 244
1140 3444
1141 245
1141 3445
1142 246
1142 3446
1143 247
1143 3447
1144 248
1144 3448
1145 249
1145 3449
1146 250
1146 3450
1147 251
1147 3451
1148 252
1148 3452
1149 253
1149 3453
1150 254
1150 3454
1151 255
1151 3455
1152 128
1152 3968
1153 129
1153 3969
1154 130
1154 3970
1155 131
1155 3971
1156 132
1156 3972
1157 133
1157 3973
1158 134
1158 3974
1159 135
1159 3975
1160 136
1160 3976
1161 137
1161 3977
1162 138
1162 3978
1163 139
1163 3979
1164 140
1164 3980
1165 141
1165 3981
1166 142
1166 3982
1167 143
1167 3983
1168 144
1168 3984
1169 145
1169 3985
1170 146
1170 3986
1171 147
1171 3987
1172 148
1172 3988
1173 149
1173 3989
1174 150
1174 3990
1175 151
1175 3991
1176 152
1176 3992
1177 153
1177 3993
1178 154
1178 3994
1179 155
1179 3995
1180 156
1180 3996
1181 157
1181 3997
1182 158
1182 3998
1183 159
1183 3999
1184 160
1184 4000
1185 161
1185 4001
1186 162
1186 4002
1187 163
1187 4003
1188 164
1188 4004
1189 165
1189 4005
1190 166
1190 4006
1191 167
1191 4007
1192 168
1192 4008
1193 169
1193 4009
1194 170
1194 4010
1195 171
1195 4011
1196 172
1196 4012
1197 173
1197 4013
1198 174
1198 4014
1199 175
1199 4015
1200 176
1200 4016
1201 177
1201 4017
1202 178
1202 4018
1203 179
1203 4019
1204 180
1204 4020
1205 181
1205 4021
1206 182
1206 4022
1207 183
1207 4023
1208 184
1208 4024
1209 185
1209 4025
1210 186
1210 4026
1211 187
1211 4027
1212 188
1212 4028
1213 189
1213 4029
1214 190
1214 4030
1215 191
1215 4031
1216 192
1216 4032
1217 193
1217 4033
1218 194
1218 4034
1219 195
1219 4035
1220 196
1220 4036
1221 197
1221 4037
1222 198
1222 4038
1223 199
1223 4039
1224 200
1224 4040
1225 201
1225 4041
1226 202
1226 4042
1227 203
1227 4043
1228 204
1228 4044
1229 205
1229 4045
1230 206
1230 4046
1231 207
1231 4047
1232 208
1232 4048
1233 209
1233 4049
1234 210
1234 4050
1235 211
1235 4051
1236 212
1236 4052
1237 213
1237 4053
1238 214
1238 4054
1239 215
1239 4055
1240 216
1240 4056
1241 217
1241 4057
1242 218
1242 4058
1243 219
1243 4059
1244 220
1244 4060
1245 221
1245 4061
1246 222
1246 4062
1247 223
1247 4063
1248 224
1248 4064
1249 225
1249 4065
1250 226
1250 4066
1251 227
1251 4067
1252 228
1252 4068
1253 229
1253 4069
1254 230
1254 4070
1255 231
1255 4071
1256 232
1256 4072
1257 233
1257 4073
1258 234
1258 4074
1259 235
1259 4075
1260 236
1260 4076
1261 237
1261 4077
1262 238
1262 4078
1263 239
1263 4079
1264 240
1264 4080
1265 241
1265 4081
1266 242
1266 4082
1267 243
1267 4083
1268 244
1268 4084
1269 245
1269 4085
1270 246
1270 4086
1271 247
1271 4087
1272 248
1272 4088
1273 249
1273 4089
1274 250
1274 4090
1275 251
1275 4091
1276 252
1276 4092
1277 253
1277 4093
1278 254
1278 4094
1279 255
1279 4095
1280 128
1280 4608
1281 129
1281 4609
1282 130
1282 4610
1283 131
1283 4611
1284 132
1284 4612
1285 133
1285 4613
1286 134
1286 4614
1287 135
1287 4615
1288 136
1288 4616
1289 137
1289 4617
1290 138
1290 4618
1291 139
1291 4619
1292 140
1292 4620
1293 141
1293 4621
1294 142
1294 4622
1295 143
1295 4623
1296 144
1296 4624
1297 145
1297 4625
1298 146
1298 4626
1299 147
1299 4627
1300 148
1300 4628
1301 149
1301 4629
1302 150
1302 4630
1303 151
1303 4631
1304 152
1304 4632
1305 153
1305 4633
1306 154
1306 4634
1307 155
1307 4635
1308 156
1308 4636
1309 157
1309 4637
1310 158
1310 4638
1311 159
1311 4639
1312 160
1312 4640
1313 161
1313 4641
1314 162
1314 4642
1315 163
1315 4643
1316 164
1316 4644
1317 165
1317 4645
1318 166
1318 4646
1319 167
1319 4647
1320 168
1320 4648
1321 169
1321 4649
1322 170
1322 4650
1323 171
1323 4651
1324 172
1324 4652
1325 173
1325 4653
1326 174
1326 4654
1327 175
1327 4655
1328 176
1328 4656
1329 177
1329 4657
1330 178
1330 4658
1331 179
1331 4659
1332 180
1332 4660
1333 181
1333 4661
1334 182
1334 4662
1335 183
1335 4663
1336 184
1336 4664
1337 185
1337 4665
1338 186
1338 4666
1339 187
1339 4667
1340 188
1340 4668
1341 189
1341 4669
1342 190
1342 4670
1343 191
1343 4671
1344 192
1344 4672
1345 193
1345 4673
1346 194
1346 4674
1347 195
1347 4675
1348 196
1348 4676
1349 197
1349 4677
1350 198
1350 4678
1351 199
1351 4679
1352 200
1352 4680
1353 201
1353 4681
1354 202
1354 4682
1355 203
1355 4683
1356 204
1356 4684
1357 205
1357 4685
1358 206
1358 4686
1359 207
1359 4687
1360 208
1360 4688
1361 209
1361 4689
1362 210
1362 4690
1363 211
1363 4691
1364 212
1364 4692
1365 213
1365 4693
1366 214
1366 4694
1367 215
1367 4695
1368 216
1368 4696
1369 217
1369 4697
1370 218
1370 4698
1371 219
1371 4699
1372 220
1372 4700
1373 221
1373 4701
1374 222
1374 4702
1375 223
1375 4703
1376 224
1376 4704
1377 225
1377 4705
1378 226
1378 4706
1379 227
1379 4707
1380 228
1380 4708
1381 229
1381 4709
1382 230
1382 4710
1383 231
1383 4711
1384 232
1384 4712
1385 233
1385 4713
1386 234
1386 4714
1387 235
1387 4715
1388 236
1388 4716
1389 237
1389 4717
1390 238
1390 4718
1391 239
1391 4719
1392 240
1392 4720
1393 241
1393 4721
1394 242
1394 4722
1395 243
1395 4723
1396 244
1396 4724
1397 245
1397 4725
1398 246
1398 4726
1399 247
1399 4727
1400 248
1400 4728
1401 249
1401 4729
1402 250
1402 4730
1403 251
1403 4731
1404 252
1404 4732
1405 253
1405 4733
1406 254
1406 4734
1407 255
1407 4735
1408 128
1408 5248
1409 129
1409 5249
1410 130
1410 5250
1411 131
1411 5251
1412 132
1412 5252
1413 133
1413 5253
1414 134
1414 5254
1415 135
1415 5255
1416 136
1416 5256
1417 137
1417 5257
1418 138
1418 5258
1419 139
1419 5259
1420 140
1420 5260
1421 141
1421 5261
1422 142
1422 5262
1423 143
1423 5263
1424 144
1424 5264
1425 145
1425 5265
1426 146
1426 5266
1427 147
1427 5267
1428 148
1428 5268
1429 149
1429 5269
1430 150
1430 5270
1431 151
1431 5271
1432 152
1432 5272
1433 153
1433 5273
1434 154
1434 5274
1435 155
1435 5275
1436 156
1436 5276
1437 157
1437 5277
1438 158
1438 5278
1439 159
1439 5279
1440 160
1440 5280
1441 161
1441 5281
1442 162
1442 5282
1443 163
1443 5283
1444 164
1444 5284
1445 165
1445 5285
1446 166
1446 5286
1447 167
1447 5287
1448 168
1448 5288
1449 169
1449 5289
1450 170
1450 5290
1451 171
1451 5291
1452 172
1452 5292
1453 173
1453 5293
1454 174
1454 5294
1455 175
1455 5295
1456 176
1456 5296
1457 177
1457 5297
1458 178
1458 5298
1459 179
1459 5299
1460 180
1460 5300
1461 181
1461 5301
1462 182
1462 5302
1463 183
1463 5303
1464 184
1464 5304
1465 185
1465 5305
1466 186
1466 5306
1467 187
1467 5307
1468 188
1468 5308
1469 189
1469 5309
1470 190
1470 5310
1471 191
1471 5311
1472 192
1472 5312
1473 193
1473 5313
1474 194
1474 5314
1475 195
1475 5315
1476 196
1476 5316
1477 197
1477 5317
1478 198
1478 5318
1479 199
1479 5319
1480 200
1480 5320
1481 201
1481 5321
1482 202
1482 5322
1483 203
1483 5323
1484 204
1484 5324
1485 205
1485 5325
1486 206
1486 5326
1487 207
1487 5327
1488 208
1488 5328
1489 209
1489 5329
1490 210
1490 5330
1491 211
1491 5331
1492 212
1492 5332
1493 213
1493 5333
1494 214
1494 5334
1495 215
1495 5335
1496 216
1496 5336
1497 217
1497 5337
1498 218
1498 5338
1499 219
1499 5339
1500 220
1500 5340
1501 221
1501 5341
1502 222
1502 5342
1503 223
1503 5343
1504 224
1504 5344
1505 225
1505 5345
1506 226
1506 5346
1507 227
1507 5347
1508 228
1508 5348
1509 229
1509 5349
1510 230
1510 5350
1511 231
1511 5351
1512 232
1512 5352
1513 233
1513 5353
1514 234
1514 5354
1515 235
1515 5355
1516 236
1516 5356
1517 237
1517 5357
1518 238
1518 5358
1519 239
1519 5359
1520 240
1520 5360
1521 241
1521 5361
1522 242
1522 5362
1523 243
1523 5363
1524 244
1524 5364
1525 245
1525 5365
1526 246
1526 5366
1527 247
1527 5367
1528 248
1528 5368
1529 249
1529 5369
1530 250
1530 5370
1531 251
1531 5371
1532 252
1532 5372
1533 253
1533 5373
1534 254
1534 5374
1535 255
1535 5375
1536 128
1536 5888
1537 129
1537 5889
1538 130
1538 5890
1539 131
1539 5891
1540 132
1540 5892
1541 133
1541 5893
1542 134
1542 5894
1543 135
1543 5895
1544 136
1544 5896
1545 137
1545 5897
1546 138
1546 5898
1547 139
1547 5899
1548 140
1548 5900
1549 141
1549 5901
1550 142
1550 5902
1551 143
1551 5903
1552 144
1552 5904
1553 145
1553 5905
1554 146
1554 5906
1555 147
1555 5907
1556 148
1556 5908
1557 149
1557 5909
1558 150
1558 5910
1559 151
1559 5911
1560 152
1560 5912
1561 153
1561 5913
1562 154
1562 5914
1563 155
1563 5915
1564 156
1564 5916
1565 157
1565 5917
1566 158
1566 5918
1567 159
1567 5919
1568 160
1568 5920
1569 161
1569 5921
1570 162
1570 5922
1571 163
1571 5923
1572 164
1572 5924
1573 165
1573 5925
1574 166
1574 5926
1575 167
1575 5927
1576 168
1576 5928
1577 169
1577 5929
1578 170
1578 5930
1579 171
1579 5931
1580 172
1580 5932
1581 173
1581 5933
1582 174
1582 5934
1583 175
1583 5935
1584 176
1584 5936
1585 177
1585 5937
1586 178
1586 5938
1587 179
1587 5939
1588 180
1588 5940
1589 181
1589 5941
1590 182
1590 5942
1591 183
1591 5943
1592 184
1592 5944
1593 185
1593 5945
1594 186
1594 5946
1595 187
1595 5947
1596 188
1596 5948
1597 189
1597 5949
1598 190
1598 5950
1599 191
1599 5951
1600 192
1600 5952
1601 193
1601 5953
1602 194
1602 5954
1603 195
1603 5955
1604 196
1604 5956
1605 197
1605 5957
1606 198
1606 5958
1607 199
1607 5959
1608 200
1608 5960
1609 201
1609 5961
1610 202
1610 5962
1611 203
1611 5963
1612 204
1612 5964
1613 205
1613 5965
1614 206
1614 5966
1615 207
1615 5967
1616 208
1616 5968
1617 209
1617 5969
1618 210
1618 5970
1619 211
1619 5971
1620 212
1620 5972
1621 213
1621 5973
1622 214
1622 5974
1623 215
1623 5975
1624 216
1624 5976
1625 217
1625 5977
1626 218
1626 5978
1627 219
1627 5979
1628 220
1628 5980
1629 221
1629 5981
1630 222
1630 5982
1631 223
1631 5983
1632 224
1632 5984
1633 225
1633 5985
1634 226
1634 5986
1635 227
1635 5987
1636 228
1636 5988
1637 229
1637 5989
1638 230
1638 5990
1639 231
1639 5991
1640 232
1640 5992
1641 233
1641 5993
1642 234
1642 5994
1643 235
1643 5995
1644 236
1644 5996
1645 237
1645 5997
1646 238
1646 5998
1647 239
1647 5999
1648 240
1648 6000
1649 241
1649 6001
1650 242
1650 6002
1651 243
1651 6003
1652 244
1652 6004
1653 245
1653 6005
1654 246
1654 6006
1655 247
1655 6007
1656 248
1656 6008
1657 249
1657 6009
1658 250
1658 6010
1659 251
1659 6011
1660 252
1660 6012
1661 253
1661 6013
1662 254
1662 6014
1663 255
1663 6015
1664 256
1664 384
1665 257
1665 385
1666 258
1666 386
1667 259
1667 387
1668 260
1668 388
1669 261
1669 389
1670 262
1670 390
1671 263
1671 391
1672 264
1672 392
1673 265
1673 393
1674 266
1674 394
1675 267
1675 395
1676 268
1676 396
1677 269
1677 397
1678 270
1678 398
1679 271
1679 399
1680 272
1680 400
1681 273
1681 401
1682 274
1682 402
1683 275
1683 403
1684 276
1684 404
1685 277
1685 405
1686 278
1686 406
1687 279
1687 407
1688 280
1688 408
1689 281
1689 409
1690 282
1690 410
1691 283
1691 411
1692 284
1692 412
1693 285
1693 413
1694 286
1694 414
1695 287
1695 415
1696 288
1696 416
1697 289
1697 417
1698 290
1698 418
1699 291
1699 419
1700 292
1700 420
1701 293
1701 421
1702 294
1702 422
1703 295
1703 423
1704 296
1704 424
1705 297
1705 425
1706 298
1706 426
1707 299
1707 427
1708 300
1708 428
1709 301
1709 429
1710 302
1710 430
1711 303
1711 431
1712 304
1712 432
1713 305
1713 433
1714 306
1714 434
1715 307
1715 435
1716 308
1716 436
1717 309
1717 437
1718 310
1718 438
1719 311
1719 439
1720 312
1720 440
1721 313
1721 441
1722 314
1722 442
1723 315
1723 443
1724 316
1724 444
1725 317
1725 445
1726 318
1726 446
1727 319
1727 447
1728 320
1728 448
1729 321
1729 449
1730 322
1730 450
1731 323
1731 451
1732 324
1732 452
1733 325
1733 453
1734 326
1734 454
1735 327
1735 455
1736 328
1736 456
1737 329
1737 457
1738 330
1738 458
1739 331
1739 459
1740 332
1740 460
1741 333
1741 461
1742 334
1742 462
1743 335
1743 463
1744 336
1744 464
1745 337
1745 465
1746 338
1746 466
1747 339
1747 467
1748 340
1748 468
1749 341
1749 469
1750 342
1750 470
1751 343
1751 471
1752 344
1752 472
1753 345
1753 473
1754 346
1754 474
1755 347
1755 475
1756 348
1756 476
1757 349
1757 477
1758 350
1758 478
1759 351
1759 479
1760 352
1760 480
1761 353
1761 481
1762 354
1762 482
1763 355
1763 483
1764 356
1764 484
1765 357
1765 485
1766 358
1766 486
1767 359
1767 487
1768 360
1768 488
1769 361
1769 489
1770 362
1770 490
1771 363
1771 491
1772 364
1772 492
1773 365
1773 493
1774 366
1774 494
1775 367
1775 495
1776 368
1776 496
1777 369
1777 497
1778 370
1778 498
1779 371
1779 499
1780 372
1780 500
1781 373
1781 501
1782 374
1782 502
1783 375
1783 503
1784 376
1784 504
1785 377
1785 505
1786 378
1786 506
1787 379
1787 507
1788 380
1788 508
1789 381
1789 509
1790 382
1790 510
1791 383
1791 511
1792 256
1792 3456
1793 257
1793 3457
1794 258
1794 3458
1795 259
1795 3459
1796 260
1796 3460
1797 261
1797 3461
1798 262
1798 3462
1799 263
1799 3463
1800 264
1800 3464
1801 265
1801 3465
1802 266
1802 3466
1803 267
1803 3467
1804 268
1804 3468
1805 269
1805 3469
1806 270
1806 3470
1807 271
1807 3471
1808 272
1808 3472
1809 273
1809 3473
1810 274
1810 3474
1811 275
1811 3475
1812 276
1812 3476
1813 277
1813 3477
1814 278
1814 3478
1815 279
1815 3479
1816 280
1816 3480
1817 281
1817 3481
1818 282
1818 3482
1819 283
1819 3483
1820 284
1820 3484
1821 285
1821 3485
1822 286
1822 3486
1823 287
1823 3487
1824 288
1824 3488
1825 289
1825 3489
1826 290
1826 3490
1827 291
1827 3491
1828 292
1828 3492
1829 293
1829 3493
1830 294
1830 3494
1831 295
1831 3495
1832 296
1832 3496
1833 297
1833 3497
1834 298
1834 3498
1835 299
1835 3499
1836 300
1836 3500
1837 301
1837 3501
1838 302
1838 3502
1839 303
1839 3503
1840 304
1840 3504
1841 305
1841 3505
1842 306
1842 3506
1843 307
1843 3507
1844 308
1844 3508
1845 309
1845 3509
1846 310
1846 3510
1847 311
1847 3511
1848 312
1848 3512
1849 313
1849 3513
1850 314
1850 3514
1851 315
1851 3515
1852 316
1852 3516
1853 317
1853 3517
1854 318
1854 3518
1855 319
1855 3519
1856 320
1856 3520
1857 321
1857 3521
1858 322
1858 3522
1859 323
1859 3523
1860 324
1860 3524
1861 325
1861 3525
1862 326
1862 3526
1863 327
1863 3527
1864 328
1864 3528
1865 329
1865 3529
1866 330
1866 3530
1867 331
1867 3531
1868 332
1868 3532
1869 333
1869 3533
1870 334
1870 3534
1871 335
1871 3535
1872 336
1872 3536
1873 337
1873 3537
1874 338
1874 3538
1875 339
1875 3539
1876 340
1876 3540
1877 341
1877 3541
1878 342
1878 3542
1879 343
1879 3543
1880 344
1880 3544
1881 345
1881 3545
1882 346
1882 3546
1883 347
1883 3547
1884 348
1884 3548
1885 349
1885 3549
1886 350
1886 3550
1887 351
1887 3551
1888 352
1888 3552
1889 353
1889 3553
1890 354
1890 3554
1891 355
1891 3555
1892 356
1892 3556
1893 357
1893 3557
1894 358
1894 3558
1895 359
1895 3559
1896 360
1896 3560
1897 361
1897 3561
1898 362
1898 3562
1899 363
1899 3563
1900 364
1900 3564
1901 365
1901 3565
1902 366
1902 3566
1903 367
1903 3567
1904 368
1904 3568
1905 369
1905 3569
1906 370
1906 3570
1907 371
1907 3571
1908 372
1908 3572
1909 373
1909 3573
1910 374
1910 3574
1911 375
1911 3575
1912 376
1912 3576
1913 377
1913 3577
1914 378
1914 3578
1915 379
1915 3579
1916 380
1916 3580
1917 381
1917 3581
1918 382
1918 3582
1919 383
1919 3583
1920 256
1920 4096
1921 257
1921 4097
1922 258
1922 4098
1923 259
1923 4099
1924 260
1924 4100
1925 261
1925 4101
1926 262
1926 4102
1927 263
1927 4103
1928 264
1928 4104
1929 265
1929 4105
1930 266
1930 4106
1931 267
1931 4107
1932 268
1932 4108
1933 269
1933 4109
1934 270
1934 4110
1935 271
1935 4111
1936 272
1936 4112
1937 273
1937 4113
1938 274
1938 4114
1939 275
1939 4115
1940 276
1940 4116
1941 277
1941 4117
1942 278
1942 4118
1943 279
1943 4119
1944 280
1944 4120
1945 281
1945 4121
1946 282
1946 4122
1947 283
1947 4123
1948 284
1948 4124
1949 285
1949 4125
1950 286
1950 4126
1951 287
1951 4127
1952 288
1952 4128
1953 289
1953 4129
1954 290
1954 4130
1955 291
1955 4131
1956 292
1956 4132
1957 293
1957 4133
1958 294
1958 4134
1959 295
1959 4135
1960 296
1960 4136
1961 297
1961 4137
1962 298
1962 4138
1963 299
1963 4139
1964 300
1964 4140
1965 301
1965 4141
1966 302
1966 4142
1967 303
1967 4143
1968 304
1968 4144
1969 305
1969 4145
1970 306
1970 4146
1971 307
1971 4147
1972 308
1972 4148
1973 309
1973 4149
1974 310
1974 4150
1975 311
1975 4151
1976 312
1976 4152
1977 313
1977 4153
1978 314
1978 4154
1979 315
1979 4155
1980 316
1980 4156
1981 317
1981 4157
1982 318
1982 4158
1983 319
1983 4159
1984 320
1984 4160
1985 321
1985 4161
1986 322
1986 4162
1987 323
1987 4163
1988 324
1988 4164
1989 325
1989 4165
1990 326
1990 4166
1991 327
1991 4167
1992 328
1992 4168
1993 329
1993 4169
1994 330
1994 4170
1995 331
1995 4171
1996 332
1996 4172
1997 333
1997 4173
1998 334
1998 4174
1999 335
1999 4175
2000 336
2000 4176
2001 337
2001 4177
2002 338
2002 4178
2003 339
2003 4179
2004 340
2004 4180
2005 341
2005 4181
2006 342
2006 4182
2007 343
2007 4183
2008 344
2008 4184
2009 345
2009 4185
2010 346
2010 4186
2011 347
2011 4187
2012 348
2012 4188
2013 349
2013 4189
2014 350
2014 4190
2015 351
2015 4191
2016 352
2016 4192
2017 353
2017 4193
2018 354
2018 4194
2019 355
2019 4195
2020 356
2020 4196
2021 357
2021 4197
2022 358
2022 4198
2023 359
2023 4199
2024 360
2024 4200
2025 361
2025 4201
2026 362
2026 4202
2027 363
2027 4203
2028 364
2028 4204
2029 365
2029 4205
2030 366
2030 4206
2031 367
2031 4207
2032 368
2032 4208
2033 369
2033 4209
2034 370
2034 4210
2035 371
2035 4211
2036 372
2036 4212
2037 373
2037 4213
2038 374
2038 4214
2039 375
2039 4215
2040 376
2040 4216
2041 377
2041 4217
2042 378
2042 4218
2043 379
2043 4219
2044 380
2044 4220
2045 381
2045 4221
2046 382
2046 4222
2047 383
2047 4223
2048 256
2048 4736
2049 257
2049 4737
2050 258
2050 4738
2051 259
2051 4739
2052 260
2052 4740
2053 261
2053 4741
2054 262
2054 4742
2055 263
2055 4743
2056 264
2056 4744
2057 265
2057 4745
2058 266
2058 4746
2059 267
2059 4747
2060 268
2060 4748
2061 269
2061 4749
2062 270
2062 4750
2063 271
2063 4751
2064 272
2064 4752
2065 273
2065 4753
2066 274
2066 4754
2067 275
2067 4755
2068 276
2068 4756
2069 277
2069 4757
2070 278
2070 4758
2071 279
2071 4759
2072 280
2072 4760
2073 281
2073 4761
2074 282
2074 4762
2075 283
2075 4763
2076 284
2076 4764
2077 285
2077 4765
2078 286
2078 4766
2079 287
2079 4767
2080 288
2080 4768
2081 289
2081 4769
2082 290
2082 4770
2083 291
2083 4771
2084 292
2084 4772
2085 293
2085 4773
2086 294
2086 4774
2087 295
2087 4775
2088 296
2088 4776
2089 297
2089 4777
2090 298
2090 4778
2091 299
2091 4779
2092 300
2092 4780
2093 301
2093 4781
2094 302
2094 4782
2095 303
2095 4783
2096 304
2096 4784
2097 305
2097 4785
2098 306
2098 4786
2099 307
2099 4787
2100 308
2100 4788
2101 309
2101 4789
2102 310
2102 4790
2103 311
2103 4791
2104 312
2104 4792
2105 313
2105 4793
2106 314
2106 4794
2107 315
2107 4795
2108 316
2108 4796
2109 317
2109 4797
2110 318
2110 4798
2111 319
2111 4799
2112 320
2112 4800
2113 321
2113 4801
2114 322
2114 4802
2115 323
2115 4803
2116 324
2116 4804
2117 325
2117 4805
2118 326
2118 4806
2119 327
2119 4807
2120 328
2120 4808
2121 329
2121 4809
2122 330
2122 4810
2123 331
2123 4811
2124 332
2124 4812
2125 333
2125 4813
2126 334
2126 4814
2127 335
2127 4815
2128 336
2128 4816
2129 337
2129 4817
2130 338
2130 4818
2131 339
2131 4819
2132 340
2132 4820
2133 341
2133 4821
2134 342
2134 4822
2135 343
2135 4823
2136 344
2136 4824
2137 345
2137 4825
2138 346
2138 4826
2139 347
2139 4827
2140 348
2140 4828
2141 349
2141 4829
2142 350
2142 4830
2143 351
2143 4831
2144 352
2144 4832
2145 353
2145 4833
2146 354
2146 4834
2147 355
2147 4835
2148 356
2148 4836
2149 357
2149 4837
2150 358
2150 4838
2151 359
2151 4839
2152 360
2152 4840
2153 361
2153 4841
2154 362
2154 4842
2155 363
2155 4843
2156 364
2156 4844
2157 365
2157 4845
2158 366
2158 4846
2159 367
2159 4847
2160 368
2160 4848
2161 369
2161 4849
2162 370
2162 4850
2163 371
2163 4851
2164 372
2164 4852
2165 373
2165 4853
2166 374
2166 4854
2167 375
2167 4855
2168 376
2168 4856
2169 377
2169 4857
2170 378
2170 4858
2171 379
2171 4859
2172 380
2172 4860
2173 381
2173 4861
2174 382
2174 4862
2175 383
2175 4863
2176 256
2176 5376
2177 257
2177 5377
2178 258
2178 5378
2179 259
2179 5379
2180 260
2180 5380
2181 261
2181 5381
2182 262
2182 5382
2183 263
2183 5383
2184 264
2184 5384
2185 265
2185 5385
2186 266
2186 5386
2187 267
2187 5387
2188 268
2188 5388
2189 269
2189 5389
2190 270
2190 5390
2191 271
2191 5391
2192 272
2192 5392
2193 273
2193 5393
2194 274
2194 5394
2195 275
2195 5395
2196 276
2196 5396
2197 277
2197 5397
2198 278
2198 5398
2199 279
2199 5399
2200 280
2200 5400
2201 281
2201 5401
2202 282
2202 5402
2203 283
2203 5403
2204 284
2204 5404
2205 285
2205 5405
2206 286
2206 5406
2207 287
2207 5407
2208 288
2208 5408
2209 289
2209 5409
2210 290
2210 5410
2211 291
2211 5411
2212 292
2212 5412
2213 293
2213 5413
2214 294
2214 5414
2215 295
2215 5415
2216 296
2216 5416
2217 297
2217 5417
2218 298
2218 5418
2219 299
2219 5419
2220 300
2220 5420
2221 301
2221 5421
2222 302
2222 5422
2223 303
2223 5423
2224 304
2224 5424
2225 305
2225 5425
2226 306
2226 5426
2227 307
2227 5427
2228 308
2228 5428
2229 309
2229 5429
2230 310
2230 5430
2231 311
2231 5431
2232 312
2232 5432
2233 313
2233 5433
2234 314
2234 5434
2235 315
2235 5435
2236 316
2236 5436
2237 317
2237 5437
2238 318
2238 5438
2239 319
2239 5439
2240 320
2240 5440
2241 321
2241 5441
2242 322
2242 5442
2243 323
2243 5443
2244 324
2244 5444
2245 325
2245 5445
2246 326
2246 5446
2247 327
2247 5447
2248 328
2248 5448
2249 329
2249 5449
2250 330
2250 5450
2251 331
2251 5451
2252 332
2252 5452
2253 333
2253 5453
2254 334
2254 5454
2255 335
2255 5455
2256 336
2256 5456
2257 337
2257 5457
2258 338
2258 5458
2259 339
2259 5459
2260 340
2260 5460
2261 341
2261 5461
2262 342
2262 5462
2263 343
2263 5463
2264 344
2264 5464
2265 345
2265 5465
2266 346
2266 5466
2267 347
2267 5467
2268 348
2268 5468
2269 349
2269 5469
2270 350
2270 5470
2271 351
2271 5471
2272 352
2272 5472
2273 353
2273 5473
2274 354
2274 5474
2275 355
2275 5475
2276 356
2276 5476
2277 357
2277 5477
2278 358
2278 5478
2279 359
2279 5479
2280 360
2280 5480
2281 361
2281 5481
2282 362
2282 5482
2283 363
2283 5483
2284 364
2284 5484
2285 365
2285 5485
2286 366
2286 5486
2287 367
2287 5487
2288 368
2288 5488
2289 369
2289 5489
2290 370
2290 5490
2291 371
2291 5491
2292 372
2292 5492
2293 373
2293 5493
2294 374
2294 5494
2295 375
2295 5495
2296 376
2296 5496
2297 377
2297 5497
2298 378
2298 5498
2299 379
2299 5499
2300 380
2300 5500
2301 381
2301 5501
2302 382
2302 5502
2303 383
2303 5503
2304 256
2304 6016
2305 257
2305 6017
2306 258
2306 6018
2307 259
2307 6019
2308 260
2308 6020
2309 261
2309 6021
2310 262
2310 6022
2311 263
2311 6023
2312 264
2312 6024
2313 265
2313 6025
2314 266
2314 6026
2315 267
2315 6027
2316 268
2316 6028
2317 269
2317 6029
2318 270
2318 6030
2319 271
2319 6031
2320 272
2320 6032
2321 273
2321 6033
2322 274
2322 6034
2323 275
2323 6035
2324 276
2324 6036
2325 277
2325 6037
2326 278
2326 6038
2327 279
2327 6039
2328 280
2328 6040
2329 281
2329 6041
2330 282
2330 6042
2331 283
2331 6043
2332 284
2332 6044
2333 285
2333 6045
2334 286
2334 6046
2335 287
2335 6047
2336 288
2336 6048
2337 289
2337 6049
2338 290
2338 6050
2339 291
2339 6051
2340 292
2340 6052
2341 293
2341 6053
2342 294
2342 6054
2343 295
2343 6055
2344 296
2344 6056
2345 297
2345 6057
2346 298
2346 6058
2347 299
2347 6059
2348 300
2348 6060
2349 301
2349 6061
2350 302
2350 6062
2351 303
2351 6063
2352 304
2352 6064
2353 305
2353 6065
2354 306
2354 6066
2355 307
2355 6067
2356 308
2356 6068
2357 309
2357 6069
2358 310
2358 6070
2359 311
2359 6071
2360 312
2360 6072
2361 313
2361 6073
2362 314
2362 6074
2363 315
2363 6075
2364 316
2364 6076
2365 317
2365 6077
2366 318
2366 6078
2367 319
2367 6079
2368 320
2368 6080
2369 321
2369 6081
2370 322
2370 6082
2371 323
2371 6083
2372 324
2372 6084
2373 325
2373 6085
2374 326
2374 6086
2375 327
2375 6087
2376 328
2376 6088
2377 329
2377 6089
2378 330
2378 6090
2379 331
2379 6091
2380 332
2380 6092
2381 333
2381 6093
2382 334
2382 6094
2383 335
2383 6095
2384 336
2384 6096
2385 337
2385 6097
2386 338
2386 6098
2387 339
2387 6099
2388 340
2388 6100
2389 341
2389 6101
2390 342
2390 6102
2391 343
2391 6103
2392 344
2392 6104
2393 345
2393 6105
2394 346
2394 6106
2395 347
2395 6107
2396 348
2396 6108
2397 349
2397 6109
2398 350
2398 6110
2399 351
2399 6111
2400 352
2400 6112
2401 353
2401 6113
2402 354
2402 6114
2403 355
2403 6115
2404 356
2404 6116
2405 357
2405 6117
2406 358
2406 6118
2407 359
2407 6119
2408 360
2408 6120
2409 361
2409 6121
2410 362
2410 6122
2411 363
2411 6123
2412 364
2412 6124
2413 365
2413 6125
2414 366
2414 6126
2415 367
2415 6127
2416 368
2416 6128
2417 369
2417 6129
2418 370
2418 6130
2419 371
2419 6131
2420 372
2420 6132
2421 373
2421 6133
2422 374
2422 6134
2423 375
2423 6135
2424 376
2424 6136
2425 377
2425 6137
2426 378
2426 6138
2427 379
2427 6139
2428 380
2428 6140
2429 381
2429 6141
2430 382
2430 6142
2431 383
2431 6143
2432 384
2432 512
2433 385
2433 513
2434 386
2434 514
2435 387
2435 515
2436 388
2436 516
2437 389
2437 517
2438 390
2438 518
2439 391
2439 519
2440 392
2440 520
2441 393
2441 521
2442 394
2442 522
2443 395
2443 523
2444 396
2444 524
2445 397
2445 525
2446 398
2446 526
2447 399
2447 527
2448 400
2448 528
2449 401
2449 529
2450 402
2450 530
2451 403
2451 531
2452 404
2452 532
2453 405
2453 533
2454 406
2454 534
2455 407
2455 535
2456 408
2456 536
2457 409
2457 537
2458 410
2458 538
2459 411
2459 539
2460 412
2460 540
2461 413
2461 541
2462 414
2462 542
2463 415
2463 543
2464 416
2464 544
2465 417
2465 545
2466 418
2466 546
2467 419
2467 547
2468 420
2468 548
2469 421
2469 549
2470 422
2470 550
2471 423
2471 551
2472 424
2472 552
2473 425
2473 553
2474 426
2474 554
2475 427
2475 555
2476 428
2476 556
2477 429
2477 557
2478 430
2478 558
2479 431
2479 559
2480 432
2480 560
2481 433
2481 561
2482 434
2482 562
2483 435
2483 563
2484 436
2484 564
2485 437
2485 565
2486 438
2486 566
2487 439
2487 567
2488 440
2488 568
2489 441
2489 569
2490 442
2490 570
2491 443
2491 571
2492 444
2492 572
2493 445
2493 573
2494 446
2494 574
2495 447
2495 575
2496 448
2496 576
2497 449
2497 577
2498 450
2498 578
2499 451
2499 579
2500 452
2500 580
2501 453
2501 581
2502 454
2502 582
2503 455
2503 583
2504 456
2504 584
2505 457
2505 585
2506 458
2506 586
2507 459
2507 587
2508 460
2508 588
2509 461
2509 589
2510 462
2510 590
2511 463
2511 591
2512 464
2512 592
2513 465
2513 593
2514 466
2514 594
2515 467
2515 595
2516 468
2516 596
2517 469
2517 597
2518 470
2518 598
2519 471
2519 599
2520 472
2520 600
2521 473
2521 601
2522 474
2522 602
2523 475
2523 603
2524 476
2524 604
2525 477
2525 605
2526 478
2526 606
2527 479
2527 607
2528 480
2528 608
2529 481
2529 609
2530 482
2530 610
2531 483
2531 611
2532 484
2532 612
2533 485
2533 613
2534 486
2534 614
2535 487
2535 615
2536 488
2536 616
2537 489
2537 617
2538 490
2538 618
2539 491
2539 619
2540 492
2540 620
2541 493
2541 621
2542 494
2542 622
2543 495
2543 623
2544 496
2544 624
2545 497
2545 625
2546 498
2546 626
2547 499
2547 627
2548 500
2548 628
2549 501
2549 629
2550 502
2550 630
2551 503
2551 631
2552 504
2552 632
2553 505
2553 633
2554 506
2554 634
2555 507
2555 635
2556 508
2556 636
2557 509
2557 637
2558 510
2558 638
2559 511
2559 639
2560 384
2560 3584
2561 385
2561 3585
2562 386
2562 3586
2563 387
2563 3587
2564 388
2564 3588
2565 389
2565 3589
2566 390
2566 3590
2567 391
2567 3591
2568 392
2568 3592
2569 393
2569 3593
2570 394
2570 3594
2571 395
2571 3595
2572 396
2572 3596
2573 397
2573 3597
2574 398
2574 3598
2575 399
2575 3599
2576 400
2576 3600
2577 401
2577 3601
2578 402
2578 3602
2579 403
2579 3603
2580 404
2580 3604
2581 405
2581 3605
2582 406
2582 3606
2583 407
2583 3607
2584 408
2584 3608
2585 409
2585 3609
2586 410
2586 3610
2587 411
2587 3611
2588 412
2588 3612
2589 413
2589 3613
2590 414
2590 3614
2591 415
2591 3615
2592 416
2592 3616
2593 417
2593 3617
2594 418
2594 3618
2595 419
2595 3619
2596 420
2596 3620
2597 421
2597 3621
2598 422
2598 3622
2599 423
2599 3623
2600 424
2600 3624
2601 425
2601 3625
2602 426
2602 3626
2603 427
2603 3627
2604 428
2604 3628
2605 429
2605 3629
2606 430
2606 3630
2607 431
2607 3631
2608 432
2608 3632
2609 433
2609 3633
2610 434
2610 3634
2611 435
2611 3635
2612 436
2612 3636
2613 437
2613 3637
2614 438
2614 3638
2615 439
2615 3639
2616 440
2616 3640
2617 441
2617 3641
2618 442
2618 3642
2619 443
2619 3643
2620 444
2620 3644
2621 445
2621 3645
2622 446
2622 3646
2623 447
2623 3647
2624 448
2624 3648
2625 449
2625 3649
2626 450
2626 3650
2627 451
2627 3651
2628 452
2628 3652
2629 453
2629 3653
2630 454
2630 3654
2631 455
2631 3655
2632 456
2632 3656
2633 457
2633 3657
2634 458
2634 3658
2635 459
2635 3659
2636 460
2636 3660
2637 461
2637 3661
2638 462
2638 3662
2639 463
2639 3663
2640 464
2640 3664
2641 465
2641 3665
2642 466
2642 3666
2643 467
2643 3667
2644 468
2644 3668
2645 469
2645 3669
2646 470
2646 3670
2647 471
2647 3671
2648 472
2648 3672
2649 473
2649 3673
2650 474
2650 3674
2651 475
2651 3675
2652 476
2652 3676
2653 477
2653 3677
2654 478
2654 3678
2655 479
2655 3679
2656 480
2656 3680
2657 481
2657 3681
2658 482
2658 3682
2659 483
2659 3683
2660 484
2660 3684
2661 485
2661 3685
2662 486
2662 3686
2663 487
2663 3687
2664 488
2664 3688
2665 489
2665 3689
2666 490
2666 3690
2667 491
2667 3691
2668 492
2668 3692
2669 493
2669 3693
2670 494
2670 3694
2671 495
2671 3695
2672 496
2672 3696
2673 497
2673 3697
2674 498
2674 3698
2675 499
2675 3699
2676 500
2676 3700
2677 501
2677 3701
2678 502
2678 3702
2679 503
2679 3703
2680 504
2680 3704
2681 505
2681 3705
2682 506
2682 3706
2683 507
2683 3707
2684 508
2684 3708
2685 509
2685 3709
2686 510
2686 3710
2687 511
2687 3711
2688 384
2688 4224
2689 385
2689 4225
2690 386
2690 4226
2691 387
2691 4227
2692 388
2692 4228
2693 389
2693 4229
2694 390
2694 4230
2695 391
2695 4231
2696 392
2696 4232
2697 393
2697 4233
2698 394
2698 4234
2699 395
2699 4235
2700 396
2700 4236
2701 397
2701 4237
2702 398
2702 4238
2703 399
2703 4239
2704 400
2704 4240
2705 401
2705 4241
2706 402
2706 4242
2707 403
2707 4243
2708 404
2708 4244
2709 405
2709 4245
2710 406
2710 4246
2711 407
2711 4247
2712 408
2712 4248
2713 409
2713 4249
2714 410
2714 4250
2715 411
2715 4251
2716 412
2716 4252
2717 413
2717 4253
2718 414
2718 4254
2719 415
2719 4255
2720 416
2720 4256
2721 417
2721 4257
2722 418
2722 4258
2723 419
2723 4259
2724 420
2724 4260
2725 421
2725 4261
2726 422
2726 4262
2727 423
2727 4263
2728 424
2728 4264
2729 425
2729 4265
2730 426
2730 4266
2731 427
2731 4267
2732 428
2732 4268
2733 429
2733 4269
2734 430
2734 4270
2735 431
2735 4271
2736 432
2736 4272
2737 433
2737 4273
2738 434
2738 4274
2739 435
2739 4275
2740 436
2740 4276
2741 437
2741 4277
2742 438
2742 4278
2743 439
2743 4279
2744 440
2744 4280
2745 441
2745 4281
2746 442
2746 4282
2747 443
2747 4283
2748 444
2748 4284
2749 445
2749 4285
2750 446
2750 4286
2751 447
2751 4287
2752 448
2752 4288
2753 449
2753 4289
2754 450
2754 4290
2755 451
2755 4291
2756 452
2756 4292
2757 453
2757 4293
2758 454
2758 4294
2759 455
2759 4295
2760 456
2760 4296
2761 457
2761 4297
2762 458
2762 4298
2763 459
2763 4299
2764 460
2764 4300
2765 461
2765 4301
2766 462
2766 4302
2767 463
2767 4303
2768 464
2768 4304
2769 465
2769 4305
2770 466
2770 4306
2771 467
2771 4307
2772 468
2772 4308
2773 469
2773 4309
2774 470
2774 4310
2775 471
2775 4311
2776 472
2776 4312
2777 473
2777 4313
2778 474
2778 4314
2779 475
2779 4315
2780 476
2780 4316
2781 477
2781 4317
2782 478
2782 4318
2783 479
2783 4319
2784 480
2784 4320
2785 481
2785 4321
2786 482
2786 4322
2787 483
2787 4323
2788 484
2788 4324
2789 485
2789 4325
2790 486
2790 4326
2791 487
2791 4327
2792 488
2792 4328
2793 489
2793 4329
2794 490
2794 4330
2795 491
2795 4331
2796 492
2796 4332
2797 493
2797 4333
2798 494
2798 4334
2799 495
2799 4335
2800 496
2800 4336
2801 497
2801 4337
2802 498
2802 4338
2803 499
2803 4339
2804 500
2804 4340
2805 501
2805 4341
2806 502
2806 4342
2807 503
2807 4343
2808 504
2808 4344
2809 505
2809 4345
2810 506
2810 4346
2811 507
2811 4347
2812 508
2812 4348
2813 509
2813 4349
2814 510
2814 4350
2815 511
2815 4351
2816 384
2816 4864
2817 385
2817 4865
2818 386
2818 4866
2819 387
2819 4867
2820 388
2820 4868
2821 389
2821 4869
2822 390
2822 4870
2823 391
2823 4871
2824 392
2824 4872
2825 393
2825 4873
2826 394
2826 4874
2827 395
2827 4875
2828 396
2828 4876
2829 397
2829 4877
2830 398
2830 4878
2831 399
2831 4879
2832 400
2832 4880
2833 401
2833 4881
2834 402
2834 4882
2835 403
2835 4883
2836 404
2836 4884
2837 405
2837 4885
2838 406
2838 4886
2839 407
2839 4887
2840 408
2840 4888
2841 409
2841 4889
2842 410
2842 4890
2843 411
2843 4891
2844 412
2844 4892
2845 413
2845 4893
2846 414
2846 4894
2847 415
2847 4895
2848 416
2848 4896
2849 417
2849 4897
2850 418
2850 4898
2851 419
2851 4899
2852 420
2852 4900
2853 421
2853 4901
2854 422
2854 4902
2855 423
2855 4903
2856 424
2856 4904
2857 425
2857 4905
2858 426
2858 4906
2859 427
2859 4907
2860 428
2860 4908
2861 429
2861 4909
2862 430
2862 4910
2863 431
2863 4911
2864 432
2864 4912
2865 433
2865 4913
2866 434
2866 4914
2867 435
2867 4915
2868 436
2868 4916
2869 437
2869 4917
2870 438
2870 4918
2871 439
2871 4919
2872 440
2872 4920
2873 441
2873 4921
2874 442
2874 4922
2875 443
2875 4923
2876 444
2876 4924
2877 445
2877 4925
2878 446
2878 4926
2879 447
2879 4927
2880 448
2880 4928
2881 449
2881 4929
2882 450
2882 4930
2883 451
2883 4931
2884 452
2884 4932
2885 453
2885 4933
2886 454
2886 4934
2887 455
2887 4935
2888 456
2888 4936
2889 457
2889 4937
2890 458
2890 4938
2891 459
2891 4939
2892 460
2892 4940
2893 461
2893 4941
2894 462
2894 4942
2895 463
2895 4943
2896 464
2896 4944
2897 465
2897 4945
2898 466
2898 4946
2899 467
2899 4947
2900 468
2900 4948
2901 469
2901 4949
2902 470
2902 4950
2903 471
2903 4951
2904 472
2904 4952
2905 473
2905 4953
2906 474
2906 4954
2907 475
2907 4955
2908 476
2908 4956
2909 477
2909 4957
2910 478
2910 4958
2911 479
2911 4959
2912 480
2912 4960
2913 481
2913 4961
2914 482
2914 4962
2915 483
2915 4963
2916 484
2916 4964
2917 485
2917 4965
2918 486
2918 4966
2919 487
2919 4967
2920 488
2920 4968
2921 489
2921 4969
2922 490
2922 4970
2923 491
2923 4971
2924 492
2924 4972
2925 493
2925 4973
2926 494
2926 4974
2927 495
2927 4975
2928 496
2928 4976
2929 497
2929 4977
2930 498
2930 4978
2931 499
2931 4979
2932 500
2932 4980
2933 501
2933 4981
2934 502
2934 4982
2935 503
2935 4983
2936 504
2936 4984
2937 505
2937 4985
2938 506
2938 4986
2939 507
2939 4987
2940 508
2940 4988
2941 509
2941 4989
2942 510
2942 4990
2943 511
2943 4991
2944 384
2944 5504
2945 385
2945 5505
2946 386
2946 5506
2947 387
2947 5507
2948 388
2948 5508
2949 389
2949 5509
2950 390
2950 5510
2951 391
2951 5511
2952 392
2952 5512
2953 393
2953 5513
2954 394
2954 5514
2955 395
2955 5515
2956 396
2956 5516
2957 397
2957 5517
2958 398
2958 5518
2959 399
2959 5519
2960 400
2960 5520
2961 401
2961 5521
2962 402
2962 5522
2963 403
2963 5523
2964 404
2964 5524
2965 405
2965 5525
2966 406
2966 5526
2967 407
2967 5527
2968 408
2968 5528
2969 409
2969 5529
2970 410
2970 5530
2971 411
2971 5531
2972 412
2972 5532
2973 413
2973 5533
2974 414
2974 5534
2975 415
2975 5535
2976 416
2976 5536
2977 417
2977 5537
2978 418
2978 5538
2979 419
2979 5539
2980 420
2980 5540
2981 421
2981 5541
2982 422
2982 5542
2983 423
2983 5543
2984 424
2984 5544
2985 425
2985 5545
2986 426
2986 5546
2987 427
2987 5547
2988 428
2988 5548
2989 429
2989 5549
2990 430
2990 5550
2991 431
2991 5551
2992 432
2992 5552
2993 433
2993 5553
2994 434
2994 5554
2995 435
2995 5555
2996 436
2996 5556
2997 437
2997 5557
2998 438
2998 5558
2999 439
2999 5559
3000 440
3000 5560
3001 441
3001 5561
3002 442
3002 5562
3003 443
3003 5563
3004 444
3004 5564
3005 445
3005 5565
3006 446
3006 5566
3007 447
3007 5567
3008 448
3008 5568
3009 449
3009 5569
3010 450
3010 5570
3011 451
3011 5571
3012 452
3012 5572
3013 453
3013 5573
3014 454
3014 5574
3015 455
3015 5575
3016 456
3016 5576
3017 457
3017 5577
3018 458
3018 5578
3019 459
3019 5579
3020 460
3020 5580
3021 461
3021 5581
3022 462
3022 5582
3023 463
3023 5583
3024 464
3024 5584
3025 465
3025 5585
3026 466
3026 5586
3027 467
3027 5587
3028 468
3028 5588
3029 469
3029 5589
3030 470
3030 5590
3031 471
3031 5591
3032 472
3032 5592
3033 473
3033 5593
3034 474
3034 5594
3035 475
3035 5595
3036 476
3036 5596
3037 477
3037 5597
3038 478
3038 5598
3039 479
3039 5599
3040 480
3040 5600
3041 481
3041 5601
3042 482
3042 5602
3043 483
3043 5603
3044 484
3044 5604
3045 485
3045 5605
3046 486
3046 5606
3047 487
3047 5607
3048 488
3048 5608
3049 489
3049 5609
3050 490
3050 5610
3051 491
3051 5611
3052 492
3052 5612
3053 493
3053 5613
3054 494
3054 5614
3055 495
3055 5615
3056 496
3056 5616
3057 497
3057 5617
3058 498
3058 5618
3059 499
3059 5619
3060 500
3060 5620
3061 501
3061 5621
3062 502
3062 5622
3063 503
3063 5623
3064 504
3064 5624
3065 505
3065 5625
3066 506
3066 5626
3067 507
3067 5627
3068 508
3068 5628
3069 509
3069 5629
3070 510
3070 5630
3071 511
3071 5631
3072 384
3072 6144
3073 385
3073 6145
3074 386
3074 6146
3075 387
3075 6147
3076 388
3076 6148
3077 389
3077 6149
3078 390
3078 6150
3079 391
3079 6151
3080 392
3080 6152
3081 393
3081 6153
3082 394
3082 6154
3083 395
3083 6155
3084 396
3084 6156
3085 397
3085 6157
3086 398
3086 6158
3087 399
3087 6159
3088 400
3088 6160
3089 401
3089 6161
3090 402
3090 6162
3091 403
3091 6163
3092 404
3092 6164
3093 405
3093 6165
3094 406
3094 6166
3095 407
3095 6167
3096 408
3096 6168
3097 409
3097 6169
3098 410
3098 6170
3099 411
3099 6171
3100 412
3100 6172
3101 413
3101 6173
3102 414
3102 6174
3103 415
3103 6175
3104 416
3104 6176
3105 417
3105 6177
3106 418
3106 6178
3107 419
3107 6179
3108 420
3108 6180
3109 421
3109 6181
3110 422
3110 6182
3111 423
3111 6183
3112 424
3112 6184
3113 425
3113 6185
3114 426
3114 6186
3115 427
3115 6187
3116 428
3116 6188
3117 429
3117 6189
3118 430
3118 6190
3119 431
3119 6191
3120 432
3120 6192
3121 433
3121 6193
3122 434
3122 6194
3123 435
3123 6195
3124 436
3124 6196
3125 437
3125 6197
3126 438
3126 6198
3127 439
3127 6199
3128 440
3128 6200
3129 441
3129 6201
3130 442
3130 6202
3131 443
3131 6203
3132 444
3132 6204
3133 445
3133 6205
3134 446
3134 6206
3135 447
3135 6207
3136 448
3136 6208
3137 449
3137 6209
3138 450
3138 6210
3139 451
3139 6211
3140 452
3140 6212
3141 453
3141 6213
3142 454
3142 6214
3143 455
3143 6215
3144 456
3144 6216
3145 457
3145 6217
3146 458
3146 6218
3147 459
3147 6219
3148 460
3148 6220
3149 461
3149 6221
3150 462
3150 6222
3151 463
3151 6223
3152 464
3152 6224
3153 465
3153 6225
3154 466
3154 6226
3155 467
3155 6227
3156 468
3156 6228
3157 469
3157 6229
3158 470
3158 6230
3159 471
3159 6231
3160 472
3160 6232
3161 473
3161 6233
3162 474
3162 6234
3163 475
3163 6235
3164 476
3164 6236
3165 477
3165 6237
3166 478
3166 6238
3167 479
3167 6239
3168 480
3168 6240
3169 481
3169 6241
3170 482
3170 6242
3171 483
3171 6243
3172 484
3172 6244
3173 485
3173 6245
3174 486
3174 6246
3175 487
3175 6247
3176 488
3176 6248
3177 489
3177 6249
3178 490
3178 6250
3179 491
3179 6251
3180 492
3180 6252
3181 493
3181 6253
3182 494
3182 6254
3183 495
3183 6255
3184 496
3184 6256
3185 497
3185 6257
3186 498
3186 6258
3187 499
3187 6259
3188 500
3188 6260
3189 501
3189 6261
3190 502
3190 6262
3191 503
3191 6263
3192 504
3192 6264
3193 505
3193 6265
3194 506
3194 6266
3195 507
3195 6267
3196 508
3196 6268
3197 509
3197 6269
3198 510
3198 6270
3199 511
3199 6271
3200 512
3200 3712
3201 513
3201 3713
3202 514
3202 3714
3203 515
3203 3715
3204 516
3204 3716
3205 517
3205 3717
3206 518
3206 3718
3207 519
3207 3719
3208 520
3208 3720
3209 521
3209 3721
3210 522
3210 3722
3211 523
3211 3723
3212 524
3212 3724
3213 525
3213 3725
3214 526
3214 3726
3215 527
3215 3727
3216 528
3216 3728
3217 529
3217 3729
3218 530
3218 3730
3219 531
3219 3731
3220 532
3220 3732
3221 533
3221 3733
3222 534
3222 3734
3223 535
3223 3735
3224 536
3224 3736
3225 537
3225 3737
3226 538
3226 3738
3227 539
3227 3739
3228 540
3228 3740
3229 541
3229 3741
3230 542
3230 3742
3231 543
3231 3743
3232 544
3232 3744
3233 545
3233 3745
3234 546
3234 3746
3235 547
3235 3747
3236 548
3236 3748
3237 549
3237 3749
3238 550
3238 3750
3239 551
3239 3751
3240 552
3240 3752
3241 553
3241 3753
3242 554
3242 3754
3243 555
3243 3755
3244 556
3244 3756
3245 557
3245 3757
3246 558
3246 3758
3247 559
3247 3759
3248 560
3248 3760
3249 561
3249 3761
3250 562
3250 3762
3251 563
3251 3763
3252 564
3252 3764
3253 565
3253 3765
3254 566
3254 3766
3255 567
3255 3767
3256 568
3256 3768
3257 569
3257 3769
3258 570
3258 3770
3259 571
3259 3771
3260 572
3260 3772
3261 573
3261 3773
3262 574
3262 3774
3263 575
3263 3775
3264 576
3264 3776
3265 577
3265 3777
3266 578
3266 3778
3267 579
3267 3779
3268 580
3268 3780
3269 581
3269 3781
3270 582
3270 3782
3271 583
3271 3783
3272 584
3272 3784
3273 585
3273 3785
3274 586
3274 3786
3275 587
3275 3787
3276 588
3276 3788
3277 589
3277 3789
3278 590
3278 3790
3279 591
3279 3791
3280 592
3280 3792
3281 593
3281 3793
3282 594
3282 3794
3283 595
3283 3795
3284 596
3284 3796
3285 597
3285 3797
3286 598
3286 3798
3287 599
3287 3799
3288 600
3288 3800
3289 601
3289 3801
3290 602
3290 3802
3291 603
3291 3803
3292 604
3292 3804
3293 605
3293 3805
3294 606
3294 3806
3295 607
3295 3807
3296 608
3296 3808
3297 609
3297 3809
3298 610
3298 3810
3299 611
3299 3811
3300 612
3300 3812
3301 613
3301 3813
3302 614
3302 3814
3303 615
3303 3815
3304 616
3304 3816
3305 617
3305 3817
3306 618
3306 3818
3307 619
3307 3819
3308 620
3308 3820
3309 621
3309 3821
3310 622
3310 3822
3311 623
3311 3823
3312 624
3312 3824
3313 625
3313 3825
3314 626
3314 3826
3315 627
3315 3827
3316 628
3316 3828
3317 629
3317 3829
3318 630
3318 3830
3319 631
3319 3831
3320 632
3320 3832
3321 633
3321 3833
3322 634
3322 3834
3323 635
3323 3835
3324 636
3324 3836
3325 637
3325 3837
3326 638
3326 3838
3327 639
3327 3839
3328 512
3328 4352
3329 513
3329 4353
3330 514
3330 4354
3331 515
3331 4355
3332 516
3332 4356
3333 517
3333 4357
3334 518
3334 4358
3335 519
3335 4359
3336 520
3336 4360
3337 521
3337 4361
3338 522
3338 4362
3339 523
3339 4363
3340 524
3340 4364
3341 525
3341 4365
3342 526
3342 4366
3343 527
3343 4367
3344 528
3344 4368
3345 529
3345 4369
3346 530
3346 4370
3347 531
3347 4371
3348 532
3348 4372
3349 533
3349 4373
3350 534
3350 4374
3351 535
3351 4375
3352 536
3352 4376
3353 537
3353 4377
3354 538
3354 4378
3355 539
3355 4379
3356 540
3356 4380
3357 541
3357 4381
3358 542
3358 4382
3359 543
3359 4383
3360 544
3360 4384
3361 545
3361 4385
3362 546
3362 4386
3363 547
3363 4387
3364 548
3364 4388
3365 549
3365 4389
3366 550
3366 4390
3367 551
3367 4391
3368 552
3368 4392
3369 553
3369 4393
3370 554
3370 4394
3371 555
3371 4395
3372 556
3372 4396
3373 557
3373 4397
3374 558
3374 4398
3375 559
3375 4399
3376 560
3376 4400
3377 561
3377 4401
3378 562
3378 4402
3379 563
3379 4403
3380 564
3380 4404
3381 565
3381 4405
3382 566
3382 4406
3383 567
3383 4407
3384 568
3384 4408
3385 569
3385 4409
3386 570
3386 4410
3387 571
3387 4411
3388 572
3388 4412
3389 573
3389 4413
3390 574
3390 4414
3391 575
3391 4415
3392 576
3392 4416
3393 577
3393 4417
3394 578
3394 4418
3395 579
3395 4419
3396 580
3396 4420
3397 581
3397 4421
3398 582
3398 4422
3399 583
3399 4423
3400 584
3400 4424
3401 585
3401 4425
3402 586
3402 4426
3403 587
3403 4427
3404 588
3404 4428
3405 589
3405 4429
3406 590
3406 4430
3407 591
3407 4431
3408 592
3408 4432
3409 593
3409 4433
3410 594
3410 4434
3411 595
3411 4435
3412 596
3412 4436
3413 597
3413 4437
3414 598
3414 4438
3415 599
3415 4439
3416 600
3416 4440
3417 601
3417 4441
3418 602
3418 4442
3419 603
3419 4443
3420 604
3420 4444
3421 605
3421 4445
3422 606
3422 4446
3423 607
3423 4447
3424 608
3424 4448
3425 609
3425 4449
3426 610
3426 4450
3427 611
3427 4451
3428 612
3428 4452
3429 613
3429 4453
3430 614
3430 4454
3431 615
3431 4455
3432 616
3432 4456
3433 617
3433 4457
3434 618
3434 4458
3435 619
3435 4459
3436 620
3436 4460
3437 621
3437 4461
3438 622
3438 4462
3439 623
3439 4463
3440 624
3440 4464
3441 625
3441 4465
3442 626
3442 4466
3443 627
3443 4467
3444 628
3444 4468
3445 629
3445 4469
3446 630
3446 4470
3447 631
3447 4471
3448 632
3448 4472
3449 633
3449 4473
3450 634
3450 4474
3451 635
3451 4475
3452 636
3452 4476
3453 637
3453 4477
3454 638
3454 4478
3455 639
3455 4479
3456 512
3456 4992
3457 513
3457 4993
3458 514
3458 4994
3459 515
3459 4995
3460 516
3460 4996
3461 517
3461 4997
3462 518
3462 4998
3463 519
3463 4999
3464 520
3464 5000
3465 521
3465 5001
3466 522
3466 5002
3467 523
3467 5003
3468 524
3468 5004
3469 525
3469 5005
3470 526
3470 5006
3471 527
3471 5007
3472 528
3472 5008
3473 529
3473 5009
3474 530
3474 5010
3475 531
3475 5011
3476 532
3476 5012
3477 533
3477 5013
3478 534
3478 5014
3479 535
3479 5015
3480 536
3480 5016
3481 537
3481 5017
3482 538
3482 5018
3483 539
3483 5019
3484 540
3484 5020
3485 541
3485 5021
3486 542
3486 5022
3487 543
3487 5023
3488 544
3488 5024
3489 545
3489 5025
3490 546
3490 5026
3491 547
3491 5027
3492 548
3492 5028
3493 549
3493 5029
3494 550
3494 5030
3495 551
3495 5031
3496 552
3496 5032
3497 553
3497 5033
3498 554
3498 5034
3499 555
3499 5035
3500 556
3500 5036
3501 557
3501 5037
3502 558
3502 5038
3503 559
3503 5039
3504 560
3504 5040
3505 561
3505 5041
3506 562
3506 5042
3507 563
3507 5043
3508 564
3508 5044
3509 565
3509 5045
3510 566
3510 5046
3511 567
3511 5047
3512 568
3512 5048
3513 569
3513 5049
3514 570
3514 5050
3515 571
3515 5051
3516 572
3516 5052
3517 573
3517 5053
3518 574
3518 5054
3519 575
3519 5055
3520 576
3520 5056
3521 577
3521 5057
3522 578
3522 5058
3523 579
3523 5059
3524 580
3524 5060
3525 581
3525 5061
3526 582
3526 5062
3527 583
3527 5063
3528 584
3528 5064
3529 585
3529 5065
3530 586
3530 5066
3531 587
3531 5067
3532 588
3532 5068
3533 589
3533 5069
3534 590
3534 5070
3535 591
3535 5071
3536 592
3536 5072
3537 593
3537 5073
3538 594
3538 5074
3539 595
3539 5075
3540 596
3540 5076
3541 597
3541 5077
3542 598
3542 5078
3543 599
3543 5079
3544 600
3544 5080
3545 601
3545 5081
3546 602
3546 5082
3547 603
3547 5083
3548 604
3548 5084
3549 605
3549 5085
3550 606
3550 5086
3551 607
3551 5087
3552 608
3552 5088
3553 609
3553 5089
3554 610
3554 5090
3555 611
3555 5091
3556 612
3556 5092
3557 613
3557 5093
3558 614
3558 5094
3559 615
3559 5095
3560 616
3560 5096
3561 617
3561 5097
3562 618
3562 5098
3563 619
3563 5099
3564 620
3564 5100
3565 621
3565 5101
3566 622
3566 5102
3567 623
3567 5103
3568 624
3568 5104
3569 625
3569 5105
3570 626
3570 5106
3571 627
3571 5107
3572 628
3572 5108
3573 629
3573 5109
3574 630
3574 5110
3575 631
3575 5111
3576 632
3576 5112
3577 633
3577 5113
3578 634
3578 5114
3579 635
3579 5115
3580 636
3580 5116
3581 637
3581 5117
3582 638
3582 5118
3583 639
3583 5119
3584 512
3584 5632
3585 513
3585 5633
3586 514
3586 5634
3587 515
3587 5635
3588 516
3588 5636
3589 517
3589 5637
3590 518
3590 5638
3591 519
3591 5639
3592 520
3592 5640
3593 521
3593 5641
3594 522
3594 5642
3595 523
3595 5643
3596 524
3596 5644
3597 525
3597 5645
3598 526
3598 5646
3599 527
3599 5647
3600 528
3600 5648
3601 529
3601 5649
3602 530
3602 5650
3603 531
3603 5651
3604 532
3604 5652
3605 533
3605 5653
3606 534
3606 5654
3607 535
3607 5655
3608 536
3608 5656
3609 537
3609 5657
3610 538
3610 5658
3611 539
3611 5659
3612 540
3612 5660
3613 541
3613 5661
3614 542
3614 5662
3615 543
3615 5663
3616 544
3616 5664
3617 545
3617 5665
3618 546
3618 5666
3619 547
3619 5667
3620 548
3620 5668
3621 549
3621 5669
3622 550
3622 5670
3623 551
3623 5671
3624 552
3624 5672
3625 553
3625 5673
3626 554
3626 5674
3627 555
3627 5675
3628 556
3628 5676
3629 557
3629 5677
3630 558
3630 5678
3631 559
3631 5679
3632 560
3632 5680
3633 561
3633 5681
3634 562
3634 5682
3635 563
3635 5683
3636 564
3636 5684
3637 565
3637 5685
3638 566
3638 5686
3639 567
3639 5687
3640 568
3640 5688
3641 569
3641 5689
3642 570
3642 5690
3643 571
3643 5691
3644 572
3644 5692
3645 573
3645 5693
3646 574
3646 5694
3647 575
3647 5695
3648 576
3648 5696
3649 577
3649 5697
3650 578
3650 5698
3651 579
3651 5699
3652 580
3652 5700
3653 581
3653 5701
3654 582
3654 5702
3655 583
3655 5703
3656 584
3656 5704
3657 585
3657 5705
3658 586
3658 5706
3659 587
3659 5707
3660 588
3660 5708
3661 589
3661 5709
3662 590
3662 5710
3663 591
3663 5711
3664 592
3664 5712
3665 593
3665 5713
3666 594
3666 5714
3667 595
3667 5715
3668 596
3668 5716
3669 597
3669 5717
3670 598
3670 5718
3671 599
3671 5719
3672 600
3672 5720
3673 601
3673 5721
3674 602
3674 5722
3675 603
3675 5723
3676 604
3676 5724
3677 605
3677 5725
3678 606
3678 5726
3679 607
3679 5727
3680 608
3680 5728
3681 609
3681 5729
3682 610
3682 5730
3683 611
3683 5731
3684 612
3684 5732
3685 613
3685 5733
3686 614
3686 5734
3687 615
3687 5735
3688 616
3688 5736
3689 617
3689 5737
3690 618
3690 5738
3691 619
3691 5739
3692 620
3692 5740
3693 621
3693 5741
3694 622
3694 5742
3695 623
3695 5743
3696 624
3696 5744
3697 625
3697 5745
3698 626
3698 5746
3699 627
3699 5747
3700 628
3700 5748
3701 629
3701 5749
3702 630
3702 5750
3703 631
3703 5751
3704 632
3704 5752
3705 633
3705 5753
3706 634
3706 5754
3707 635
3707 5755
3708 636
3708 5756
3709 637
3709 5757
3710 638
3710 5758
3711 639
3711 5759
3712 512
3712 6272
3713 513
3713 6273
3714 514
3714 6274
3715 515
3715 6275
3716 516
3716 6276
3717 517
3717 6277
3718 518
3718 6278
3719 519
3719 6279
3720 520
3720 6280
3721 521
3721 6281
3722 522
3722 6282
3723 523
3723 6283
3724 524
3724 6284
3725 525
3725 6285
3726 526
3726 6286
3727 527
3727 6287
3728 528
3728 6288
3729 529
3729 6289
3730 530
3730 6290
3731 531
3731 6291
3732 532
3732 6292
3733 533
3733 6293
3734 534
3734 6294
3735 535
3735 6295
3736 536
3736 6296
3737 537
3737 6297
3738 538
3738 6298
3739 539
3739 6299
3740 540
3740 6300
3741 541
3741 6301
3742 542
3742 6302
3743 543
3743 6303
3744 544
3744 6304
3745 545
3745 6305
3746 546
3746 6306
3747 547
3747 6307
3748 548
3748 6308
3749 549
3749 6309
3750 550
3750 6310
3751 551
3751 6311
3752 552
3752 6312
3753 553
3753 6313
3754 554
3754 6314
3755 555
3755 6315
3756 556
3756 6316
3757 557
3757 6317
3758 558
3758 6318
3759 559
3759 6319
3760 560
3760 6320
3761 561
3761 6321
3762 562
3762 6322
3763 563
3763 6323
3764 564
3764 6324
3765 565
3765 6325
3766 566
3766 6326
3767 567
3767 6327
3768 568
3768 6328
3769 569
3769 6329
3770 570
3770 6330
3771 571
3771 6331
3772 572
3772 6332
3773 573
3773 6333
3774 574
3774 6334
3775 575
3775 6335
3776 576
3776 6336
3777 577
3777 6337
3778 578
3778 6338
3779 579
3779 6339
3780 580
3780 6340
3781 581
3781 6341
3782 582
3782 6342
3783 583
3783 6343
3784 584
3784 6344
3785 585
3785 6345
3786 586
3786 6346
3787 587
3787 6347
3788 588
3788 6348
3789 589
3789 6349
3790 590
3790 6350
3791 591
3791 6351
3792 592
3792 6352
3793 593
3793 6353
3794 594
3794 6354
3795 595
3795 6355
3796 596
3796 6356
3797 597
3797 6357
3798 598
3798 6358
3799 599
3799 6359
3800 600
3800 6360
3801 601
3801 6361
3802 602
3802 6362
3803 603
3803 6363
3804 604
3804 6364
3805 605
3805 6365
3806 606
3806 6366
3807 607
3807 6367
3808 608
3808 6368
3809 609
3809 6369
3810 610
3810 6370
3811 611
3811 6371
3812 612
3812 6372
3813 613
3813 6373
3814 614
3814 6374
3815 615
3815 6375
3816 616
3816 6376
3817 617
3817 6377
3818 618
3818 6378
3819 619
3819 6379
3820 620
3820 6380
3821 621
3821 6381
3822 622
3822 6382
3823 623
3823 6383
3824 624
3824 6384
3825 625
3825 6385
3826 626
3826 6386
3827 627
3827 6387
3828 628
3828 6388
3829 629
3829 6389
3830 630
3830 6390
3831 631
3831 6391
3832 632
3832 6392
3833 633
3833 6393
3834 634
3834 6394
3835 635
3835 6395
3836 636
3836 6396
3837 637
3837 6397
3838 638
3838 6398
3839 639
3839 6399
3840 640
3840 768
3841 641
3841 769
3842 642
3842 770
3843 643
3843 771
3844 644
3844 772
3845 645
3845 773
3846 646
3846 774
3847 647
3847 775
3848 648
3848 776
3849 649
3849 777
3850 650
3850 778
3851 651
3851 779
3852 652
3852 780
3853 653
3853 781
3854 654
3854 782
3855 655
3855 783
3856 656
3856 784
3857 657
3857 785
3858 658
3858 786
3859 659
3859 787
3860 660
3860 788
3861 661
3861 789
3862 662
3862 790
3863 663
3863 791
3864 664
3864 792
3865 665
3865 793
3866 666
3866 794
3867 667
3867 795
3868 668
3868 796
3869 669
3869 797
3870 670
3870 798
3871 671
3871 799
3872 672
3872 800
3873 673
3873 801
3874 674
3874 802
3875 675
3875 803
3876 676
3876 804
3877 677
3877 805
3878 678
3878 806
3879 679
3879 807
3880 680
3880 808
3881 681
3881 809
3882 682
3882 810
3883 683
3883 811
3884 684
3884 812
3885 685
3885 813
3886 686
3886 814
3887 687
3887 815
3888 688
3888 816
3889 689
3889 817
3890 690
3890 818
3891 691
3891 819
3892 692
3892 820
3893 693
3893 821
3894 694
3894 822
3895 695
3895 823
3896 696
3896 824
3897 697
3897 825
3898 698
3898 826
3899 699
3899 827
3900 700
3900 828
3901 701
3901 829
3902 702
3902 830
3903 703
3903 831
3904 704
3904 832
3905 705
3905 833
3906 706
3906 834
3907 707
3907 835
3908 708
3908 836
3909 709
3909 837
3910 710
3910 838
3911 711
3911 839
3912 712
3912 840
3913 713
3913 841
3914 714
3914 842
3915 715
3915 843
3916 716
3916 844
3917 717
3917 845
3918 718
3918 846
3919 719
3919 847
3920 720
3920 848
3921 721
3921 849
3922 722
3922 850
3923 723
3923 851
3924 724
3924 852
3925 725
3925 853
3926 726
3926 854
3927 727
3927 855
3928 728
3928 856
3929 729
3929 857
3930 730
3930 858
3931 731
3931 859
3932 732
3932 860
3933 733
3933 861
3934 734
3934 862
3935 735
3935 863
3936 736
3936 864
3937 737
3937 865
3938 738
3938 866
3939 739
3939 867
3940 740
3940 868
3941 741
3941 869
3942 742
3942 870
3943 743
3943 871
3944 744
3944 872
3945 745
3945 873
3946 746
3946 874
3947 747
3947 875
3948 748
3948 876
3949 749
3949 877
3950 750
3950 878
3951 751
3951 879
3952 752
3952 880
3953 753
3953 881
3954 754
3954 882
3955 755
3955 883
3956 756
3956 884
3957 757
3957 885
3958 758
3958 886
3959 759
3959 887
3960 760
3960 888
3961 761
3961 889
3962 762
3962 890
3963 763
3963 891
3964 764
3964 892
3965 765
3965 893
3966 766
3966 894
3967 767
3967 895
3968 640
3968 1152
3969 641
3969 1153
3970 642
3970 1154
3971 643
3971 1155
3972 644
3972 1156
3973 645
3973 1157
3974 646
3974 1158
3975 647
3975 1159
3976 648
3976 1160
3977 649
3977 1161
3978 650
3978 1162
3979 651
3979 1163
3980 652
3980 1164
3981 653
3981 1165
3982 654
3982 1166
3983 655
3983 1167
3984 656
3984 1168
3985 657
3985 1169
3986 658
3986 1170
3987 659
3987 1171
3988 660
3988 1172
3989 661
3989 1173
3990 662
3990 1174
3991 663
3991 1175
3992 664
3992 1176
3993 665
3993 1177
3994 666
3994 1178
3995 667
3995 1179
3996 668
3996 1180
3997 669
3997 1181
3998 670
3998 1182
3999 671
3999 1183
4000 672
4000 1184
4001 673
4001 1185
4002 674
4002 1186
4003 675
4003 1187
4004 676
4004 1188
4005 677
4005 1189
4006 678
4006 1190
4007 679
4007 1191
4008 680
4008 1192
4009 681
4009 1193
4010 682
4010 1194
4011 683
4011 1195
4012 684
4012 1196
4013 685
4013 1197
4014 686
4014 1198
4015 687
4015 1199
4016 688
4016 1200
4017 689
4017 1201
4018 690
4018 1202
4019 691
4019 1203
4020 692
4020 1204
4021 693
4021 1205
4022 694
4022 1206
4023 695
4023 1207
4024 696
4024 1208
4025 697
4025 1209
4026 698
4026 1210
4027 699
4027 1211
4028 700
4028 1212
4029 701
4029 1213
4030 702
4030 1214
4031 703
4031 1215
4032 704
4032 1216
4033 705
4033 1217
4034 706
4034 1218
4035 707
4035 1219
4036 708
4036 1220
4037 709
4037 1221
4038 710
4038 1222
4039 711
4039 1223
4040 712
4040 1224
4041 713
4041 1225
4042 714
4042 1226
4043 715
4043 1227
4044 716
4044 1228
4045 717
4045 1229
4046 718
4046 1230
4047 719
4047 1231
4048 720
4048 1232
4049 721
4049 1233
4050 722
4050 1234
4051 723
4051 1235
4052 724
4052 1236
4053 725
4053 1237
4054 726
4054 1238
4055 727
4055 1239
4056 728
4056 1240
4057 729
4057 1241
4058 730
4058 1242
4059 731
4059 1243
4060 732
4060 1244
4061 733
4061 1245
4062 734
4062 1246
4063 735
4063 1247
4064 736
4064 1248
4065 737
4065 1249
4066 738
4066 1250
4067 739
4067 1251
4068 740
4068 1252
4069 741
4069 1253
4070 742
4070 1254
4071 743
4071 1255
4072 744
4072 1256
4073 745
4073 1257
4074 746
4074 1258
4075 747
4075 1259
4076 748
4076 1260
4077 749
4077 1261
4078 750
4078 1262
4079 751
4079 1263
4080 752
4080 1264
4081 753
4081 1265
4082 754
4082 1266
4083 755
4083 1267
4084 756
4084 1268
4085 757
4085 1269
4086 758
4086 1270
4087 759
4087 1271
4088 760
4088 1272
4089 761
4089 1273
4090 762
4090 1274
4091 763
4091 1275
4092 764
4092 1276
4093 765
4093 1277
4094 766
4094 1278
4095 767
4095 1279
4096 640
4096 3200
4097 641
4097 3201
4098 642
4098 3202
4099 643
4099 3203
4100 644
4100 3204
4101 645
4101 3205
4102 646
4102 3206
4103 647
4103 3207
4104 648
4104 3208
4105 649
4105 3209
4106 650
4106 3210
4107 651
4107 3211
4108 652
4108 3212
4109 653
4109 3213
4110 654
4110 3214
4111 655
4111 3215
4112 656
4112 3216
4113 657
4113 3217
4114 658
4114 3218
4115 659
4115 3219
4116 660
4116 3220
4117 661
4117 3221
4118 662
4118 3222
4119 663
4119 3223
4120 664
4120 3224
4121 665
4121 3225
4122 666
4122 3226
4123 667
4123 3227
4124 668
4124 3228
4125 669
4125 3229
4126 670
4126 3230
4127 671
4127 3231
4128 672
4128 3232
4129 673
4129 3233
4130 674
4130 3234
4131 675
4131 3235
4132 676
4132 3236
4133 677
4133 3237
4134 678
4134 3238
4135 679
4135 3239
4136 680
4136 3240
4137 681
4137 3241
4138 682
4138 3242
4139 683
4139 3243
4140 684
4140 3244
4141 685
4141 3245
4142 686
4142 3246
4143 687
4143 3247
4144 688
4144 3248
4145 689
4145 3249
4146 690
4146 3250
4147 691
4147 3251
4148 692
4148 3252
4149 693
4149 3253
4150 694
4150 3254
4151 695
4151 3255
4152 696
4152 3256
4153 697
4153 3257
4154 698
4154 3258
4155 699
4155 3259
4156 700
4156 3260
4157 701
4157 3261
4158 702
4158 3262
4159 703
4159 3263
4160 704
4160 3264
4161 705
4161 3265
4162 706
4162 3266
4163 707
4163 3267
4164 708
4164 3268
4165 709
4165 3269
4166 710
4166 3270
4167 711
4167 3271
4168 712
4168 3272
4169 713
4169 3273
4170 714
4170 3274
4171 715
4171 3275
4172 716
4172 3276
4173 717
4173 3277
4174 718
4174 3278
4175 719
4175 3279
4176 720
4176 3280
4177 721
4177 3281
4178 722
4178 3282
4179 723
4179 3283
4180 724
4180 3284
4181 725
4181 3285
4182 726
4182 3286
4183 727
4183 3287
4184 728
4184 3288
4185 729
4185 3289
4186 730
4186 3290
4187 731
4187 3291
4188 732
4188 3292
4189 733
4189 3293
4190 734
4190 3294
4191 735
4191 3295
4192 736
4192 3296
4193 737
4193 3297
4194 738
4194 3298
4195 739
4195 3299
4196 740
4196 3300
4197 741
4197 3301
4198 742
4198 3302
4199 743
4199 3303
4200 744
4200 3304
4201 745
4201 3305
4202 746
4202 3306
4203 747
4203 3307
4204 748
4204 3308
4205 749
4205 3309
4206 750
4206 3310
4207 751
4207 3311
4208 752
4208 3312
4209 753
4209 3313
4210 754
4210 3314
4211 755
4211 3315
4212 756
4212 3316
4213 757
4213 3317
4214 758
4214 3318
4215 759
4215 3319
4216 760
4216 3320
4217 761
4217 3321
4218 762
4218 3322
4219 763
4219 3323
4220 764
4220 3324
4221 765
4221 3325
4222 766
4222 3326
4223 767
4223 3327
4224 640
4224 3968
4225 641
4225 3969
4226 642
4226 3970
4227 643
4227 3971
4228 644
4228 3972
4229 645
4229 3973
4230 646
4230 3974
4231 647
4231 3975
4232 648
4232 3976
4233 649
4233 3977
4234 650
4234 3978
4235 651
4235 3979
4236 652
4236 3980
4237 653
4237 3981
4238 654
4238 3982
4239 655
4239 3983
4240 656
4240 3984
4241 657
4241 3985
4242 658
4242 3986
4243 659
4243 3987
4244 660
4244 3988
4245 661
4245 3989
4246 662
4246 3990
4247 663
4247 3991
4248 664
4248 3992
4249 665
4249 3993
4250 666
4250 3994
4251 667
4251 3995
4252 668
4252 3996
4253 669
4253 3997
4254 670
4254 3998
4255 671
4255 3999
4256 672
4256 4000
4257 673
4257 4001
4258 674
4258 4002
4259 675
4259 4003
4260 676
4260 4004
4261 677
4261 4005
4262 678
4262 4006
4263 679
4263 4007
4264 680
4264 4008
4265 681
4265 4009
4266 682
4266 4010
4267 683
4267 4011
4268 684
4268 4012
4269 685
4269 4013
4270 686
4270 4014
4271 687
4271 4015
4272 688
4272 4016
4273 689
4273 4017
4274 690
4274 4018
4275 691
4275 4019
4276 692
4276 4020
4277 693
4277 4021
4278 694
4278 4022
4279 695
4279 4023
4280 696
4280 4024
4281 697
4281 4025
4282 698
4282 4026
4283 699
4283 4027
4284 700
4284 4028
4285 701
4285 4029
4286 702
4286 4030
4287 703
4287 4031
4288 704
4288 4032
4289 705
4289 4033
4290 706
4290 4034
4291 707
4291 4035
4292 708
4292 4036
4293 709
4293 4037
4294 710
4294 4038
4295 711
4295 4039
4296 712
4296 4040
4297 713
4297 4041
4298 714
4298 4042
4299 715
4299 4043
4300 716
4300 4044
4301 717
4301 4045
4302 718
4302 4046
4303 719
4303 4047
4304 720
4304 4048
4305 721
4305 4049
4306 722
4306 4050
4307 723
4307 4051
4308 724
4308 4052
4309 725
4309 4053
4310 726
4310 4054
4311 727
4311 4055
4312 728
4312 4056
4313 729
4313 4057
4314 730
4314 4058
4315 731
4315 4059
4316 732
4316 4060
4317 733
4317 4061
4318 734
4318 4062
4319 735
4319 4063
4320 736
4320 4064
4321 737
4321 4065
4322 738
4322 4066
4323 739
4323 4067
4324 740
4324 4068
4325 741
4325 4069
4326 742
4326 4070
4327 743
4327 4071
4328 744
4328 4072
4329 745
4329 4073
4330 746
4330 4074
4331 747
4331 4075
4332 748
4332 4076
4333 749
4333 4077
4334 750
4334 4078
4335 751
4335 4079
4336 752
4336 4080
4337 753
4337 4081
4338 754
4338 4082
4339 755
4339 4083
4340 756
4340 4084
4341 757
4341 4085
4342 758
4342 4086
4343 759
4343 4087
4344 760
4344 4088
4345 761
4345 4089
4346 762
4346 4090
4347 763
4347 4091
4348 764
4348 4092
4349 765
4349 4093
4350 766
4350 4094
4351 767
4351 4095
4352 640
4352 4736
4353 641
4353 4737
4354 642
4354 4738
4355 643
4355 4739
4356 644
4356 4740
4357 645
4357 4741
4358 646
4358 4742
4359 647
4359 4743
4360 648
4360 4744
4361 649
4361 4745
4362 650
4362 4746
4363 651
4363 4747
4364 652
4364 4748
4365 653
4365 4749
4366 654
4366 4750
4367 655
4367 4751
4368 656
4368 4752
4369 657
4369 4753
4370 658
4370 4754
4371 659
4371 4755
4372 660
4372 4756
4373 661
4373 4757
4374 662
4374 4758
4375 663
4375 4759
4376 664
4376 4760
4377 665
4377 4761
4378 666
4378 4762
4379 667
4379 4763
4380 668
4380 4764
4381 669
4381 4765
4382 670
4382 4766
4383 671
4383 4767
4384 672
4384 4768
4385 673
4385 4769
4386 674
4386 4770
4387 675
4387 4771
4388 676
4388 4772
4389 677
4389 4773
4390 678
4390 4774
4391 679
4391 4775
4392 680
4392 4776
4393 681
4393 4777
4394 682
4394 4778
4395 683
4395 4779
4396 684
4396 4780
4397 685
4397 4781
4398 686
4398 4782
4399 687
4399 4783
4400 688
4400 4784
4401 689
4401 4785
4402 690
4402 4786
4403 691
4403 4787
4404 692
4404 4788
4405 693
4405 4789
4406 694
4406 4790
4407 695
4407 4791
4408 696
4408 4792
4409 697
4409 4793
4410 698
4410 4794
4411 699
4411 4795
4412 700
4412 4796
4413 701
4413 4797
4414 702
4414 4798
4415 703
4415 4799
4416 704
4416 4800
4417 705
4417 4801
4418 706
4418 4802
4419 707
4419 4803
4420 708
4420 4804
4421 709
4421 4805
4422 710
4422 4806
4423 711
4423 4807
4424 712
4424 4808
4425 713
4425 4809
4426 714
4426 4810
4427 715
4427 4811
4428 716
4428 4812
4429 717
4429 4813
4430 718
4430 4814
4431 719
4431 4815
4432 720
4432 4816
4433 721
4433 4817
4434 722
4434 4818
4435 723
4435 4819
4436 724
4436 4820
4437 725
4437 4821
4438 726
4438 4822
4439 727
4439 4823
4440 728
4440 4824
4441 729
4441 4825
4442 730
4442 4826
4443 731
4443 4827
4444 732
4444 4828
4445 733
4445 4829
4446 734
4446 4830
4447 735
4447 4831
4448 736
4448 4832
4449 737
4449 4833
4450 738
4450 4834
4451 739
4451 4835
4452 740
4452 4836
4453 741
4453 4837
4454 742
4454 4838
4455 743
4455 4839
4456 744
4456 4840
4457 745
4457 4841
4458 746
4458 4842
4459 747
4459 4843
4460 748
4460 4844
4461 749
4461 4845
4462 750
4462 4846
4463 751
4463 4847
4464 752
4464 4848
4465 753
4465 4849
4466 754
4466 4850
4467 755
4467 4851
4468 756
4468 4852
4469 757
4469 4853
4470 758
4470 4854
4471 759
4471 4855
4472 760
4472 4856
4473 761
4473 4857
4474 762
4474 4858
4475 763
4475 4859
4476 764
4476 4860
4477 765
4477 4861
4478 766
4478 4862
4479 767
4479 4863
4480 640
4480 5504
4481 641
4481 5505
4482 642
4482 5506
4483 643
4483 5507
4484 644
4484 5508
4485 645
4485 5509
4486 646
4486 5510
4487 647
4487 5511
4488 648
4488 5512
4489 649
4489 5513
4490 650
4490 5514
4491 651
4491 5515
4492 652
4492 5516
4493 653
4493 5517
4494 654
4494 5518
4495 655
4495 5519
4496 656
4496 5520
4497 657
4497 5521
4498 658
4498 5522
4499 659
4499 5523
4500 660
4500 5524
4501 661
4501 5525
4502 662
4502 5526
4503 663
4503 5527
4504 664
4504 5528
4505 665
4505 5529
4506 666
4506 5530
4507 667
4507 5531
4508 668
4508 5532
4509 669
4509 5533
4510 670
4510 5534
4511 671
4511 5535
4512 672
4512 5536
4513 673
4513 5537
4514 674
4514 5538
4515 675
4515 5539
4516 676
4516 5540
4517 677
4517 5541
4518 678
4518 5542
4519 679
4519 5543
4520 680
4520 5544
4521 681
4521 5545
4522 682
4522 5546
4523 683
4523 5547
4524 684
4524 5548
4525 685
4525 5549
4526 686
4526 5550
4527 687
4527 5551
4528 688
4528 5552
4529 689
4529 5553
4530 690
4530 5554
4531 691
4531 5555
4532 692
4532 5556
4533 693
4533 5557
4534 694
4534 5558
4535 695
4535 5559
4536 696
4536 5560
4537 697
4537 5561
4538 698
4538 5562
4539 699
4539 5563
4540 700
4540 5564
4541 701
4541 5565
4542 702
4542 5566
4543 703
4543 5567
4544 704
4544 5568
4545 705
4545 5569
4546 706
4546 5570
4547 707
4547 5571
4548 708
4548 5572
4549 709
4549 5573
4550 710
4550 5574
4551 711
4551 5575
4552 712
4552 5576
4553 713
4553 5577
4554 714
4554 5578
4555 715
4555 5579
4556 716
4556 5580
4557 717
4557 5581
4558 718
4558 5582
4559 719
4559 5583
4560 720
4560 5584
4561 721
4561 5585
4562 722
4562 5586
4563 723
4563 5587
4564 724
4564 5588
4565 725
4565 5589
4566 726
4566 5590
4567 727
4567 5591
4568 728
4568 5592
4569 729
4569 5593
4570 730
4570 5594
4571 731
4571 5595
4572 732
4572 5596
4573 733
4573 5597
4574 734
4574 5598
4575 735
4575 5599
4576 736
4576 5600
4577 737
4577 5601
4578 738
4578 5602
4579 739
4579 5603
4580 740
4580 5604
4581 741
4581 5605
4582 742
4582 5606
4583 743
4583 5607
4584 744
4584 5608
4585 745
4585 5609
4586 746
4586 5610
4587 747
4587 5611
4588 748
4588 5612
4589 749
4589 5613
4590 750
4590 5614
4591 751
4591 5615
4592 752
4592 5616
4593 753
4593 5617
4594 754
4594 5618
4595 755
4595 5619
4596 756
4596 5620
4597 757
4597 5621
4598 758
4598 5622
4599 759
4599 5623
4600 760
4600 5624
4601 761
4601 5625
4602 762
4602 5626
4603 763
4603 5627
4604 764
4604 5628
4605 765
4605 5629
4606 766
4606 5630
4607 767
4607 5631
4608 640
4608 6272
4609 641
4609 6273
4610 642
4610 6274
4611 643
4611 6275
4612 644
4612 6276
4613 645
4613 6277
4614 646
4614 6278
4615 647
4615 6279
4616 648
4616 6280
4617 649
4617 6281
4618 650
4618 6282
4619 651
4619 6283
4620 652
4620 6284
4621 653
4621 6285
4622 654
4622 6286
4623 655
4623 6287
4624 656
4624 6288
4625 657
4625 6289
4626 658
4626 6290
4627 659
4627 6291
4628 660
4628 6292
4629 661
4629 6293
4630 662
4630 6294
4631 663
4631 6295
4632 664
4632 6296
4633 665
4633 6297
4634 666
4634 6298
4635 667
4635 6299
4636 668
4636 6300
4637 669
4637 6301
4638 670
4638 6302
4639 671
4639 6303
4640 672
4640 6304
4641 673
4641 6305
4642 674
4642 6306
4643 675
4643 6307
4644 676
4644 6308
4645 677
4645 6309
4646 678
4646 6310
4647 679
4647 6311
4648 680
4648 6312
4649 681
4649 6313
4650 682
4650 6314
4651 683
4651 6315
4652 684
4652 6316
4653 685
4653 6317
4654 686
4654 6318
4655 687
4655 6319
4656 688
4656 6320
4657 689
4657 6321
4658 690
4658 6322
4659 691
4659 6323
4660 692
4660 6324
4661 693
4661 6325
4662 694
4662 6326
4663 695
4663 6327
4664 696
4664 6328
4665 697
4665 6329
4666 698
4666 6330
4667 699
4667 6331
4668 700
4668 6332
4669 701
4669 6333
4670 702
4670 6334
4671 703
4671 6335
4672 704
4672 6336
4673 705
4673 6337
4674 706
4674 6338
4675 707
4675 6339
4676 708
4676 6340
4677 709
4677 6341
4678 710
4678 6342
4679 711
4679 6343
4680 712
4680 6344
4681 713
4681 6345
4682 714
4682 6346
4683 715
4683 6347
4684 716
4684 6348
4685 717
4685 6349
4686 718
4686 6350
4687 719
4687 6351
4688 720
4688 6352
4689 721
4689 6353
4690 722
4690 6354
4691 723
4691 6355
4692 724
4692 6356
4693 725
4693 6357
4694 726
4694 6358
4695 727
4695 6359
4696 728
4696 6360
4697 729
4697 6361
4698 730
4698 6362
4699 731
4699 6363
4700 732
4700 6364
4701 733
4701 6365
4702 734
4702 6366
4703 735
4703 6367
4704 736
4704 6368
4705 737
4705 6369
4706 738
4706 6370
4707 739
4707 6371
4708 740
4708 6372
4709 741
4709 6373
4710 742
4710 6374
4711 743
4711 6375
4712 744
4712 6376
4713 745
4713 6377
4714 746
4714 6378
4715 747
4715 6379
4716 748
4716 6380
4717 749
4717 6381
4718 750
4718 6382
4719 751
4719 6383
4720 752
4720 6384
4721 753
4721 6385
4722 754
4722 6386
4723 755
4723 6387
4724 756
4724 6388
4725 757
4725 6389
4726 758
4726 6390
4727 759
4727 6391
4728 760
4728 6392
4729 761
4729 6393
4730 762
4730 6394
4731 763
4731 6395
4732 764
4732 6396
4733 765
4733 6397
4734 766
4734 6398
4735 767
4735 6399
4736 768
4736 896
4737 769
4737 897
4738 770
4738 898
4739 771
4739 899
4740 772
4740 900
4741 773
4741 901
4742 774
4742 902
4743 775
4743 903
4744 776
4744 904
4745 777
4745 905
4746 778
4746 906
4747 779
4747 907
4748 780
4748 908
4749 781
4749 909
4750 782
4750 910
4751 783
4751 911
4752 784
4752 912
4753 785
4753 913
4754 786
4754 914
4755 787
4755 915
4756 788
4756 916
4757 789
4757 917
4758 790
4758 918
4759 791
4759 919
4760 792
4760 920
4761 793
4761 921
4762 794
4762 922
4763 795
4763 923
4764 796
4764 924
4765 797
4765 925
4766 798
4766 926
4767 799
4767 927
4768 800
4768 928
4769 801
4769 929
4770 802
4770 930
4771 803
4771 931
4772 804
4772 932
4773 805
4773 933
4774 806
4774 934
4775 807
4775 935
4776 808
4776 936
4777 809
4777 937
4778 810
4778 938
4779 811
4779 939
4780 812
4780 940
4781 813
4781 941
4782 814
4782 942
4783 815
4783 943
4784 816
4784 944
4785 817
4785 945
4786 818
4786 946
4787 819
4787 947
4788 820
4788 948
4789 821
4789 949
4790 822
4790 950
4791 823
4791 951
4792 824
4792 952
4793 825
4793 953
4794 826
4794 954
4795 827
4795 955
4796 828
4796 956
4797 829
4797 957
4798 830
4798 958
4799 831
4799 959
4800 832
4800 960
4801 833
4801 961
4802 834
4802 962
4803 835
4803 963
4804 836
4804 964
4805 837
4805 965
4806 838
4806 966
4807 839
4807 967
4808 840
4808 968
4809 841
4809 969
4810 842
4810 970
4811 843
4811 971
4812 844
4812 972
4813 845
4813 973
4814 846
4814 974
4815 847
4815 975
4816 848
4816 976
4817 849
4817 977
4818 850
4818 978
4819 851
4819 979
4820 852
4820 980
4821 853
4821 981
4822 854
4822 982
4823 855
4823 983
4824 856
4824 984
4825 857
4825 985
4826 858
4826 986
4827 859
4827 987
4828 860
4828 988
4829 861
4829 989
4830 862
4830 990
4831 863
4831 991
4832 864
4832 992
4833 865
4833 993
4834 866
4834 994
4835 867
4835 995
4836 868
4836 996
4837 869
4837 997
4838 870
4838 998
4839 871
4839 999
4840 872
4840 1000
4841 873
4841 1001
4842 874
4842 1002
4843 875
4843 1003
4844 876
4844 1004
4845 877
4845 1005
4846 878
4846 1006
4847 879
4847 1007
4848 880
4848 1008
4849 881
4849 1009
4850 882
4850 1010
4851 883
4851 1011
4852 884
4852 1012
4853 885
4853 1013
4854 886
4854 1014
4855 887
4855 1015
4856 888
4856 1016
4857 889
4857 1017
4858 890
4858 1018
4859 891
4859 1019
4860 892
4860 1020
4861 893
4861 1021
4862 894
4862 1022
4863 895
4863 1023
4864 768
4864 3328
4865 769
4865 3329
4866 770
4866 3330
4867 771
4867 3331
4868 772
4868 3332
4869 773
4869 3333
4870 774
4870 3334
4871 775
4871 3335
4872 776
4872 3336
4873 777
4873 3337
4874 778
4874 3338
4875 779
4875 3339
4876 780
4876 3340
4877 781
4877 3341
4878 782
4878 3342
4879 783
4879 3343
4880 784
4880 3344
4881 785
4881 3345
4882 786
4882 3346
4883 787
4883 3347
4884 788
4884 3348
4885 789
4885 3349
4886 790
4886 3350
4887 791
4887 3351
4888 792
4888 3352
4889 793
4889 3353
4890 794
4890 3354
4891 795
4891 3355
4892 796
4892 3356
4893 797
4893 3357
4894 798
4894 3358
4895 799
4895 3359
4896 800
4896 3360
4897 801
4897 3361
4898 802
4898 3362
4899 803
4899 3363
4900 804
4900 3364
4901 805
4901 3365
4902 806
4902 3366
4903 807
4903 3367
4904 808
4904 3368
4905 809
4905 3369
4906 810
4906 3370
4907 811
4907 3371
4908 812
4908 3372
4909 813
4909 3373
4910 814
4910 3374
4911 815
4911 3375
4912 816
4912 3376
4913 817
4913 3377
4914 818
4914 3378
4915 819
4915 3379
4916 820
4916 3380
4917 821
4917 3381
4918 822
4918 3382
4919 823
4919 3383
4920 824
4920 3384
4921 825
4921 3385
4922 826
4922 3386
4923 827
4923 3387
4924 828
4924 3388
4925 829
4925 3389
4926 830
4926 3390
4927 831
4927 3391
4928 832
4928 3392
4929 833
4929 3393
4930 834
4930 3394
4931 835
4931 3395
4932 836
4932 3396
4933 837
4933 3397
4934 838
4934 3398
4935 839
4935 3399
4936 840
4936 3400
4937 841
4937 3401
4938 842
4938 3402
4939 843
4939 3403
4940 844
4940 3404
4941 845
4941 3405
4942 846
4942 3406
4943 847
4943 3407
4944 848
4944 3408
4945 849
4945 3409
4946 850
4946 3410
4947 851
4947 3411
4948 852
4948 3412
4949 853
4949 3413
4950 854
4950 3414
4951 855
4951 3415
4952 856
4952 3416
4953 857
4953 3417
4954 858
4954 3418
4955 859
4955 3419
4956 860
4956 3420
4957 861
4957 3421
4958 862
4958 3422
4959 863
4959 3423
4960 864
4960 3424
4961 865
4961 3425
4962 866
4962 3426
4963 867
4963 3427
4964 868
4964 3428
4965 869
4965 3429
4966 870
4966 3430
4967 871
4967 3431
4968 872
4968 3432
4969 873
4969 3433
4970 874
4970 3434
4971 875
4971 3435
4972 876
4972 3436
4973 877
4973 3437
4974 878
4974 3438
4975 879
4975 3439
4976 880
4976 3440
4977 881
4977 3441
4978 882
4978 3442
4979 883
4979 3443
4980 884
4980 3444
4981 885
4981 3445
4982 886
4982 3446
4983 887
4983 3447
4984 888
4984 3448
4985 889
4985 3449
4986 890
4986 3450
4987 891
4987 3451
4988 892
4988 3452
4989 893
4989 3453
4990 894
4990 3454
4991 895
4991 3455
4992 768
4992 4096
4993 769
4993 4097
4994 770
4994 4098
4995 771
4995 4099
4996 772
4996 4100
4997 773
4997 4101
4998 774
4998 4102
4999 775
4999 4103
5000 776
5000 4104
5001 777
5001 4105
5002 778
5002 4106
5003 779
5003 4107
5004 780
5004 4108
5005 781
5005 4109
5006 782
5006 4110
5007 783
5007 4111
5008 784
5008 4112
5009 785
5009 4113
5010 786
5010 4114
5011 787
5011 4115
5012 788
5012 4116
5013 789
5013 4117
5014 790
5014 4118
5015 791
5015 4119
5016 792
5016 4120
5017 793
5017 4121
5018 794
5018 4122
5019 795
5019 4123
5020 796
5020 4124
5021 797
5021 4125
5022 798
5022 4126
5023 799
5023 4127
5024 800
5024 4128
5025 801
5025 4129
5026 802
5026 4130
5027 803
5027 4131
5028 804
5028 4132
5029 805
5029 4133
5030 806
5030 4134
5031 807
5031 4135
5032 808
5032 4136
5033 809
5033 4137
5034 810
5034 4138
5035 811
5035 4139
5036 812
5036 4140
5037 813
5037 4141
5038 814
5038 4142
5039 815
5039 4143
5040 816
5040 4144
5041 817
5041 4145
5042 818
5042 4146
5043 819
5043 4147
5044 820
5044 4148
5045 821
5045 4149
5046 822
5046 4150
5047 823
5047 4151
5048 824
5048 4152
5049 825
5049 4153
5050 826
5050 4154
5051 827
5051 4155
5052 828
5052 4156
5053 829
5053 4157
5054 830
5054 4158
5055 831
5055 4159
5056 832
5056 4160
5057 833
5057 4161
5058 834
5058 4162
5059 835
5059 4163
5060 836
5060 4164
5061 837
5061 4165
5062 838
5062 4166
5063 839
5063 4167
5064 840
5064 4168
5065 841
5065 4169
5066 842
5066 4170
5067 843
5067 4171
5068 844
5068 4172
5069 845
5069 4173
5070 846
5070 4174
5071 847
5071 4175
5072 848
5072 4176
5073 849
5073 4177
5074 850
5074 4178
5075 851
5075 4179
5076 852
5076 4180
5077 853
5077 4181
5078 854
5078 4182
5079 855
5079 4183
5080 856
5080 4184
5081 857
5081 4185
5082 858
5082 4186
5083 859
5083 4187
5084 860
5084 4188
5085 861
5085 4189
5086 862
5086 4190
5087 863
5087 4191
5088 864
5088 4192
5089 865
5089 4193
5090 866
5090 4194
5091 867
5091 4195
5092 868
5092 4196
5093 869
5093 4197
5094 870
5094 4198
5095 871
5095 4199
5096 872
5096 4200
5097 873
5097 4201
5098 874
5098 4202
5099 875
5099 4203
5100 876
5100 4204
5101 877
5101 4205
5102 878
5102 4206
5103 879
5103 4207
5104 880
5104 4208
5105 881
5105 4209
5106 882
5106 4210
5107 883
5107 4211
5108 884
5108 4212
5109 885
5109 4213
5110 886
5110 4214
5111 887
5111 4215
5112 888
5112 4216
5113 889
5113 4217
5114 890
5114 4218
5115 891
5115 4219
5116 892
5116 4220
5117 893
5117 4221
5118 894
5118 4222
5119 895
5119 4223
5120 768
5120 4864
5121 769
5121 4865
5122 770
5122 4866
5123 771
5123 4867
5124 772
5124 4868
5125 773
5125 4869
5126 774
5126 4870
5127 775
5127 4871
5128 776
5128 4872
5129 777
5129 4873
5130 778
5130 4874
5131 779
5131 4875
5132 780
5132 4876
5133 781
5133 4877
5134 782
5134 4878
5135 783
5135 4879
5136 784
5136 4880
5137 785
5137 4881
5138 786
5138 4882
5139 787
5139 4883
5140 788
5140 4884
5141 789
5141 4885
5142 790
5142 4886
5143 791
5143 4887
5144 792
5144 4888
5145 793
5145 4889
5146 794
5146 4890
5147 795
5147 4891
5148 796
5148 4892
5149 797
5149 4893
5150 798
5150 4894
5151 799
5151 4895
5152 800
5152 4896
5153 801
5153 4897
5154 802
5154 4898
5155 803
5155 4899
5156 804
5156 4900
5157 805
5157 4901
5158 806
5158 4902
5159 807
5159 4903
5160 808
5160 4904
5161 809
5161 4905
5162 810
5162 4906
5163 811
5163 4907
5164 812
5164 4908
5165 813
5165 4909
5166 814
5166 4910
5167 815
5167 4911
5168 816
5168 4912
5169 817
5169 4913
5170 818
5170 4914
5171 819
5171 4915
5172 820
5172 4916
5173 821
5173 4917
5174 822
5174 4918
5175 823
5175 4919
5176 824
5176 4920
5177 825
5177 4921
5178 826
5178 4922
5179 827
5179 4923
5180 828
5180 4924
5181 829
5181 4925
5182 830
5182 4926
5183 831
5183 4927
5184 832
5184 4928
5185 833
5185 4929
5186 834
5186 4930
5187 835
5187 4931
5188 836
5188 4932
5189 837
5189 4933
5190 838
5190 4934
5191 839
5191 4935
5192 840
5192 4936
5193 841
5193 4937
5194 842
5194 4938
5195 843
5195 4939
5196 844
5196 4940
5197 845
5197 4941
5198 846
5198 4942
5199 847
5199 4943
5200 848
5200 4944
5201 849
5201 4945
5202 850
5202 4946
5203 851
5203 4947
5204 852
5204 4948
5205 853
5205 4949
5206 854
5206 4950
5207 855
5207 4951
5208 856
5208 4952
5209 857
5209 4953
5210 858
5210 4954
5211 859
5211 4955
5212 860
5212 4956
5213 861
5213 4957
5214 862
5214 4958
5215 863
5215 4959
5216 864
5216 4960
5217 865
5217 4961
5218 866
5218 4962
5219 867
5219 4963
5220 868
5220 4964
5221 869
5221 4965
5222 870
5222 4966
5223 871
5223 4967
5224 872
5224 4968
5225 873
5225 4969
5226 874
5226 4970
5227 875
5227 4971
5228 876
5228 4972
5229 877
5229 4973
5230 878
5230 4974
5231 879
5231 4975
5232 880
5232 4976
5233 881
5233 4977
5234 882
5234 4978
5235 883
5235 4979
5236 884
5236 4980
5237 885
5237 4981
5238 886
5238 4982
5239 887
5239 4983
5240 888
5240 4984
5241 889
5241 4985
5242 890
5242 4986
5243 891
5243 4987
5244 892
5244 4988
5245 893
5245 4989
5246 894
5246 4990
5247 895
5247 4991
5248 768
5248 5632
5249 769
5249 5633
5250 770
5250 5634
5251 771
5251 5635
5252 772
5252 5636
5253 773
5253 5637
5254 774
5254 5638
5255 775
5255 5639
5256 776
5256 5640
5257 777
5257 5641
5258 778
5258 5642
5259 779
5259 5643
5260 780
5260 5644
5261 781
5261 5645
5262 782
5262 5646
5263 783
5263 5647
5264 784
5264 5648
5265 785
5265 5649
5266 786
5266 5650
5267 787
5267 5651
5268 788
5268 5652
5269 789
5269 5653
5270 790
5270 5654
5271 791
5271 5655
5272 792
5272 5656
5273 793
5273 5657
5274 794
5274 5658
5275 795
5275 5659
5276 796
5276 5660
5277 797
5277 5661
5278 798
5278 5662
5279 799
5279 5663
5280 800
5280 5664
5281 801
5281 5665
5282 802
5282 5666
5283 803
5283 5667
5284 804
5284 5668
5285 805
5285 5669
5286 806
5286 5670
5287 807
5287 5671
5288 808
5288 5672
5289 809
5289 5673
5290 810
5290 5674
5291 811
5291 5675
5292 812
5292 5676
5293 813
5293 5677
5294 814
5294 5678
5295 815
5295 5679
5296 816
5296 5680
5297 817
5297 5681
5298 818
5298 5682
5299 819
5299 5683
5300 820
5300 5684
5301 821
5301 5685
5302 822
5302 5686
5303 823
5303 5687
5304 824
5304 5688
5305 825
5305 5689
5306 826
5306 5690
5307 827
5307 5691
5308 828
5308 5692
5309 829
5309 5693
5310 830
5310 5694
5311 831
5311 5695
5312 832
5312 5696
5313 833
5313 5697
5314 834
5314 5698
5315 835
5315 5699
5316 836
5316 5700
5317 837
5317 5701
5318 838
5318 5702
5319 839
5319 5703
5320 840
5320 5704
5321 841
5321 5705
5322 842
5322 5706
5323 843
5323 5707
5324 844
5324 5708
5325 845
5325 5709
5326 846
5326 5710
5327 847
5327 5711
5328 848
5328 5712
5329 849
5329 5713
5330 850
5330 5714
5331 851
5331 5715
5332 852
5332 5716
5333 853
5333 5717
5334 854
5334 5718
5335 855
5335 5719
5336 856
5336 5720
5337 857
5337 5721
5338 858
5338 5722
5339 859
5339 5723
5340 860
5340 5724
5341 861
5341 5725
5342 862
5342 5726
5343 863
5343 5727
5344 864
5344 5728
5345 865
5345 5729
5346 866
5346 5730
5347 867
5347 5731
5348 868
5348 5732
5349 869
5349 5733
5350 870
5350 5734
5351 871
5351 5735
5352 872
5352 5736
5353 873
5353 5737
5354 874
5354 5738
5355 875
5355 5739
5356 876
5356 5740
5357 877
5357 5741
5358 878
5358 5742
5359 879
5359 5743
5360 880
5360 5744
5361 881
5361 5745
5362 882
5362 5746
5363 883
5363 5747
5364 884
5364 5748
5365 885
5365 5749
5366 886
5366 5750
5367 887
5367 5751
5368 888
5368 5752
5369 889
5369 5753
5370 890
5370 5754
5371 891
5371 5755
5372 892
5372 5756
5373 893
5373 5757
5374 894
5374 5758
5375 895
5375 5759
5376 768
5376 5760
5377 769
5377 5761
5378 770
5378 5762
5379 771
5379 5763
5380 772
5380 5764
5381 773
5381 5765
5382 774
5382 5766
5383 775
5383 5767
5384 776
5384 5768
5385 777
5385 5769
5386 778
5386 5770
5387 779
5387 5771
5388 780
5388 5772
5389 781
5389 5773
5390 782
5390 5774
5391 783
5391 5775
5392 784
5392 5776
5393 785
5393 5777
5394 786
5394 5778
5395 787
5395 5779
5396 788
5396 5780
5397 789
5397 5781
5398 790
5398 5782
5399 791
5399 5783
5400 792
5400 5784
5401 793
5401 5785
5402 794
5402 5786
5403 795
5403 5787
5404 796
5404 5788
5405 797
5405 5789
5406 798
5406 5790
5407 799
5407 5791
5408 800
5408 5792
5409 801
5409 5793
5410 802
5410 5794
5411 803
5411 5795
5412 804
5412 5796
5413 805
5413 5797
5414 806
5414 5798
5415 807
5415 5799
5416 808
5416 5800
5417 809
5417 5801
5418 810
5418 5802
5419 811
5419 5803
5420 812
5420 5804
5421 813
5421 5805
5422 814
5422 5806
5423 815
5423 5807
5424 816
5424 5808
5425 817
5425 5809
5426 818
5426 5810
5427 819
5427 5811
5428 820
5428 5812
5429 821
5429 5813
5430 822
5430 5814
5431 823
5431 5815
5432 824
5432 5816
5433 825
5433 5817
5434 826
5434 5818
5435 827
5435 5819
5436 828
5436 5820
5437 829
5437 5821
5438 830
5438 5822
5439 831
5439 5823
5440 832
5440 5824
5441 833
5441 5825
5442 834
5442 5826
5443 835
5443 5827
5444 836
5444 5828
5445 837
5445 5829
5446 838
5446 5830
5447 839
5447 5831
5448 840
5448 5832
5449 841
5449 5833
5450 842
5450 5834
5451 843
5451 5835
5452 844
5452 5836
5453 845
5453 5837
5454 846
5454 5838
5455 847
5455 5839
5456 848
5456 5840
5457 849
5457 5841
5458 850
5458 5842
5459 851
5459 5843
5460 852
5460 5844
5461 853
5461 5845
5462 854
5462 5846
5463 855
5463 5847
5464 856
5464 5848
5465 857
5465 5849
5466 858
5466 5850
5467 859
5467 5851
5468 860
5468 5852
5469 861
5469 5853
5470 862
5470 5854
5471 863
5471 5855
5472 864
5472 5856
5473 865
5473 5857
5474 866
5474 5858
5475 867
5475 5859
5476 868
5476 5860
5477 869
5477 5861
5478 870
5478 5862
5479 871
5479 5863
5480 872
5480 5864
5481 873
5481 5865
5482 874
5482 5866
5483 875
5483 5867
5484 876
5484 5868
5485 877
5485 5869
5486 878
5486 5870
5487 879
5487 5871
5488 880
5488 5872
5489 881
5489 5873
5490 882
5490 5874
5491 883
5491 5875
5492 884
5492 5876
5493 885
5493 5877
5494 886
5494 5878
5495 887
5495 5879
5496 888
5496 5880
5497 889
5497 5881
5498 890
5498 5882
5499 891
5499 5883
5500 892
5500 5884
5501 893
5501 5885
5502 894
5502 5886
5503 895
5503 5887
5504 896
5504 1024
5505 897
5505 1025
5506 898
5506 1026
5507 899
5507 1027
5508 900
5508 1028
5509 901
5509 1029
5510 902
5510 1030
5511 903
5511 1031
5512 904
5512 1032
5513 905
5513 1033
5514 906
5514 1034
5515 907
5515 1035
5516 908
5516 1036
5517 909
5517 1037
5518 910
5518 1038
5519 911
5519 1039
5520 912
5520 1040
5521 913
5521 1041
5522 914
5522 1042
5523 915
5523 1043
5524 916
5524 1044
5525 917
5525 1045
5526 918
5526 1046
5527 919
5527 1047
5528 920
5528 1048
5529 921
5529 1049
5530 922
5530 1050
5531 923
5531 1051
5532 924
5532 1052
5533 925
5533 1053
5534 926
5534 1054
5535 927
5535 1055
5536 928
5536 1056
5537 929
5537 1057
5538 930
5538 1058
5539 931
5539 1059
5540 932
5540 1060
5541 933
5541 1061
5542 934
5542 1062
5543 935
5543 1063
5544 936
5544 1064
5545 937
5545 1065
5546 938
5546 1066
5547 939
5547 1067
5548 940
5548 1068
5549 941
5549 1069
5550 942
5550 1070
5551 943
5551 1071
5552 944
5552 1072
5553 945
5553 1073
5554 946
5554 1074
5555 947
5555 1075
5556 948
5556 1076
5557 949
5557 1077
5558 950
5558 1078
5559 951
5559 1079
5560 952
5560 1080
5561 953
5561 1081
5562 954
5562 1082
5563 955
5563 1083
5564 956
5564 1084
5565 957
5565 1085
5566 958
5566 1086
5567 959
5567 1087
5568 960
5568 1088
5569 961
5569 1089
5570 962
5570 1090
5571 963
5571 1091
5572 964
5572 1092
5573 965
5573 1093
5574 966
5574 1094
5575 967
5575 1095
5576 968
5576 1096
5577 969
5577 1097
5578 970
5578 1098
5579 971
5579 1099
5580 972
5580 1100
5581 973
5581 1101
5582 974
5582 1102
5583 975
5583 1103
5584 976
5584 1104
5585 977
5585 1105
5586 978
5586 1106
5587 979
5587 1107
5588 980
5588 1108
5589 981
5589 1109
5590 982
5590 1110
5591 983
5591 1111
5592 984
5592 1112
5593 985
5593 1113
5594 986
5594 1114
5595 987
5595 1115
5596 988
5596 1116
5597 989
5597 1117
5598 990
5598 1118
5599 991
5599 1119
5600 992
5600 1120
5601 993
5601 1121
5602 994
5602 1122
5603 995
5603 1123
5604 996
5604 1124
5605 997
5605 1125
5606 998
5606 1126
5607 999
5607 1127
5608 1000
5608 1128
5609 1001
5609 1129
5610 1002
5610 1130
5611 1003
5611 1131
5612 1004
5612 1132
5613 1005
5613 1133
5614 1006
5614 1134
5615 1007
5615 1135
5616 1008
5616 1136
5617 1009
5617 1137
5618 1010
5618 1138
5619 1011
5619 1139
5620 1012
5620 1140
5621 1013
5621 1141
5622 1014
5622 1142
5623 1015
5623 1143
5624 1016
5624 1144
5625 1017
5625 1145
5626 1018
5626 1146
5627 1019
5627 1147
5628 1020
5628 1148
5629 1021
5629 1149
5630 1022
5630 1150
5631 1023
5631 1151
5632 896
5632 3456
5633 897
5633 3457
5634 898
5634 3458
5635 899
5635 3459
5636 900
5636 3460
5637 901
5637 3461
5638 902
5638 3462
5639 903
5639 3463
5640 904
5640 3464
5641 905
5641 3465
5642 906
5642 3466
5643 907
5643 3467
5644 908
5644 3468
5645 909
5645 3469
5646 910
5646 3470
5647 911
5647 3471
5648 912
5648 3472
5649 913
5649 3473
5650 914
5650 3474
5651 915
5651 3475
5652 916
5652 3476
5653 917
5653 3477
5654 918
5654 3478
5655 919
5655 3479
5656 920
5656 3480
5657 921
5657 3481
5658 922
5658 3482
5659 923
5659 3483
5660 924
5660 3484
5661 925
5661 3485
5662 926
5662 3486
5663 927
5663 3487
5664 928
5664 3488
5665 929
5665 3489
5666 930
5666 3490
5667 931
5667 3491
5668 932
5668 3492
5669 933
5669 3493
5670 934
5670 3494
5671 935
5671 3495
5672 936
5672 3496
5673 937
5673 3497
5674 938
5674 3498
5675 939
5675 3499
5676 940
5676 3500
5677 941
5677 3501
5678 942
5678 3502
5679 943
5679 3503
5680 944
5680 3504
5681 945
5681 3505
5682 946
5682 3506
5683 947
5683 3507
5684 948
5684 3508
5685 949
5685 3509
5686 950
5686 3510
5687 951
5687 3511
5688 952
5688 3512
5689 953
5689 3513
5690 954
5690 3514
5691 955
5691 3515
5692 956
5692 3516
5693 957
5693 3517
5694 958
5694 3518
5695 959
5695 3519
5696 960
5696 3520
5697 961
5697 3521
5698 962
5698 3522
5699 963
5699 3523
5700 964
5700 3524
5701 965
5701 3525
5702 966
5702 3526
5703 967
5703 3527
5704 968
5704 3528
5705 969
5705 3529
5706 970
5706 3530
5707 971
5707 3531
5708 972
5708 3532
5709 973
5709 3533
5710 974
5710 3534
5711 975
5711 3535
5712 976
5712 3536
5713 977
5713 3537
5714 978
5714 3538
5715 979
5715 3539
5716 980
5716 3540
5717 981
5717 3541
5718 982
5718 3542
5719 983
5719 3543
5720 984
5720 3544
5721 985
5721 3545
5722 986
5722 3546
5723 987
5723 3547
5724 988
5724 3548
5725 989
5725 3549
5726 990
5726 3550
5727 991
5727 3551
5728 992
5728 3552
5729 993
5729 3553
5730 994
5730 3554
5731 995
5731 3555
5732 996
5732 3556
5733 997
5733 3557
5734 998
5734 3558
5735 999
5735 3559
5736 1000
5736 3560
5737 1001
5737 3561
5738 1002
5738 3562
5739 1003
5739 3563
5740 1004
5740 3564
5741 1005
5741 3565
5742 1006
5742 3566
5743 1007
5743 3567
5744 1008
5744 3568
5745 1009
5745 3569
5746 1010
5746 3570
5747 1011
5747 3571
5748 1012
5748 3572
5749 1013
5749 3573
5750 1014
5750 3574
5751 1015
5751 3575
5752 1016
5752 3576
5753 1017
5753 3577
5754 1018
5754 3578
5755 1019
5755 3579
5756 1020
5756 3580
5757 1021
5757 3581
5758 1022
5758 3582
5759 1023
5759 3583
5760 896
5760 4224
5761 897
5761 4225
5762 898
5762 4226
5763 899
5763 4227
5764 900
5764 4228
5765 901
5765 4229
5766 902
5766 4230
5767 903
5767 4231
5768 904
5768 4232
5769 905
5769 4233
5770 906
5770 4234
5771 907
5771 4235
5772 908
5772 4236
5773 909
5773 4237
5774 910
5774 4238
5775 911
5775 4239
5776 912
5776 4240
5777 913
5777 4241
5778 914
5778 4242
5779 915
5779 4243
5780 916
5780 4244
5781 917
5781 4245
5782 918
5782 4246
5783 919
5783 4247
5784 920
5784 4248
5785 921
5785 4249
5786 922
5786 4250
5787 923
5787 4251
5788 924
5788 4252
5789 925
5789 4253
5790 926
5790 4254
5791 927
5791 4255
5792 928
5792 4256
5793 929
5793 4257
5794 930
5794 4258
5795 931
5795 4259
5796 932
5796 4260
5797 933
5797 4261
5798 934
5798 4262
5799 935
5799 4263
5800 936
5800 4264
5801 937
5801 4265
5802 938
5802 4266
5803 939
5803 4267
5804 940
5804 4268
5805 941
5805 4269
5806 942
5806 4270
5807 943
5807 4271
5808 944
5808 4272
5809 945
5809 4273
5810 946
5810 4274
5811 947
5811 4275
5812 948
5812 4276
5813 949
5813 4277
5814 950
5814 4278
5815 951
5815 4279
5816 952
5816 4280
5817 953
5817 4281
5818 954
5818 4282
5819 955
5819 4283
5820 956
5820 4284
5821 957
5821 4285
5822 958
5822 4286
5823 959
5823 4287
5824 960
5824 4288
5825 961
5825 4289
5826 962
5826 4290
5827 963
5827 4291
5828 964
5828 4292
5829 965
5829 4293
5830 966
5830 4294
5831 967
5831 4295
5832 968
5832 4296
5833 969
5833 4297
5834 970
5834 4298
5835 971
5835 4299
5836 972
5836 4300
5837 973
5837 4301
5838 974
5838 4302
5839 975
5839 4303
5840 976
5840 4304
5841 977
5841 4305
5842 978
5842 4306
5843 979
5843 4307
5844 980
5844 4308
5845 981
5845 4309
5846 982
5846 4310
5847 983
5847 4311
5848 984
5848 4312
5849 985
5849 4313
5850 986
5850 4314
5851 987
5851 4315
5852 988
5852 4316
5853 989
5853 4317
5854 990
5854 4318
5855 991
5855 4319
5856 992
5856 4320
5857 993
5857 4321
5858 994
5858 4322
5859 995
5859 4323
5860 996
5860 4324
5861 997
5861 4325
5862 998
5862 4326
5863 999
5863 4327
5864 1000
5864 4328
5865 1001
5865 4329
5866 1002
5866 4330
5867 1003
5867 4331
5868 1004
5868 4332
5869 1005
5869 4333
5870 1006
5870 4334
5871 1007
5871 4335
5872 1008
5872 4336
5873 1009
5873 4337
5874 1010
5874 4338
5875 1011
5875 4339
5876 1012
5876 4340
5877 1013
5877 4341
5878 1014
5878 4342
5879 1015
5879 4343
5880 1016
5880 4344
5881 1017
5881 4345
5882 1018
5882 4346
5883 1019
5883 4347
5884 1020
5884 4348
5885 1021
5885 4349
5886 1022
5886 4350
5887 1023
5887 4351
5888 896
5888 4992
5889 897
5889 4993
5890 898
5890 4994
5891 899
5891 4995
5892 900
5892 4996
5893 901
5893 4997
5894 902
5894 4998
5895 903
5895 4999
5896 904
5896 5000
5897 905
5897 5001
5898 906
5898 5002
5899 907
5899 5003
5900 908
5900 5004
5901 909
5901 5005
5902 910
5902 5006
5903 911
5903 5007
5904 912
5904 5008
5905 913
5905 5009
5906 914
5906 5010
5907 915
5907 5011
5908 916
5908 5012
5909 917
5909 5013
5910 918
5910 5014
5911 919
5911 5015
5912 920
5912 5016
5913 921
5913 5017
5914 922
5914 5018
5915 923
5915 5019
5916 924
5916 5020
5917 925
5917 5021
5918 926
5918 5022
5919 927
5919 5023
5920 928
5920 5024
5921 929
5921 5025
5922 930
5922 5026
5923 931
5923 5027
5924 932
5924 5028
5925 933
5925 5029
5926 934
5926 5030
5927 935
5927 5031
5928 936
5928 5032
5929 937
5929 5033
5930 938
5930 5034
5931 939
5931 5035
5932 940
5932 5036
5933 941
5933 5037
5934 942
5934 5038
5935 943
5935 5039
5936 944
5936 5040
5937 945
5937 5041
5938 946
5938 5042
5939 947
5939 5043
5940 948
5940 5044
5941 949
5941 5045
5942 950
5942 5046
5943 951
5943 5047
5944 952
5944 5048
5945 953
5945 5049
5946 954
5946 5050
5947 955
5947 5051
5948 956
5948 5052
5949 957
5949 5053
5950 958
5950 5054
5951 959
5951 5055
5952 960
5952 5056
5953 961
5953 5057
5954 962
5954 5058
5955 963
5955 5059
5956 964
5956 5060
5957 965
5957 5061
5958 966
5958 5062
5959 967
5959 5063
5960 968
5960 5064
5961 969
5961 5065
5962 970
5962 5066
5963 971
5963 5067
5964 972
5964 5068
5965 973
5965 5069
5966 974
5966 5070
5967 975
5967 5071
5968 976
5968 5072
5969 977
5969 5073
5970 978
5970 5074
5971 979
5971 5075
5972 980
5972 5076
5973 981
5973 5077
5974 982
5974 5078
5975 983
5975 5079
5976 984
5976 5080
5977 985
5977 5081
5978 986
5978 5082
5979 987
5979 5083
5980 988
5980 5084
5981 989
5981 5085
5982 990
5982 5086
5983 991
5983 5087
5984 992
5984 5088
5985 993
5985 5089
5986 994
5986 5090
5987 995
5987 5091
5988 996
5988 5092
5989 997
5989 5093
5990 998
5990 5094
5991 999
5991 5095
5992 1000
5992 5096
5993 1001
5993 5097
5994 1002
5994 5098
5995 1003
5995 5099
5996 1004
5996 5100
5997 1005
5997 5101
5998 1006
5998 5102
5999 1007
5999 5103
6000 1008
6000 5104
6001 1009
6001 5105
6002 1010
6002 5106
6003 1011
6003 5107
6004 1012
6004 5108
6005 1013
6005 5109
6006 1014
6006 5110
6007 1015
6007 5111
6008 1016
6008 5112
6009 1017
6009 5113
6010 1018
6010 5114
6011 1019
6011 5115
6012 1020
6012 5116
6013 1021
6013 5117
6014 1022
6014 5118
6015 1023
6015 5119
6016 896
6016 5120
6017 897
6017 5121
6018 898
6018 5122
6019 899
6019 5123
6020 900
6020 5124
6021 901
6021 5125
6022 902
6022 5126
6023 903
6023 5127
6024 904
6024 5128
6025 905
6025 5129
6026 906
6026 5130
6027 907
6027 5131
6028 908
6028 5132
6029 909
6029 5133
6030 910
6030 5134
6031 911
6031 5135
6032 912
6032 5136
6033 913
6033 5137
6034 914
6034 5138
6035 915
6035 5139
6036 916
6036 5140
6037 917
6037 5141
6038 918
6038 5142
6039 919
6039 5143
6040 920
6040 5144
6041 921
6041 5145
6042 922
6042 5146
6043 923
6043 5147
6044 924
6044 5148
6045 925
6045 5149
6046 926
6046 5150
6047 927
6047 5151
6048 928
6048 5152
6049 929
6049 5153
6050 930
6050 5154
6051 931
6051 5155
6052 932
6052 5156
6053 933
6053 5157
6054 934
6054 5158
6055 935
6055 5159
6056 936
6056 5160
6057 937
6057 5161
6058 938
6058 5162
6059 939
6059 5163
6060 940
6060 5164
6061 941
6061 5165
6062 942
6062 5166
6063 943
6063 5167
6064 944
6064 5168
6065 945
6065 5169
6066 946
6066 5170
6067 947
6067 5171
6068 948
6068 5172
6069 949
6069 5173
6070 950
6070 5174
6071 951
6071 5175
6072 952
6072 5176
6073 953
6073 5177
6074 954
6074 5178
6075 955
6075 5179
6076 956
6076 5180
6077 957
6077 5181
6078 958
6078 5182
6079 959
6079 5183
6080 960
6080 5184
6081 961
6081 5185
6082 962
6082 5186
6083 963
6083 5187
6084 964
6084 5188
6085 965
6085 5189
6086 966
6086 5190
6087 967
6087 5191
6088 968
6088 5192
6089 969
6089 5193
6090 970
6090 5194
6091 971
6091 5195
6092 972
6092 5196
6093 973
6093 5197
6094 974
6094 5198
6095 975
6095 5199
6096 976
6096 5200
6097 977
6097 5201
6098 978
6098 5202
6099 979
6099 5203
6100 980
6100 5204
6101 981
6101 5205
6102 982
6102 5206
6103 983
6103 5207
6104 984
6104 5208
6105 985
6105 5209
6106 986
6106 5210
6107 987
6107 5211
6108 988
6108 5212
6109 989
6109 5213
6110 990
6110 5214
6111 991
6111 5215
6112 992
6112 5216
6113 993
6113 5217
6114 994
6114 5218
6115 995
6115 5219
6116 996
6116 5220
6117 997
6117 5221
6118 998
6118 5222
6119 999
6119 5223
6120 1000
6120 5224
6121 1001
6121 5225
6122 1002
6122 5226
6123 1003
6123 5227
6124 1004
6124 5228
6125 1005
6125 5229
6126 1006
6126 5230
6127 1007
6127 5231
6128 1008
6128 5232
6129 1009
6129 5233
6130 1010
6130 5234
6131 1011
6131 5235
6132 1012
6132 5236
6133 1013
6133 5237
6134 1014
6134 5238
6135 1015
6135 5239
6136 1016
6136 5240
6137 1017
6137 5241
6138 1018
6138 5242
6139 1019
6139 5243
6140 1020
6140 5244
6141 1021
6141 5245
6142 1022
6142 5246
6143 1023
6143 5247
6144 896
6144 5888
6145 897
6145 5889
6146 898
6146 5890
6147 899
6147 5891
6148 900
6148 5892
6149 901
6149 5893
6150 902
6150 5894
6151 903
6151 5895
6152 904
6152 5896
6153 905
6153 5897
6154 906
6154 5898
6155 907
6155 5899
6156 908
6156 5900
6157 909
6157 5901
6158 910
6158 5902
6159 911
6159 5903
6160 912
6160 5904
6161 913
6161 5905
6162 914
6162 5906
6163 915
6163 5907
6164 916
6164 5908
6165 917
6165 5909
6166 918
6166 5910
6167 919
6167 5911
6168 920
6168 5912
6169 921
6169 5913
6170 922
6170 5914
6171 923
6171 5915
6172 924
6172 5916
6173 925
6173 5917
6174 926
6174 5918
6175 927
6175 5919
6176 928
6176 5920
6177 929
6177 5921
6178 930
6178 5922
6179 931
6179 5923
6180 932
6180 5924
6181 933
6181 5925
6182 934
6182 5926
6183 935
6183 5927
6184 936
6184 5928
6185 937
6185 5929
6186 938
6186 5930
6187 939
6187 5931
6188 940
6188 5932
6189 941
6189 5933
6190 942
6190 5934
6191 943
6191 5935
6192 944
6192 5936
6193 945
6193 5937
6194 946
6194 5938
6195 947
6195 5939
6196 948
6196 5940
6197 949
6197 5941
6198 950
6198 5942
6199 951
6199 5943
6200 952
6200 5944
6201 953
6201 5945
6202 954
6202 5946
6203 955
6203 5947
6204 956
6204 5948
6205 957
6205 5949
6206 958
6206 5950
6207 959
6207 5951
6208 960
6208 5952
6209 961
6209 5953
6210 962
6210 5954
6211 963
6211 5955
6212 964
6212 5956
6213 965
6213 5957
6214 966
6214 5958
6215 967
6215 5959
6216 968
6216 5960
6217 969
6217 5961
6218 970
6218 5962
6219 971
6219 5963
6220 972
6220 5964
6221 973
6221 5965
6222 974
6222 5966
6223 975
6223 5967
6224 976
6224 5968
6225 977
6225 5969
6226 978
6226 5970
6227 979
6227 5971
6228 980
6228 5972
6229 981
6229 5973
6230 982
6230 5974
6231 983
6231 5975
6232 984
6232 5976
6233 985
6233 5977
6234 986
6234 5978
6235 987
6235 5979
6236 988
6236 5980
6237 989
6237 5981
6238 990
6238 5982
6239 991
6239 5983
6240 992
6240 5984
6241 993
6241 5985
6242 994
6242 5986
6243 995
6243 5987
6244 996
6244 5988
6245 997
6245 5989
6246 998
6246 5990
6247 999
6247 5991
6248 1000
6248 5992
6249 1001
6249 5993
6250 1002
6250 5994
6251 1003
6251 5995
6252 1004
6252 5996
6253 1005
6253 5997
6254 1006
6254 5998
6255 1007
6255 5999
6256 1008
6256 6000
6257 1009
6257 6001
6258 1010
6258 6002
6259 1011
6259 6003
6260 1012
6260 6004
6261 1013
6261 6005
6262 1014
6262 6006
6263 1015
6263 6007
6264 1016
6264 6008
6265 1017
6265 6009
6266 1018
6266 6010
6267 1019
6267 6011
6268 1020
6268 6012
6269 1021
6269 6013
6270 1022
6270 6014
6271 1023
6271 6015
6272 1024
6272 1152
6273 1025
6273 1153
6274 1026
6274 1154
6275 1027
6275 1155
6276 1028
6276 1156
6277 1029
6277 1157
6278 1030
6278 1158
6279 1031
6279 1159
6280 1032
6280 1160
6281 1033
6281 1161
6282 1034
6282 1162
6283 1035
6283 1163
6284 1036
6284 1164
6285 1037
6285 1165
6286 1038
6286 1166
6287 1039
6287 1167
6288 1040
6288 1168
6289 1041
6289 1169
6290 1042
6290 1170
6291 1043
6291 1171
6292 1044
6292 1172
6293 1045
6293 1173
6294 1046
6294 1174
6295 1047
6295 1175
6296 1048
6296 1176
6297 1049
6297 1177
6298 1050
6298 1178
6299 1051
6299 1179
6300 1052
6300 1180
6301 1053
6301 1181
6302 1054
6302 1182
6303 1055
6303 1183
6304 1056
6304 1184
6305 1057
6305 1185
6306 1058
6306 1186
6307 1059
6307 1187
6308 1060
6308 1188
6309 1061
6309 1189
6310 1062
6310 1190
6311 1063
6311 1191
6312 1064
6312 1192
6313 1065
6313 1193
6314 1066
6314 1194
6315 1067
6315 1195
6316 1068
6316 1196
6317 1069
6317 1197
6318 1070
6318 1198
6319 1071
6319 1199
6320 1072
6320 1200
6321 1073
6321 1201
6322 1074
6322 1202
6323 1075
6323 1203
6324 1076
6324 1204
6325 1077
6325 1205
6326 1078
6326 1206
6327 1079
6327 1207
6328 1080
6328 1208
6329 1081
6329 1209
6330 1082
6330 1210
6331 1083
6331 1211
6332 1084
6332 1212
6333 1085
6333 1213
6334 1086
6334 1214
6335 1087
6335 1215
6336 1088
6336 1216
6337 1089
6337 1217
6338 1090
6338 1218
6339 1091
6339 1219
6340 1092
6340 1220
6341 1093
6341 1221
6342 1094
6342 1222
6343 1095
6343 1223
6344 1096
6344 1224
6345 1097
6345 1225
6346 1098
6346 1226
6347 1099
6347 1227
6348 1100
6348 1228
6349 1101
6349 1229
6350 1102
6350 1230
6351 1103
6351 1231
6352 1104
6352 1232
6353 1105
6353 1233
6354 1106
6354 1234
6355 1107
6355 1235
6356 1108
6356 1236
6357 1109
6357 1237
6358 1110
6358 1238
6359 1111
6359 1239
6360 1112
6360 1240
6361 1113
6361 1241
6362 1114
6362 1242
6363 1115
6363 1243
6364 1116
6364 1244
6365 1117
6365 1245
6366 1118
6366 1246
6367 1119
6367 1247
6368 1120
6368 1248
6369 1121
6369 1249
6370 1122
6370 1250
6371 1123
6371 1251
6372 1124
6372 1252
6373 1125
6373 1253
6374 1126
6374 1254
6375 1127
6375 1255
6376 1128
6376 1256
6377 1129
6377 1257
6378 1130
6378 1258
6379 1131
6379 1259
6380 1132
6380 1260
6381 1133
6381 1261
6382 1134
6382 1262
6383 1135
6383 1263
6384 1136
6384 1264
6385 1137
6385 1265
6386 1138
6386 1266
6387 1139
6387 1267
6388 1140
6388 1268
6389 1141
6389 1269
6390 1142
6390 1270
6391 1143
6391 1271
6392 1144
6392 1272
6393 1145
6393 1273
6394 1146
6394 1274
6395 1147
6395 1275
6396 1148
6396 1276
6397 1149
6397 1277
6398 1150
6398 1278
6399 1151
6399 1279
6400 1024
6400 3584
6401 1025
6401 3585
6402 1026
6402 3586
6403 1027
6403 3587
6404 1028
6404 3588
6405 1029
6405 3589
6406 1030
6406 3590
6407 1031
6407 3591
6408 1032
6408 3592
6409 1033
6409 3593
6410 1034
6410 3594
6411 1035
6411 3595
6412 1036
6412 3596
6413 1037
6413 3597
6414 1038
6414 3598
6415 1039
6415 3599
6416 1040
6416 3600
6417 1041
6417 3601
6418 1042
6418 3602
6419 1043
6419 3603
6420 1044
6420 3604
6421 1045
6421 3605
6422 1046
6422 3606
6423 1047
6423 3607
6424 1048
6424 3608
6425 1049
6425 3609
6426 1050
6426 3610
6427 1051
6427 3611
6428 1052
6428 3612
6429 1053
6429 3613
6430 1054
6430 3614
6431 1055
6431 3615
6432 1056
6432 3616
6433 1057
6433 3617
6434 1058
6434 3618
6435 1059
6435 3619
6436 1060
6436 3620
6437 1061
6437 3621
6438 1062
6438 3622
6439 1063
6439 3623
6440 1064
6440 3624
6441 1065
6441 3625
6442 1066
6442 3626
6443 1067
6443 3627
6444 1068
6444 3628
6445 1069
6445 3629
6446 1070
6446 3630
6447 1071
6447 3631
6448 1072
6448 3632
6449 1073
6449 3633
6450 1074
6450 3634
6451 1075
6451 3635
6452 1076
6452 3636
6453 1077
6453 3637
6454 1078
6454 3638
6455 1079
6455 3639
6456 1080
6456 3640
6457 1081
6457 3641
6458 1082
6458 3642
6459 1083
6459 3643
6460 1084
6460 3644
6461 1085
6461 3645
6462 1086
6462 3646
6463 1087
6463 3647
6464 1088
6464 3648
6465 1089
6465 3649
6466 1090
6466 3650
6467 1091
6467 3651
6468 1092
6468 3652
6469 1093
6469 3653
6470 1094
6470 3654
6471 1095
6471 3655
6472 1096
6472 3656
6473 1097
6473 3657
6474 1098
6474 3658
6475 1099
6475 3659
6476 1100
6476 3660
6477 1101
6477 3661
6478 1102
6478 3662
6479 1103
6479 3663
6480 1104
6480 3664
6481 1105
6481 3665
6482 1106
6482 3666
6483 1107
6483 3667
6484 1108
6484 3668
6485 1109
6485 3669
6486 1110
6486 3670
6487 1111
6487 3671
6488 1112
6488 3672
6489 1113
6489 3673
6490 1114
6490 3674
6491 1115
6491 3675
6492 1116
6492 3676
6493 1117
6493 3677
6494 1118
6494 3678
6495 1119
6495 3679
6496 1120
6496 3680
6497 1121
6497 3681
6498 1122
6498 3682
6499 1123
6499 3683
6500 1124
6500 3684
6501 1125
6501 3685
6502 1126
6502 3686
6503 1127
6503 3687
6504 1128
6504 3688
6505 1129
6505 3689
6506 1130
6506 3690
6507 1131
6507 3691
6508 1132
6508 3692
6509 1133
6509 3693
6510 1134
6510 3694
6511 1135
6511 3695
6512 1136
6512 3696
6513 1137
6513 3697
6514 1138
6514 3698
6515 1139
6515 3699
6516 1140
6516 3700
6517 1141
6517 3701
6518 1142
6518 3702
6519 1143
6519 3703
6520 1144
6520 3704
6521 1145
6521 3705
6522 1146
6522 3706
6523 1147
6523 3707
6524 1148
6524 3708
6525 1149
6525 3709
6526 1150
6526 3710
6527 1151
6527 3711
6528 1024
6528 4352
6529 1025
6529 4353
6530 1026
6530 4354
6531 1027
6531 4355
6532 1028
6532 4356
6533 1029
6533 4357
6534 1030
6534 4358
6535 1031
6535 4359
6536 1032
6536 4360
6537 1033
6537 4361
6538 1034
6538 4362
6539 1035
6539 4363
6540 1036
6540 4364
6541 1037
6541 4365
6542 1038
6542 4366
6543 1039
6543 4367
6544 1040
6544 4368
6545 1041
6545 4369
6546 1042
6546 4370
6547 1043
6547 4371
6548 1044
6548 4372
6549 1045
6549 4373
6550 1046
6550 4374
6551 1047
6551 4375
6552 1048
6552 4376
6553 1049
6553 4377
6554 1050
6554 4378
6555 1051
6555 4379
6556 1052
6556 4380
6557 1053
6557 4381
6558 1054
6558 4382
6559 1055
6559 4383
6560 1056
6560 4384
6561 1057
6561 4385
6562 1058
6562 4386
6563 1059
6563 4387
6564 1060
6564 4388
6565 1061
6565 4389
6566 1062
6566 4390
6567 1063
6567 4391
6568 1064
6568 4392
6569 1065
6569 4393
6570 1066
6570 4394
6571 1067
6571 4395
6572 1068
6572 4396
6573 1069
6573 4397
6574 1070
6574 4398
6575 1071
6575 4399
6576 1072
6576 4400
6577 1073
6577 4401
6578 1074
6578 4402
6579 1075
6579 4403
6580 1076
6580 4404
6581 1077
6581 4405
6582 1078
6582 4406
6583 1079
6583 4407
6584 1080
6584 4408
6585 1081
6585 4409
6586 1082
6586 4410
6587 1083
6587 4411
6588 1084
6588 4412
6589 1085
6589 4413
6590 1086
6590 4414
6591 1087
6591 4415
6592 1088
6592 4416
6593 1089
6593 4417
6594 1090
6594 4418
6595 1091
6595 4419
6596 1092
6596 4420
6597 1093
6597 4421
6598 1094
6598 4422
6599 1095
6599 4423
6600 1096
6600 4424
6601 1097
6601 4425
6602 1098
6602 4426
6603 1099
6603 4427
6604 1100
6604 4428
6605 1101
6605 4429
6606 1102
6606 4430
6607 1103
6607 4431
6608 1104
6608 4432
6609 1105
6609 4433
6610 1106
6610 4434
6611 1107
6611 4435
6612 1108
6612 4436
6613 1109
6613 4437
6614 1110
6614 4438
6615 1111
6615 4439
6616 1112
6616 4440
6617 1113
6617 4441
6618 1114
6618 4442
6619 1115
6619 4443
6620 1116
6620 4444
6621 1117
6621 4445
6622 1118
6622 4446
6623 1119
6623 4447
6624 1120
6624 4448
6625 1121
6625 4449
6626 1122
6626 4450
6627 1123
6627 4451
6628 1124
6628 4452
6629 1125
6629 4453
6630 1126
6630 4454
6631 1127
6631 4455
6632 1128
6632 4456
6633 1129
6633 4457
6634 1130
6634 4458
6635 1131
6635 4459
6636 1132
6636 4460
6637 1133
6637 4461
6638 1134
6638 4462
6639 1135
6639 4463
6640 1136
6640 4464
6641 1137
6641 4465
6642 1138
6642 4466
6643 1139
6643 4467
6644 1140
6644 4468
6645 1141
6645 4469
6646 1142
6646 4470
6647 1143
6647 4471
6648 1144
6648 4472
6649 1145
6649 4473
6650 1146
6650 4474
6651 1147
6651 4475
6652 1148
6652 4476
6653 1149
6653 4477
6654 1150
6654 4478
6655 1151
6655 4479
6656 1024
6656 4480
6657 1025
6657 4481
6658 1026
6658 4482
6659 1027
6659 4483
6660 1028
6660 4484
6661 1029
6661 4485
6662 1030
6662 4486
6663 1031
6663 4487
6664 1032
6664 4488
6665 1033
6665 4489
6666 1034
6666 4490
6667 1035
6667 4491
6668 1036
6668 4492
6669 1037
6669 4493
6670 1038
6670 4494
6671 1039
6671 4495
6672 1040
6672 4496
6673 1041
6673 4497
6674 1042
6674 4498
6675 1043
6675 4499
6676 1044
6676 4500
6677 1045
6677 4501
6678 1046
6678 4502
6679 1047
6679 4503
6680 1048
6680 4504
6681 1049
6681 4505
6682 1050
6682 4506
6683 1051
6683 4507
6684 1052
6684 4508
6685 1053
6685 4509
6686 1054
6686 4510
6687 1055
6687 4511
6688 1056
6688 4512
6689 1057
6689 4513
6690 1058
6690 4514
6691 1059
6691 4515
6692 1060
6692 4516
6693 1061
6693 4517
6694 1062
6694 4518
6695 1063
6695 4519
6696 1064
6696 4520
6697 1065
6697 4521
6698 1066
6698 4522
6699 1067
6699 4523
6700 1068
6700 4524
6701 1069
6701 4525
6702 1070
6702 4526
6703 1071
6703 4527
6704 1072
6704 4528
6705 1073
6705 4529
6706 1074
6706 4530
6707 1075
6707 4531
6708 1076
6708 4532
6709 1077
6709 4533
6710 1078
6710 4534
6711 1079
6711 4535
6712 1080
6712 4536
6713 1081
6713 4537
6714 1082
6714 4538
6715 1083
6715 4539
6716 1084
6716 4540
6717 1085
6717 4541
6718 1086
6718 4542
6719 1087
6719 4543
6720 1088
6720 4544
6721 1089
6721 4545
6722 1090
6722 4546
6723 1091
6723 4547
6724 1092
6724 4548
6725 1093
6725 4549
6726 1094
6726 4550
6727 1095
6727 4551
6728 1096
6728 4552
6729 1097
6729 4553
6730 1098
6730 4554
6731 1099
6731 4555
6732 1100
6732 4556
6733 1101
6733 4557
6734 1102
6734 4558
6735 1103
6735 4559
6736 1104
6736 4560
6737 1105
6737 4561
6738 1106
6738 4562
6739 1107
6739 4563
6740 1108
6740 4564
6741 1109
6741 4565
6742 1110
6742 4566
6743 1111
6743 4567
6744 1112
6744 4568
6745 1113
6745 4569
6746 1114
6746 4570
6747 1115
6747 4571
6748 1116
6748 4572
6749 1117
6749 4573
6750 1118
6750 4574
6751 1119
6751 4575
6752 1120
6752 4576
6753 1121
6753 4577
6754 1122
6754 4578
6755 1123
6755 4579
6756 1124
6756 4580
6757 1125
6757 4581
6758 1126
6758 4582
6759 1127
6759 4583
6760 1128
6760 4584
6761 1129
6761 4585
6762 1130
6762 4586
6763 1131
6763 4587
6764 1132
6764 4588
6765 1133
6765 4589
6766 1134
6766 4590
6767 1135
6767 4591
6768 1136
6768 4592
6769 1137
6769 4593
6770 1138
6770 4594
6771 1139
6771 4595
6772 1140
6772 4596
6773 1141
6773 4597
6774 1142
6774 4598
6775 1143
6775 4599
6776 1144
6776 4600
6777 1145
6777 4601
6778 1146
6778 4602
6779 1147
6779 4603
6780 1148
6780 4604
6781 1149
6781 4605
6782 1150
6782 4606
6783 1151
6783 4607
6784 1024
6784 5248
6785 1025
6785 5249
6786 1026
6786 5250
6787 1027
6787 5251
6788 1028
6788 5252
6789 1029
6789 5253
6790 1030
6790 5254
6791 1031
6791 5255
6792 1032
6792 5256
6793 1033
6793 5257
6794 1034
6794 5258
6795 1035
6795 5259
6796 1036
6796 5260
6797 1037
6797 5261
6798 1038
6798 5262
6799 1039
6799 5263
6800 1040
6800 5264
6801 1041
6801 5265
6802 1042
6802 5266
6803 1043
6803 5267
6804 1044
6804 5268
6805 1045
6805 5269
6806 1046
6806 5270
6807 1047
6807 5271
6808 1048
6808 5272
6809 1049
6809 5273
6810 1050
6810 5274
6811 1051
6811 5275
6812 1052
6812 5276
6813 1053
6813 5277
6814 1054
6814 5278
6815 1055
6815 5279
6816 1056
6816 5280
6817 1057
6817 5281
6818 1058
6818 5282
6819 1059
6819 5283
6820 1060
6820 5284
6821 1061
6821 5285
6822 1062
6822 5286
6823 1063
6823 5287
6824 1064
6824 5288
6825 1065
6825 5289
6826 1066
6826 5290
6827 1067
6827 5291
6828 1068
6828 5292
6829 1069
6829 5293
6830 1070
6830 5294
6831 1071
6831 5295
6832 1072
6832 5296
6833 1073
6833 5297
6834 1074
6834 5298
6835 1075
6835 5299
6836 1076
6836 5300
6837 1077
6837 5301
6838 1078
6838 5302
6839 1079
6839 5303
6840 1080
6840 5304
6841 1081
6841 5305
6842 1082
6842 5306
6843 1083
6843 5307
6844 1084
6844 5308
6845 1085
6845 5309
6846 1086
6846 5310
6847 1087
6847 5311
6848 1088
6848 5312
6849 1089
6849 5313
6850 1090
6850 5314
6851 1091
6851 5315
6852 1092
6852 5316
6853 1093
6853 5317
6854 1094
6854 5318
6855 1095
6855 5319
6856 1096
6856 5320
6857 1097
6857 5321
6858 1098
6858 5322
6859 1099
6859 5323
6860 1100
6860 5324
6861 1101
6861 5325
6862 1102
6862 5326
6863 1103
6863 5327
6864 1104
6864 5328
6865 1105
6865 5329
6866 1106
6866 5330
6867 1107
6867 5331
6868 1108
6868 5332
6869 1109
6869 5333
6870 1110
6870 5334
6871 1111
6871 5335
6872 1112
6872 5336
6873 1113
6873 5337
6874 1114
6874 5338
6875 1115
6875 5339
6876 1116
6876 5340
6877 1117
6877 5341
6878 1118
6878 5342
6879 1119
6879 5343
6880 1120
6880 5344
6881 1121
6881 5345
6882 1122
6882 5346
6883 1123
6883 5347
6884 1124
6884 5348
6885 1125
6885 5349
6886 1126
6886 5350
6887 1127
6887 5351
6888 1128
6888 5352
6889 1129
6889 5353
6890 1130
6890 5354
6891 1131
6891 5355
6892 1132
6892 5356
6893 1133
6893 5357
6894 1134
6894 5358
6895 1135
6895 5359
6896 1136
6896 5360
6897 1137
6897 5361
6898 1138
6898 5362
6899 1139
6899 5363
6900 1140
6900 5364
6901 1141
6901 5365
6902 1142
6902 5366
6903 1143
6903 5367
6904 1144
6904 5368
6905 1145
6905 5369
6906 1146
6906 5370
6907 1147
6907 5371
6908 1148
6908 5372
6909 1149
6909 5373
6910 1150
6910 5374
6911 1151
6911 5375
6912 1024
6912 6016
6913 1025
6913 6017
6914 1026
6914 6018
6915 1027
6915 6019
6916 1028
6916 6020
6917 1029
6917 6021
6918 1030
6918 6022
6919 1031
6919 6023
6920 1032
6920 6024
6921 1033
6921 6025
6922 1034
6922 6026
6923 1035
6923 6027
6924 1036
6924 6028
6925 1037
6925 6029
6926 1038
6926 6030
6927 1039
6927 6031
6928 1040
6928 6032
6929 1041
6929 6033
6930 1042
6930 6034
6931 1043
6931 6035
6932 1044
6932 6036
6933 1045
6933 6037
6934 1046
6934 6038
6935 1047
6935 6039
6936 1048
6936 6040
6937 1049
6937 6041
6938 1050
6938 6042
6939 1051
6939 6043
6940 1052
6940 6044
6941 1053
6941 6045
6942 1054
6942 6046
6943 1055
6943 6047
6944 1056
6944 6048
6945 1057
6945 6049
6946 1058
6946 6050
6947 1059
6947 6051
6948 1060
6948 6052
6949 1061
6949 6053
6950 1062
6950 6054
6951 1063
6951 6055
6952 1064
6952 6056
6953 1065
6953 6057
6954 1066
6954 6058
6955 1067
6955 6059
6956 1068
6956 6060
6957 1069
6957 6061
6958 1070
6958 6062
6959 1071
6959 6063
6960 1072
6960 6064
6961 1073
6961 6065
6962 1074
6962 6066
6963 1075
6963 6067
6964 1076
6964 6068
6965 1077
6965 6069
6966 1078
6966 6070
6967 1079
6967 6071
6968 1080
6968 6072
6969 1081
6969 6073
6970 1082
6970 6074
6971 1083
6971 6075
6972 1084
6972 6076
6973 1085
6973 6077
6974 1086
6974 6078
6975 1087
6975 6079
6976 1088
6976 6080
6977 1089
6977 6081
6978 1090
6978 6082
6979 1091
6979 6083
6980 1092
6980 6084
6981 1093
6981 6085
6982 1094
6982 6086
6983 1095
6983 6087
6984 1096
6984 6088
6985 1097
6985 6089
6986 1098
6986 6090
6987 1099
6987 6091
6988 1100
6988 6092
6989 1101
6989 6093
6990 1102
6990 6094
6991 1103
6991 6095
6992 1104
6992 6096
6993 1105
6993 6097
6994 1106
6994 6098
6995 1107
6995 6099
6996 1108
6996 6100
6997 1109
6997 6101
6998 1110
6998 6102
6999 1111
6999 6103
7000 1112
7000 6104
7001 1113
7001 6105
7002 1114
7002 6106
7003 1115
7003 6107
7004 1116
7004 6108
7005 1117
7005 6109
7006 1118
7006 6110
7007 1119
7007 6111
7008 1120
7008 6112
7009 1121
7009 6113
7010 1122
7010 6114
7011 1123
7011 6115
7012 1124
7012 6116
7013 1125
7013 6117
7014 1126
7014 6118
7015 1127
7015 6119
7016 1128
7016 6120
7017 1129
7017 6121
7018 1130
7018 6122
7019 1131
7019 6123
7020 1132
7020 6124
7021 1133
7021 6125
7022 1134
7022 6126
7023 1135
7023 6127
7024 1136
7024 6128
7025 1137
7025 6129
7026 1138
7026 6130
7027 1139
7027 6131
7028 1140
7028 6132
7029 1141
7029 6133
7030 1142
7030 6134
7031 1143
7031 6135
7032 1144
7032 6136
7033 1145
7033 6137
7034 1146
7034 6138
7035 1147
7035 6139
7036 1148
7036 6140
7037 1149
7037 6141
7038 1150
7038 6142
7039 1151
7039 6143
7040 1152
7040 3712
7041 1153
7041 3713
7042 1154
7042 3714
7043 1155
7043 3715
7044 1156
7044 3716
7045 1157
7045 3717
7046 1158
7046 3718
7047 1159
7047 3719
7048 1160
7048 3720
7049 1161
7049 3721
7050 1162
7050 3722
7051 1163
7051 3723
7052 1164
7052 3724
7053 1165
7053 3725
7054 1166
7054 3726
7055 1167
7055 3727
7056 1168
7056 3728
7057 1169
7057 3729
7058 1170
7058 3730
7059 1171
7059 3731
7060 1172
7060 3732
7061 1173
7061 3733
7062 1174
7062 3734
7063 1175
7063 3735
7064 1176
7064 3736
7065 1177
7065 3737
7066 1178
7066 3738
7067 1179
7067 3739
7068 1180
7068 3740
7069 1181
7069 3741
7070 1182
7070 3742
7071 1183
7071 3743
7072 1184
7072 3744
7073 1185
7073 3745
7074 1186
7074 3746
7075 1187
7075 3747
7076 1188
7076 3748
7077 1189
7077 3749
7078 1190
7078 3750
7079 1191
7079 3751
7080 1192
7080 3752
7081 1193
7081 3753
7082 1194
7082 3754
7083 1195
7083 3755
7084 1196
7084 3756
7085 1197
7085 3757
7086 1198
7086 3758
7087 1199
7087 3759
7088 1200
7088 3760
7089 1201
7089 3761
7090 1202
7090 3762
7091 1203
7091 3763
7092 1204
7092 3764
7093 1205
7093 3765
7094 1206
7094 3766
7095 1207
7095 3767
7096 1208
7096 3768
7097 1209
7097 3769
7098 1210
7098 3770
7099 1211
7099 3771
7100 1212
7100 3772
7101 1213
7101 3773
7102 1214
7102 3774
7103 1215
7103 3775
7104 1216
7104 3776
7105 1217
7105 3777
7106 1218
7106 3778
7107 1219
7107 3779
7108 1220
7108 3780
7109 1221
7109 3781
7110 1222
7110 3782
7111 1223
7111 3783
7112 1224
7112 3784
7113 1225
7113 3785
7114 1226
7114 3786
7115 1227
7115 3787
7116 1228
7116 3788
7117 1229
7117 3789
7118 1230
7118 3790
7119 1231
7119 3791
7120 1232
7120 3792
7121 1233
7121 3793
7122 1234
7122 3794
7123 1235
7123 3795
7124 1236
7124 3796
7125 1237
7125 3797
7126 1238
7126 3798
7127 1239
7127 3799
7128 1240
7128 3800
7129 1241
7129 3801
7130 1242
7130 3802
7131 1243
7131 3803
7132 1244
7132 3804
7133 1245
7133 3805
7134 1246
7134 3806
7135 1247
7135 3807
7136 1248
7136 3808
7137 1249
7137 3809
7138 1250
7138 3810
7139 1251
7139 3811
7140 1252
7140 3812
7141 1253
7141 3813
7142 1254
7142 3814
7143 1255
7143 3815
7144 1256
7144 3816
7145 1257
7145 3817
7146 1258
7146 3818
7147 1259
7147 3819
7148 1260
7148 3820
7149 1261
7149 3821
7150 1262
7150 3822
7151 1263
7151 3823
7152 1264
7152 3824
7153 1265
7153 3825
7154 1266
7154 3826
7155 1267
7155 3827
7156 1268
7156 3828
7157 1269
7157 3829
7158 1270
7158 3830
7159 1271
7159 3831
7160 1272
7160 3832
7161 1273
7161 3833
7162 1274
7162 3834
7163 1275
7163 3835
7164 1276
7164 3836
7165 1277
7165 3837
7166 1278
7166 3838
7167 1279
7167 3839
7168 1152
7168 3840
7169 1153
7169 3841
7170 1154
7170 3842
7171 1155
7171 3843
7172 1156
7172 3844
7173 1157
7173 3845
7174 1158
7174 3846
7175 1159
7175 3847
7176 1160
7176 3848
7177 1161
7177 3849
7178 1162
7178 3850
7179 1163
7179 3851
7180 1164
7180 3852
7181 1165
7181 3853
7182 1166
7182 3854
7183 1167
7183 3855
7184 1168
7184 3856
7185 1169
7185 3857
7186 1170
7186 3858
7187 1171
7187 3859
7188 1172
7188 3860
7189 1173
7189 3861
7190 1174
7190 3862
7191 1175
7191 3863
7192 1176
7192 3864
7193 1177
7193 3865
7194 1178
7194 3866
7195 1179
7195 3867
7196 1180
7196 3868
7197 1181
7197 3869
7198 1182
7198 3870
7199 1183
7199 3871
7200 1184
7200 3872
7201 1185
7201 3873
7202 1186
7202 3874
7203 1187
7203 3875
7204 1188
7204 3876
7205 1189
7205 3877
7206 1190
7206 3878
7207 1191
7207 3879
7208 1192
7208 3880
7209 1193
7209 3881
7210 1194
7210 3882
7211 1195
7211 3883
7212 1196
7212 3884
7213 1197
7213 3885
7214 1198
7214 3886
7215 1199
7215 3887
7216 1200
7216 3888
7217 1201
7217 3889
7218 1202
7218 3890
7219 1203
7219 3891
7220 1204
7220 3892
7221 1205
7221 3893
7222 1206
7222 3894
7223 1207
7223 3895
7224 1208
7224 3896
7225 1209
7225 3897
7226 1210
7226 3898
7227 1211
7227 3899
7228 1212
7228 3900
7229 1213
7229 3901
7230 1214
7230 3902
7231 1215
7231 3903
7232 1216
7232 3904
7233 1217
7233 3905
7234 1218
7234 3906
7235 1219
7235 3907
7236 1220
7236 3908
7237 1221
7237 3909
7238 1222
7238 3910
7239 1223
7239 3911
7240 1224
7240 3912
7241 1225
7241 3913
7242 1226
7242 3914
7243 1227
7243 3915
7244 1228
7244 3916
7245 1229
7245 3917
7246 1230
7246 3918
7247 1231
7247 3919
7248 1232
7248 3920
7249 1233
7249 3921
7250 1234
7250 3922
7251 1235
7251 3923
7252 1236
7252 3924
7253 1237
7253 3925
7254 1238
7254 3926
7255 1239
7255 3927
7256 1240
7256 3928
7257 1241
7257 3929
7258 1242
7258 3930
7259 1243
7259 3931
7260 1244
7260 3932
7261 1245
7261 3933
7262 1246
7262 3934
7263 1247
7263 3935
7264 1248
7264 3936
7265 1249
7265 3937
7266 1250
7266 3938
7267 1251
7267 3939
7268 1252
7268 3940
7269 1253
7269 3941
7270 1254
7270 3942
7271 1255
7271 3943
7272 1256
7272 3944
7273 1257
7273 3945
7274 1258
7274 3946
7275 1259
7275 3947
7276 1260
7276 3948
7277 1261
7277 3949
7278 1262
7278 3950
7279 1263
7279 3951
7280 1264
7280 3952
7281 1265
7281 3953
7282 1266
7282 3954
7283 1267
7283 3955
7284 1268
7284 3956
7285 1269
7285 3957
7286 1270
7286 3958
7287 1271
7287 3959
7288 1272
7288 3960
7289 1273
7289 3961
7290 1274
7290 3962
7291 1275
7291 3963
7292 1276
7292 3964
7293 1277
7293 3965
7294 1278
7294 3966
7295 1279
7295 3967
7296 1152
7296 4608
7297 1153
7297 4609
7298 1154
7298 4610
7299 1155
7299 4611
7300 1156
7300 4612
7301 1157
7301 4613
7302 1158
7302 4614
7303 1159
7303 4615
7304 1160
7304 4616
7305 1161
7305 4617
7306 1162
7306 4618
7307 1163
7307 4619
7308 1164
7308 4620
7309 1165
7309 4621
7310 1166
7310 4622
7311 1167
7311 4623
7312 1168
7312 4624
7313 1169
7313 4625
7314 1170
7314 4626
7315 1171
7315 4627
7316 1172
7316 4628
7317 1173
7317 4629
7318 1174
7318 4630
7319 1175
7319 4631
7320 1176
7320 4632
7321 1177
7321 4633
7322 1178
7322 4634
7323 1179
7323 4635
7324 1180
7324 4636
7325 1181
7325 4637
7326 1182
7326 4638
7327 1183
7327 4639
7328 1184
7328 4640
7329 1185
7329 4641
7330 1186
7330 4642
7331 1187
7331 4643
7332 1188
7332 4644
7333 1189
7333 4645
7334 1190
7334 4646
7335 1191
7335 4647
7336 1192
7336 4648
7337 1193
7337 4649
7338 1194
7338 4650
7339 1195
7339 4651
7340 1196
7340 4652
7341 1197
7341 4653
7342 1198
7342 4654
7343 1199
7343 4655
7344 1200
7344 4656
7345 1201
7345 4657
7346 1202
7346 4658
7347 1203
7347 4659
7348 1204
7348 4660
7349 1205
7349 4661
7350 1206
7350 4662
7351 1207
7351 4663
7352 1208
7352 4664
7353 1209
7353 4665
7354 1210
7354 4666
7355 1211
7355 4667
7356 1212
7356 4668
7357 1213
7357 4669
7358 1214
7358 4670
7359 1215
7359 4671
7360 1216
7360 4672
7361 1217
7361 4673
7362 1218
7362 4674
7363 1219
7363 4675
7364 1220
7364 4676
7365 1221
7365 4677
7366 1222
7366 4678
7367 1223
7367 4679
7368 1224
7368 4680
7369 1225
7369 4681
7370 1226
7370 4682
7371 1227
7371 4683
7372 1228
7372 4684
7373 1229
7373 4685
7374 1230
7374 4686
7375 1231
7375 4687
7376 1232
7376 4688
7377 1233
7377 4689
7378 1234
7378 4690
7379 1235
7379 4691
7380 1236
7380 4692
7381 1237
7381 4693
7382 1238
7382 4694
7383 1239
7383 4695
7384 1240
7384 4696
7385 1241
7385 4697
7386 1242
7386 4698
7387 1243
7387 4699
7388 1244
7388 4700
7389 1245
7389 4701
7390 1246
7390 4702
7391 1247
7391 4703
7392 1248
7392 4704
7393 1249
7393 4705
7394 1250
7394 4706
7395 1251
7395 4707
7396 1252
7396 4708
7397 1253
7397 4709
7398 1254
7398 4710
7399 1255
7399 4711
7400 1256
7400 4712
7401 1257
7401 4713
7402 1258
7402 4714
7403 1259
7403 4715
7404 1260
7404 4716
7405 1261
7405 4717
7406 1262
7406 4718
7407 1263
7407 4719
7408 1264
7408 4720
7409 1265
7409 4721
7410 1266
7410 4722
7411 1267
7411 4723
7412 1268
7412 4724
7413 1269
7413 4725
7414 1270
7414 4726
7415 1271
7415 4727
7416 1272
7416 4728
7417 1273
7417 4729
7418 1274
7418 4730
7419 1275
7419 4731
7420 1276
7420 4732
7421 1277
7421 4733
7422 1278
7422 4734
7423 1279
7423 4735
7424 1152
7424 5376
7425 1153
7425 5377
7426 1154
7426 5378
7427 1155
7427 5379
7428 1156
7428 5380
7429 1157
7429 5381
7430 1158
7430 5382
7431 1159
7431 5383
7432 1160
7432 5384
7433 1161
7433 5385
7434 1162
7434 5386
7435 1163
7435 5387
7436 1164
7436 5388
7437 1165
7437 5389
7438 1166
7438 5390
7439 1167
7439 5391
7440 1168
7440 5392
7441 1169
7441 5393
7442 1170
7442 5394
7443 1171
7443 5395
7444 1172
7444 5396
7445 1173
7445 5397
7446 1174
7446 5398
7447 1175
7447 5399
7448 1176
7448 5400
7449 1177
7449 5401
7450 1178
7450 5402
7451 1179
7451 5403
7452 1180
7452 5404
7453 1181
7453 5405
7454 1182
7454 5406
7455 1183
7455 5407
7456 1184
7456 5408
7457 1185
7457 5409
7458 1186
7458 5410
7459 1187
7459 5411
7460 1188
7460 5412
7461 1189
7461 5413
7462 1190
7462 5414
7463 1191
7463 5415
7464 1192
7464 5416
7465 1193
7465 5417
7466 1194
7466 5418
7467 1195
7467 5419
7468 1196
7468 5420
7469 1197
7469 5421
7470 1198
7470 5422
7471 1199
7471 5423
7472 1200
7472 5424
7473 1201
7473 5425
7474 1202
7474 5426
7475 1203
7475 5427
7476 1204
7476 5428
7477 1205
7477 5429
7478 1206
7478 5430
7479 1207
7479 5431
7480 1208
7480 5432
7481 1209
7481 5433
7482 1210
7482 5434
7483 1211
7483 5435
7484 1212
7484 5436
7485 1213
7485 5437
7486 1214
7486 5438
7487 1215
7487 5439
7488 1216
7488 5440
7489 1217
7489 5441
7490 1218
7490 5442
7491 1219
7491 5443
7492 1220
7492 5444
7493 1221
7493 5445
7494 1222
7494 5446
7495 1223
7495 5447
7496 1224
7496 5448
7497 1225
7497 5449
7498 1226
7498 5450
7499 1227
7499 5451
7500 1228
7500 5452
7501 1229
7501 5453
7502 1230
7502 5454
7503 1231
7503 5455
7504 1232
7504 5456
7505 1233
7505 5457
7506 1234
7506 5458
7507 1235
7507 5459
7508 1236
7508 5460
7509 1237
7509 5461
7510 1238
7510 5462
7511 1239
7511 5463
7512 1240
7512 5464
7513 1241
7513 5465
7514 1242
7514 5466
7515 1243
7515 5467
7516 1244
7516 5468
7517 1245
7517 5469
7518 1246
7518 5470
7519 1247
7519 5471
7520 1248
7520 5472
7521 1249
7521 5473
7522 1250
7522 5474
7523 1251
7523 5475
7524 1252
7524 5476
7525 1253
7525 5477
7526 1254
7526 5478
7527 1255
7527 5479
7528 1256
7528 5480
7529 1257
7529 5481
7530 1258
7530 5482
7531 1259
7531 5483
7532 1260
7532 5484
7533 1261
7533 5485
7534 1262
7534 5486
7535 1263
7535 5487
7536 1264
7536 5488
7537 1265
7537 5489
7538 1266
7538 5490
7539 1267
7539 5491
7540 1268
7540 5492
7541 1269
7541 5493
7542 1270
7542 5494
7543 1271
7543 5495
7544 1272
7544 5496
7545 1273
7545 5497
7546 1274
7546 5498
7547 1275
7547 5499
7548 1276
7548 5500
7549 1277
7549 5501
7550 1278
7550 5502
7551 1279
7551 5503
7552 1152
7552 6144
7553 1153
7553 6145
7554 1154
7554 6146
7555 1155
7555 6147
7556 1156
7556 6148
7557 1157
7557 6149
7558 1158
7558 6150
7559 1159
7559 6151
7560 1160
7560 6152
7561 1161
7561 6153
7562 1162
7562 6154
7563 1163
7563 6155
7564 1164
7564 6156
7565 1165
7565 6157
7566 1166
7566 6158
7567 1167
7567 6159
7568 1168
7568 6160
7569 1169
7569 6161
7570 1170
7570 6162
7571 1171
7571 6163
7572 1172
7572 6164
7573 1173
7573 6165
7574 1174
7574 6166
7575 1175
7575 6167
7576 1176
7576 6168
7577 1177
7577 6169
7578 1178
7578 6170
7579 1179
7579 6171
7580 1180
7580 6172
7581 1181
7581 6173
7582 1182
7582 6174
7583 1183
7583 6175
7584 1184
7584 6176
7585 1185
7585 6177
7586 1186
7586 6178
7587 1187
7587 6179
7588 1188
7588 6180
7589 1189
7589 6181
7590 1190
7590 6182
7591 1191
7591 6183
7592 1192
7592 6184
7593 1193
7593 6185
7594 1194
7594 6186
7595 1195
7595 6187
7596 1196
7596 6188
7597 1197
7597 6189
7598 1198
7598 6190
7599 1199
7599 6191
7600 1200
7600 6192
7601 1201
7601 6193
7602 1202
7602 6194
7603 1203
7603 6195
7604 1204
7604 6196
7605 1205
7605 6197
7606 1206
7606 6198
7607 1207
7607 6199
7608 1208
7608 6200
7609 1209
7609 6201
7610 1210
7610 6202
7611 1211
7611 6203
7612 1212
7612 6204
7613 1213
7613 6205
7614 1214
7614 6206
7615 1215
7615 6207
7616 1216
7616 6208
7617 1217
7617 6209
7618 1218
7618 6210
7619 1219
7619 6211
7620 1220
7620 6212
7621 1221
7621 6213
7622 1222
7622 6214
7623 1223
7623 6215
7624 1224
7624 6216
7625 1225
7625 6217
7626 1226
7626 6218
7627 1227
7627 6219
7628 1228
7628 6220
7629 1229
7629 6221
7630 1230
7630 6222
7631 1231
7631 6223
7632 1232
7632 6224
7633 1233
7633 6225
7634 1234
7634 6226
7635 1235
7635 6227
7636 1236
7636 6228
7637 1237
7637 6229
7638 1238
7638 6230
7639 1239
7639 6231
7640 1240
7640 6232
7641 1241
7641 6233
7642 1242
7642 6234
7643 1243
7643 6235
7644 1244
7644 6236
7645 1245
7645 6237
7646 1246
7646 6238
7647 1247
7647 6239
7648 1248
7648 6240
7649 1249
7649 6241
7650 1250
7650 6242
7651 1251
7651 6243
7652 1252
7652 6244
7653 1253
7653 6245
7654 1254
7654 6246
7655 1255
7655 6247
7656 1256
7656 6248
7657 1257
7657 6249
7658 1258
7658 6250
7659 1259
7659 6251
7660 1260
7660 6252
7661 1261
7661 6253
7662 1262
7662 6254
7663 1263
7663 6255
7664 1264
7664 6256
7665 1265
7665 6257
7666 1266
7666 6258
7667 1267
7667 6259
7668 1268
7668 6260
7669 1269
7669 6261
7670 1270
7670 6262
7671 1271
7671 6263
7672 1272
7672 6264
7673 1273
7673 6265
7674 1274
7674 6266
7675 1275
7675 6267
7676 1276
7676 6268
7677 1277
7677 6269
7678 1278
7678 6270
7679 1279
7679 6271
7680 1280
7680 1408
7681 1281
7681 1409
7682 1282
7682 1410
7683 1283
7683 1411
7684 1284
7684 1412
7685 1285
7685 1413
7686 1286
7686 1414
7687 1287
7687 1415
7688 1288
7688 1416
7689 1289
7689 1417
7690 1290
7690 1418
7691 1291
7691 1419
7692 1292
7692 1420
7693 1293
7693 1421
7694 1294
7694 1422
7695 1295
7695 1423
7696 1296
7696 1424
7697 1297
7697 1425
7698 1298
7698 1426
7699 1299
7699 1427
7700 1300
7700 1428
7701 1301
7701 1429
7702 1302
7702 1430
7703 1303
7703 1431
7704 1304
7704 1432
7705 1305
7705 1433
7706 1306
7706 1434
7707 1307
7707 1435
7708 1308
7708 1436
7709 1309
7709 1437
7710 1310
7710 1438
7711 1311
7711 1439
7712 1312
7712 1440
7713 1313
7713 1441
7714 1314
7714 1442
7715 1315
7715 1443
7716 1316
7716 1444
7717 1317
7717 1445
7718 1318
7718 1446
7719 1319
7719 1447
7720 1320
7720 1448
7721 1321
7721 1449
7722 1322
7722 1450
7723 1323
7723 1451
7724 1324
7724 1452
7725 1325
7725 1453
7726 1326
7726 1454
7727 1327
7727 1455
7728 1328
7728 1456
7729 1329
7729 1457
7730 1330
7730 1458
7731 1331
7731 1459
7732 1332
7732 1460
7733 1333
7733 1461
7734 1334
7734 1462
7735 1335
7735 1463
7736 1336
7736 1464
7737 1337
7737 1465
7738 1338
7738 1466
7739 1339
7739 1467
7740 1340
7740 1468
7741 1341
7741 1469
7742 1342
7742 1470
7743 1343
7743 1471
7744 1344
7744 1472
7745 1345
7745 1473
7746 1346
7746 1474
7747 1347
7747 1475
7748 1348
7748 1476
7749 1349
7749 1477
7750 1350
7750 1478
7751 1351
7751 1479
7752 1352
7752 1480
7753 1353
7753 1481
7754 1354
7754 1482
7755 1355
7755 1483
7756 1356
7756 1484
7757 1357
7757 1485
7758 1358
7758 1486
7759 1359
7759 1487
7760 1360
7760 1488
7761 1361
7761 1489
7762 1362
7762 1490
7763 1363
7763 1491
7764 1364
7764 1492
7765 1365
7765 1493
7766 1366
7766 1494
7767 1367
7767 1495
7768 1368
7768 1496
7769 1369
7769 1497
7770 1370
7770 1498
7771 1371
7771 1499
7772 1372
7772 1500
7773 1373
7773 1501
7774 1374
7774 1502
7775 1375
7775 1503
7776 1376
7776 1504
7777 1377
7777 1505
7778 1378
7778 1506
7779 1379
7779 1507
7780 1380
7780 1508
7781 1381
7781 1509
7782 1382
7782 1510
7783 1383
7783 1511
7784 1384
7784 1512
7785 1385
7785 1513
7786 1386
7786 1514
7787 1387
7787 1515
7788 1388
7788 1516
7789 1389
7789 1517
7790 1390
7790 1518
7791 1391
7791 1519
7792 1392
7792 1520
7793 1393
7793 1521
7794 1394
7794 1522
7795 1395
7795 1523
7796 1396
7796 1524
7797 1397
7797 1525
7798 1398
7798 1526
7799 1399
7799 1527
7800 1400
7800 1528
7801 1401
7801 1529
7802 1402
7802 1530
7803 1403
7803 1531
7804 1404
7804 1532
7805 1405
7805 1533
7806 1406
7806 1534
7807 1407
7807 1535
7808 1280
7808 1792
7809 1281
7809 1793
7810 1282
7810 1794
7811 1283
7811 1795
7812 1284
7812 1796
7813 1285
7813 1797
7814 1286
7814 1798
7815 1287
7815 1799
7816 1288
7816 1800
7817 1289
7817 1801
7818 1290
7818 1802
7819 1291
7819 1803
7820 1292
7820 1804
7821 1293
7821 1805
7822 1294
7822 1806
7823 1295
7823 1807
7824 1296
7824 1808
7825 1297
7825 1809
7826 1298
7826 1810
7827 1299
7827 1811
7828 1300
7828 1812
7829 1301
7829 1813
7830 1302
7830 1814
7831 1303
7831 1815
7832 1304
7832 1816
7833 1305
7833 1817
7834 1306
7834 1818
7835 1307
7835 1819
7836 1308
7836 1820
7837 1309
7837 1821
7838 1310
7838 1822
7839 1311
7839 1823
7840 1312
7840 1824
7841 1313
7841 1825
7842 1314
7842 1826
7843 1315
7843 1827
7844 1316
7844 1828
7845 1317
7845 1829
7846 1318
7846 1830
7847 1319
7847 1831
7848 1320
7848 1832
7849 1321
7849 1833
7850 1322
7850 1834
7851 1323
7851 1835
7852 1324
7852 1836
7853 1325
7853 1837
7854 1326
7854 1838
7855 1327
7855 1839
7856 1328
7856 1840
7857 1329
7857 1841
7858 1330
7858 1842
7859 1331
7859 1843
7860 1332
7860 1844
7861 1333
7861 1845
7862 1334
7862 1846
7863 1335
7863 1847
7864 1336
7864 1848
7865 1337
7865 1849
7866 1338
7866 1850
7867 1339
7867 1851
7868 1340
7868 1852
7869 1341
7869 1853
7870 1342
7870 1854
7871 1343
7871 1855
7872 1344
7872 1856
7873 1345
7873 1857
7874 1346
7874 1858
7875 1347
7875 1859
7876 1348
7876 1860
7877 1349
7877 1861
7878 1350
7878 1862
7879 1351
7879 1863
7880 1352
7880 1864
7881 1353
7881 1865
7882 1354
7882 1866
7883 1355
7883 1867
7884 1356
7884 1868
7885 1357
7885 1869
7886 1358
7886 1870
7887 1359
7887 1871
7888 1360
7888 1872
7889 1361
7889 1873
7890 1362
7890 1874
7891 1363
7891 1875
7892 1364
7892 1876
7893 1365
7893 1877
7894 1366
7894 1878
7895 1367
7895 1879
7896 1368
7896 1880
7897 1369
7897 1881
7898 1370
7898 1882
7899 1371
7899 1883
7900 1372
7900 1884
7901 1373
7901 1885
7902 1374
7902 1886
7903 1375
7903 1887
7904 1376
7904 1888
7905 1377
7905 1889
7906 1378
7906 1890
7907 1379
7907 1891
7908 1380
7908 1892
7909 1381
7909 1893
7910 1382
7910 1894
7911 1383
7911 1895
7912 1384
7912 1896
7913 1385
7913 1897
7914 1386
7914 1898
7915 1387
7915 1899
7916 1388
7916 1900
7917 1389
7917 1901
7918 1390
7918 1902
7919 1391
7919 1903
7920 1392
7920 1904
7921 1393
7921 1905
7922 1394
7922 1906
7923 1395
7923 1907
7924 1396
7924 1908
7925 1397
7925 1909
7926 1398
7926 1910
7927 1399
7927 1911
7928 1400
7928 1912
7929 1401
7929 1913
7930 1402
7930 1914
7931 1403
7931 1915
7932 1404
7932 1916
7933 1405
7933 1917
7934 1406
7934 1918
7935 1407
7935 1919
7936 1280
7936 3200
7937 1281
7937 3201
7938 1282
7938 3202
7939 1283
7939 3203
7940 1284
7940 3204
7941 1285
7941 3205
7942 1286
7942 3206
7943 1287
7943 3207
7944 1288
7944 3208
7945 1289
7945 3209
7946 1290
7946 3210
7947 1291
7947 3211
7948 1292
7948 3212
7949 1293
7949 3213
7950 1294
7950 3214
7951 1295
7951 3215
7952 1296
7952 3216
7953 1297
7953 3217
7954 1298
7954 3218
7955 1299
7955 3219
7956 1300
7956 3220
7957 1301
7957 3221
7958 1302
7958 3222
7959 1303
7959 3223
7960 1304
7960 3224
7961 1305
7961 3225
7962 1306
7962 3226
7963 1307
7963 3227
7964 1308
7964 3228
7965 1309
7965 3229
7966 1310
7966 3230
7967 1311
7967 3231
7968 1312
7968 3232
7969 1313
7969 3233
7970 1314
7970 3234
7971 1315
7971 3235
7972 1316
7972 3236
7973 1317
7973 3237
7974 1318
7974 3238
7975 1319
7975 3239
7976 1320
7976 3240
7977 1321
7977 3241
7978 1322
7978 3242
7979 1323
7979 3243
7980 1324
7980 3244
7981 1325
7981 3245
7982 1326
7982 3246
7983 1327
7983 3247
7984 1328
7984 3248
7985 1329
7985 3249
7986 1330
7986 3250
7987 1331
7987 3251
7988 1332
7988 3252
7989 1333
7989 3253
7990 1334
7990 3254
7991 1335
7991 3255
7992 1336
7992 3256
7993 1337
7993 3257
7994 1338
7994 3258
7995 1339
7995 3259
7996 1340
7996 3260
7997 1341
7997 3261
7998 1342
7998 3262
7999 1343
7999 3263
8000 1344
8000 3264
8001 1345
8001 3265
8002 1346
8002 3266
8003 1347
8003 3267
8004 1348
8004 3268
8005 1349
8005 3269
8006 1350
8006 3270
8007 1351
8007 3271
8008 1352
8008 3272
8009 1353
8009 3273
8010 1354
8010 3274
8011 1355
8011 3275
8012 1356
8012 3276
8013 1357
8013 3277
8014 1358
8014 3278
8015 1359
8015 3279
8016 1360
8016 3280
8017 1361
8017 3281
8018 1362
8018 3282
8019 1363
8019 3283
8020 1364
8020 3284
8021 1365
8021 3285
8022 1366
8022 3286
8023 1367
8023 3287
8024 1368
8024 3288
8025 1369
8025 3289
8026 1370
8026 3290
8027 1371
8027 3291
8028 1372
8028 3292
8029 1373
8029 3293
8030 1374
8030 3294
8031 1375
8031 3295
8032 1376
8032 3296
8033 1377
8033 3297
8034 1378
8034 3298
8035 1379
8035 3299
8036 1380
8036 3300
8037 1381
8037 3301
8038 1382
8038 3302
8039 1383
8039 3303
8040 1384
8040 3304
8041 1385
8041 3305
8042 1386
8042 3306
8043 1387
8043 3307
8044 1388
8044 3308
8045 1389
8045 3309
8046 1390
8046 3310
8047 1391
8047 3311
8048 1392
8048 3312
8049 1393
8049 3313
8050 1394
8050 3314
8051 1395
8051 3315
8052 1396
8052 3316
8053 1397
8053 3317
8054 1398
8054 3318
8055 1399
8055 3319
8056 1400
8056 3320
8057 1401
8057 3321
8058 1402
8058 3322
8059 1403
8059 3323
8060 1404
8060 3324
8061 1405
8061 3325
8062 1406
8062 3326
8063 1407
8063 3327
8064 1280
8064 4096
8065 1281
8065 4097
8066 1282
8066 4098
8067 1283
8067 4099
8068 1284
8068 4100
8069 1285
8069 4101
8070 1286
8070 4102
8071 1287
8071 4103
8072 1288
8072 4104
8073 1289
8073 4105
8074 1290
8074 4106
8075 1291
8075 4107
8076 1292
8076 4108
8077 1293
8077 4109
8078 1294
8078 4110
8079 1295
8079 4111
8080 1296
8080 4112
8081 1297
8081 4113
8082 1298
8082 4114
8083 1299
8083 4115
8084 1300
8084 4116
8085 1301
8085 4117
8086 1302
8086 4118
8087 1303
8087 4119
8088 1304
8088 4120
8089 1305
8089 4121
8090 1306
8090 4122
8091 1307
8091 4123
8092 1308
8092 4124
8093 1309
8093 4125
8094 1310
8094 4126
8095 1311
8095 4127
8096 1312
8096 4128
8097 1313
8097 4129
8098 1314
8098 4130
8099 1315
8099 4131
8100 1316
8100 4132
8101 1317
8101 4133
8102 1318
8102 4134
8103 1319
8103 4135
8104 1320
8104 4136
8105 1321
8105 4137
8106 1322
8106 4138
8107 1323
8107 4139
8108 1324
8108 4140
8109 1325
8109 4141
8110 1326
8110 4142
8111 1327
8111 4143
8112 1328
8112 4144
8113 1329
8113 4145
8114 1330
8114 4146
8115 1331
8115 4147
8116 1332
8116 4148
8117 1333
8117 4149
8118 1334
8118 4150
8119 1335
8119 4151
8120 1336
8120 4152
8121 1337
8121 4153
8122 1338
8122 4154
8123 1339
8123 4155
8124 1340
8124 4156
8125 1341
8125 4157
8126 1342
8126 4158
8127 1343
8127 4159
8128 1344
8128 4160
8129 1345
8129 4161
8130 1346
8130 4162
8131 1347
8131 4163
8132 1348
8132 4164
8133 1349
8133 4165
8134 1350
8134 4166
8135 1351
8135 4167
8136 1352
8136 4168
8137 1353
8137 4169
8138 1354
8138 4170
8139 1355
8139 4171
8140 1356
8140 4172
8141 1357
8141 4173
8142 1358
8142 4174
8143 1359
8143 4175
8144 1360
8144 4176
8145 1361
8145 4177
8146 1362
8146 4178
8147 1363
8147 4179
8148 1364
8148 4180
8149 1365
8149 4181
8150 1366
8150 4182
8151 1367
8151 4183
8152 1368
8152 4184
8153 1369
8153 4185
8154 1370
8154 4186
8155 1371
8155 4187
8156 1372
8156 4188
8157 1373
8157 4189
8158 1374
8158 4190
8159 1375
8159 4191
8160 1376
8160 4192
8161 1377
8161 4193
8162 1378
8162 4194
8163 1379
8163 4195
8164 1380
8164 4196
8165 1381
8165 4197
8166 1382
8166 4198
8167 1383
8167 4199
8168 1384
8168 4200
8169 1385
8169 4201
8170 1386
8170 4202
8171 1387
8171 4203
8172 1388
8172 4204
8173 1389
8173 4205
8174 1390
8174 4206
8175 1391
8175 4207
8176 1392
8176 4208
8177 1393
8177 4209
8178 1394
8178 4210
8179 1395
8179 4211
8180 1396
8180 4212
8181 1397
8181 4213
8182 1398
8182 4214
8183 1399
8183 4215
8184 1400
8184 4216
8185 1401
8185 4217
8186 1402
8186 4218
8187 1403
8187 4219
8188 1404
8188 4220
8189 1405
8189 4221
8190 1406
8190 4222
8191 1407
8191 4223
8192 1280
8192 4992
8193 1281
8193 4993
8194 1282
8194 4994
8195 1283
8195 4995
8196 1284
8196 4996
8197 1285
8197 4997
8198 1286
8198 4998
8199 1287
8199 4999
8200 1288
8200 5000
8201 1289
8201 5001
8202 1290
8202 5002
8203 1291
8203 5003
8204 1292
8204 5004
8205 1293
8205 5005
8206 1294
8206 5006
8207 1295
8207 5007
8208 1296
8208 5008
8209 1297
8209 5009
8210 1298
8210 5010
8211 1299
8211 5011
8212 1300
8212 5012
8213 1301
8213 5013
8214 1302
8214 5014
8215 1303
8215 5015
8216 1304
8216 5016
8217 1305
8217 5017
8218 1306
8218 5018
8219 1307
8219 5019
8220 1308
8220 5020
8221 1309
8221 5021
8222 1310
8222 5022
8223 1311
8223 5023
8224 1312
8224 5024
8225 1313
8225 5025
8226 1314
8226 5026
8227 1315
8227 5027
8228 1316
8228 5028
8229 1317
8229 5029
8230 1318
8230 5030
8231 1319
8231 5031
8232 1320
8232 5032
8233 1321
8233 5033
8234 1322
8234 5034
8235 1323
8235 5035
8236 1324
8236 5036
8237 1325
8237 5037
8238 1326
8238 5038
8239 1327
8239 5039
8240 1328
8240 5040
8241 1329
8241 5041
8242 1330
8242 5042
8243 1331
8243 5043
8244 1332
8244 5044
8245 1333
8245 5045
8246 1334
8246 5046
8247 1335
8247 5047
8248 1336
8248 5048
8249 1337
8249 5049
8250 1338
8250 5050
8251 1339
8251 5051
8252 1340
8252 5052
8253 1341
8253 5053
8254 1342
8254 5054
8255 1343
8255 5055
8256 1344
8256 5056
8257 1345
8257 5057
8258 1346
8258 5058
8259 1347
8259 5059
8260 1348
8260 5060
8261 1349
8261 5061
8262 1350
8262 5062
8263 1351
8263 5063
8264 1352
8264 5064
8265 1353
8265 5065
8266 1354
8266 5066
8267 1355
8267 5067
8268 1356
8268 5068
8269 1357
8269 5069
8270 1358
8270 5070
8271 1359
8271 5071
8272 1360
8272 5072
8273 1361
8273 5073
8274 1362
8274 5074
8275 1363
8275 5075
8276 1364
8276 5076
8277 1365
8277 5077
8278 1366
8278 5078
8279 1367
8279 5079
8280 1368
8280 5080
8281 1369
8281 5081
8282 1370
8282 5082
8283 1371
8283 5083
8284 1372
8284 5084
8285 1373
8285 5085
8286 1374
8286 5086
8287 1375
8287 5087
8288 1376
8288 5088
8289 1377
8289 5089
8290 1378
8290 5090
8291 1379
8291 5091
8292 1380
8292 5092
8293 1381
8293 5093
8294 1382
8294 5094
8295 1383
8295 5095
8296 1384
8296 5096
8297 1385
8297 5097
8298 1386
8298 5098
8299 1387
8299 5099
8300 1388
8300 5100
8301 1389
8301 5101
8302 1390
8302 5102
8303 1391
8303 5103
8304 1392
8304 5104
8305 1393
8305 5105
8306 1394
8306 5106
8307 1395
8307 5107
8308 1396
8308 5108
8309 1397
8309 5109
8310 1398
8310 5110
8311 1399
8311 5111
8312 1400
8312 5112
8313 1401
8313 5113
8314 1402
8314 5114
8315 1403
8315 5115
8316 1404
8316 5116
8317 1405
8317 5117
8318 1406
8318 5118
8319 1407
8319 5119
8320 1280
8320 5248
8321 1281
8321 5249
8322 1282
8322 5250
8323 1283
8323 5251
8324 1284
8324 5252
8325 1285
8325 5253
8326 1286
8326 5254
8327 1287
8327 5255
8328 1288
8328 5256
8329 1289
8329 5257
8330 1290
8330 5258
8331 1291
8331 5259
8332 1292
8332 5260
8333 1293
8333 5261
8334 1294
8334 5262
8335 1295
8335 5263
8336 1296
8336 5264
8337 1297
8337 5265
8338 1298
8338 5266
8339 1299
8339 5267
8340 1300
8340 5268
8341 1301
8341 5269
8342 1302
8342 5270
8343 1303
8343 5271
8344 1304
8344 5272
8345 1305
8345 5273
8346 1306
8346 5274
8347 1307
8347 5275
8348 1308
8348 5276
8349 1309
8349 5277
8350 1310
8350 5278
8351 1311
8351 5279
8352 1312
8352 5280
8353 1313
8353 5281
8354 1314
8354 5282
8355 1315
8355 5283
8356 1316
8356 5284
8357 1317
8357 5285
8358 1318
8358 5286
8359 1319
8359 5287
8360 1320
8360 5288
8361 1321
8361 5289
8362 1322
8362 5290
8363 1323
8363 5291
8364 1324
8364 5292
8365 1325
8365 5293
8366 1326
8366 5294
8367 1327
8367 5295
8368 1328
8368 5296
8369 1329
8369 5297
8370 1330
8370 5298
8371 1331
8371 5299
8372 1332
8372 5300
8373 1333
8373 5301
8374 1334
8374 5302
8375 1335
8375 5303
8376 1336
8376 5304
8377 1337
8377 5305
8378 1338
8378 5306
8379 1339
8379 5307
8380 1340
8380 5308
8381 1341
8381 5309
8382 1342
8382 5310
8383 1343
8383 5311
8384 1344
8384 5312
8385 1345
8385 5313
8386 1346
8386 5314
8387 1347
8387 5315
8388 1348
8388 5316
8389 1349
8389 5317
8390 1350
8390 5318
8391 1351
8391 5319
8392 1352
8392 5320
8393 1353
8393 5321
8394 1354
8394 5322
8395 1355
8395 5323
8396 1356
8396 5324
8397 1357
8397 5325
8398 1358
8398 5326
8399 1359
8399 5327
8400 1360
8400 5328
8401 1361
8401 5329
8402 1362
8402 5330
8403 1363
8403 5331
8404 1364
8404 5332
8405 1365
8405 5333
8406 1366
8406 5334
8407 1367
8407 5335
8408 1368
8408 5336
8409 1369
8409 5337
8410 1370
8410 5338
8411 1371
8411 5339
8412 1372
8412 5340
8413 1373
8413 5341
8414 1374
8414 5342
8415 1375
8415 5343
8416 1376
8416 5344
8417 1377
8417 5345
8418 1378
8418 5346
8419 1379
8419 5347
8420 1380
8420 5348
8421 1381
8421 5349
8422 1382
8422 5350
8423 1383
8423 5351
8424 1384
8424 5352
8425 1385
8425 5353
8426 1386
8426 5354
8427 1387
8427 5355
8428 1388
8428 5356
8429 1389
8429 5357
8430 1390
8430 5358
8431 1391
8431 5359
8432 1392
8432 5360
8433 1393
8433 5361
8434 1394
8434 5362
8435 1395
8435 5363
8436 1396
8436 5364
8437 1397
8437 5365
8438 1398
8438 5366
8439 1399
8439 5367
8440 1400
8440 5368
8441 1401
8441 5369
8442 1402
8442 5370
8443 1403
8443 5371
8444 1404
8444 5372
8445 1405
8445 5373
8446 1406
8446 5374
8447 1407
8447 5375
8448 1280
8448 6144
8449 1281
8449 6145
8450 1282
8450 6146
8451 1283
8451 6147
8452 1284
8452 6148
8453 1285
8453 6149
8454 1286
8454 6150
8455 1287
8455 6151
8456 1288
8456 6152
8457 1289
8457 6153
8458 1290
8458 6154
8459 1291
8459 6155
8460 1292
8460 6156
8461 1293
8461 6157
8462 1294
8462 6158
8463 1295
8463 6159
8464 1296
8464 6160
8465 1297
8465 6161
8466 1298
8466 6162
8467 1299
8467 6163
8468 1300
8468 6164
8469 1301
8469 6165
8470 1302
8470 6166
8471 1303
8471 6167
8472 1304
8472 6168
8473 1305
8473 6169
8474 1306
8474 6170
8475 1307
8475 6171
8476 1308
8476 6172
8477 1309
8477 6173
8478 1310
8478 6174
8479 1311
8479 6175
8480 1312
8480 6176
8481 1313
8481 6177
8482 1314
8482 6178
8483 1315
8483 6179
8484 1316
8484 6180
8485 1317
8485 6181
8486 1318
8486 6182
8487 1319
8487 6183
8488 1320
8488 6184
8489 1321
8489 6185
8490 1322
8490 6186
8491 1323
8491 6187
8492 1324
8492 6188
8493 1325
8493 6189
8494 1326
8494 6190
8495 1327
8495 6191
8496 1328
8496 6192
8497 1329
8497 6193
8498 1330
8498 6194
8499 1331
8499 6195
8500 1332
8500 6196
8501 1333
8501 6197
8502 1334
8502 6198
8503 1335
8503 6199
8504 1336
8504 6200
8505 1337
8505 6201
8506 1338
8506 6202
8507 1339
8507 6203
8508 1340
8508 6204
8509 1341
8509 6205
8510 1342
8510 6206
8511 1343
8511 6207
8512 1344
8512 6208
8513 1345
8513 6209
8514 1346
8514 6210
8515 1347
8515 6211
8516 1348
8516 6212
8517 1349
8517 6213
8518 1350
8518 6214
8519 1351
8519 6215
8520 1352
8520 6216
8521 1353
8521 6217
8522 1354
8522 6218
8523 1355
8523 6219
8524 1356
8524 6220
8525 1357
8525 6221
8526 1358
8526 6222
8527 1359
8527 6223
8528 1360
8528 6224
8529 1361
8529 6225
8530 1362
8530 6226
8531 1363
8531 6227
8532 1364
8532 6228
8533 1365
8533 6229
8534 1366
8534 6230
8535 1367
8535 6231
8536 1368
8536 6232
8537 1369
8537 6233
8538 1370
8538 6234
8539 1371
8539 6235
8540 1372
8540 6236
8541 1373
8541 6237
8542 1374
8542 6238
8543 1375
8543 6239
8544 1376
8544 6240
8545 1377
8545 6241
8546 1378
8546 6242
8547 1379
8547 6243
8548 1380
8548 6244
8549 1381
8549 6245
8550 1382
8550 6246
8551 1383
8551 6247
8552 1384
8552 6248
8553 1385
8553 6249
8554 1386
8554 6250
8555 1387
8555 6251
8556 1388
8556 6252
8557 1389
8557 6253
8558 1390
8558 6254
8559 1391
8559 6255
8560 1392
8560 6256
8561 1393
8561 6257
8562 1394
8562 6258
8563 1395
8563 6259
8564 1396
8564 6260
8565 1397
8565 6261
8566 1398
8566 6262
8567 1399
8567 6263
8568 1400
8568 6264
8569 1401
8569 6265
8570 1402
8570 6266
8571 1403
8571 6267
8572 1404
8572 6268
8573 1405
8573 6269
8574 1406
8574 6270
8575 1407
8575 6271
8576 1408
8576 1536
8577 1409
8577 1537
8578 1410
8578 1538
8579 1411
8579 1539
8580 1412
8580 1540
8581 1413
8581 1541
8582 1414
8582 1542
8583 1415
8583 1543
8584 1416
8584 1544
8585 1417
8585 1545
8586 1418
8586 1546
8587 1419
8587 1547
8588 1420
8588 1548
8589 1421
8589 1549
8590 1422
8590 1550
8591 1423
8591 1551
8592 1424
8592 1552
8593 1425
8593 1553
8594 1426
8594 1554
8595 1427
8595 1555
8596 1428
8596 1556
8597 1429
8597 1557
8598 1430
8598 1558
8599 1431
8599 1559
8600 1432
8600 1560
8601 1433
8601 1561
8602 1434
8602 1562
8603 1435
8603 1563
8604 1436
8604 1564
8605 1437
8605 1565
8606 1438
8606 1566
8607 1439
8607 1567
8608 1440
8608 1568
8609 1441
8609 1569
8610 1442
8610 1570
8611 1443
8611 1571
8612 1444
8612 1572
8613 1445
8613 1573
8614 1446
8614 1574
8615 1447
8615 1575
8616 1448
8616 1576
8617 1449
8617 1577
8618 1450
8618 1578
8619 1451
8619 1579
8620 1452
8620 1580
8621 1453
8621 1581
8622 1454
8622 1582
8623 1455
8623 1583
8624 1456
8624 1584
8625 1457
8625 1585
8626 1458
8626 1586
8627 1459
8627 1587
8628 1460
8628 1588
8629 1461
8629 1589
8630 1462
8630 1590
8631 1463
8631 1591
8632 1464
8632 1592
8633 1465
8633 1593
8634 1466
8634 1594
8635 1467
8635 1595
8636 1468
8636 1596
8637 1469
8637 1597
8638 1470
8638 1598
8639 1471
8639 1599
8640 1472
8640 1600
8641 1473
8641 1601
8642 1474
8642 1602
8643 1475
8643 1603
8644 1476
8644 1604
8645 1477
8645 1605
8646 1478
8646 1606
8647 1479
8647 1607
8648 1480
8648 1608
8649 1481
8649 1609
8650 1482
8650 1610
8651 1483
8651 1611
8652 1484
8652 1612
8653 1485
8653 1613
8654 1486
8654 1614
8655 1487
8655 1615
8656 1488
8656 1616
8657 1489
8657 1617
8658 1490
8658 1618
8659 1491
8659 1619
8660 1492
8660 1620
8661 1493
8661 1621
8662 1494
8662 1622
8663 1495
8663 1623
8664 1496
8664 1624
8665 1497
8665 1625
8666 1498
8666 1626
8667 1499
8667 1627
8668 1500
8668 1628
8669 1501
8669 1629
8670 1502
8670 1630
8671 1503
8671 1631
8672 1504
8672 1632
8673 1505
8673 1633
8674 1506
8674 1634
8675 1507
8675 1635
8676 1508
8676 1636
8677 1509
8677 1637
8678 1510
8678 1638
8679 1511
8679 1639
8680 1512
8680 1640
8681 1513
8681 1641
8682 1514
8682 1642
8683 1515
8683 1643
8684 1516
8684 1644
8685 1517
8685 1645
8686 1518
8686 1646
8687 1519
8687 1647
8688 1520
8688 1648
8689 1521
8689 1649
8690 1522
8690 1650
8691 1523
8691 1651
8692 1524
8692 1652
8693 1525
8693 1653
8694 1526
8694 1654
8695 1527
8695 1655
8696 1528
8696 1656
8697 1529
8697 1657
8698 1530
8698 1658
8699 1531
8699 1659
8700 1532
8700 1660
8701 1533
8701 1661
8702 1534
8702 1662
8703 1535
8703 1663
8704 1408
8704 3328
8705 1409
8705 3329
8706 1410
8706 3330
8707 1411
8707 3331
8708 1412
8708 3332
8709 1413
8709 3333
8710 1414
8710 3334
8711 1415
8711 3335
8712 1416
8712 3336
8713 1417
8713 3337
8714 1418
8714 3338
8715 1419
8715 3339
8716 1420
8716 3340
8717 1421
8717 3341
8718 1422
8718 3342
8719 1423
8719 3343
8720 1424
8720 3344
8721 1425
8721 3345
8722 1426
8722 3346
8723 1427
8723 3347
8724 1428
8724 3348
8725 1429
8725 3349
8726 1430
8726 3350
8727 1431
8727 3351
8728 1432
8728 3352
8729 1433
8729 3353
8730 1434
8730 3354
8731 1435
8731 3355
8732 1436
8732 3356
8733 1437
8733 3357
8734 1438
8734 3358
8735 1439
8735 3359
8736 1440
8736 3360
8737 1441
8737 3361
8738 1442
8738 3362
8739 1443
8739 3363
8740 1444
8740 3364
8741 1445
8741 3365
8742 1446
8742 3366
8743 1447
8743 3367
8744 1448
8744 3368
8745 1449
8745 3369
8746 1450
8746 3370
8747 1451
8747 3371
8748 1452
8748 3372
8749 1453
8749 3373
8750 1454
8750 3374
8751 1455
8751 3375
8752 1456
8752 3376
8753 1457
8753 3377
8754 1458
8754 3378
8755 1459
8755 3379
8756 1460
8756 3380
8757 1461
8757 3381
8758 1462
8758 3382
8759 1463
8759 3383
8760 1464
8760 3384
8761 1465
8761 3385
8762 1466
8762 3386
8763 1467
8763 3387
8764 1468
8764 3388
8765 1469
8765 3389
8766 1470
8766 3390
8767 1471
8767 3391
8768 1472
8768 3392
8769 1473
8769 3393
8770 1474
8770 3394
8771 1475
8771 3395
8772 1476
8772 3396
8773 1477
8773 3397
8774 1478
8774 3398
8775 1479
8775 3399
8776 1480
8776 3400
8777 1481
8777 3401
8778 1482
8778 3402
8779 1483
8779 3403
8780 1484
8780 3404
8781 1485
8781 3405
8782 1486
8782 3406
8783 1487
8783 3407
8784 1488
8784 3408
8785 1489
8785 3409
8786 1490
8786 3410
8787 1491
8787 3411
8788 1492
8788 3412
8789 1493
8789 3413
8790 1494
8790 3414
8791 1495
8791 3415
8792 1496
8792 3416
8793 1497
8793 3417
8794 1498
8794 3418
8795 1499
8795 3419
8796 1500
8796 3420
8797 1501
8797 3421
8798 1502
8798 3422
8799 1503
8799 3423
8800 1504
8800 3424
8801 1505
8801 3425
8802 1506
8802 3426
8803 1507
8803 3427
8804 1508
8804 3428
8805 1509
8805 3429
8806 1510
8806 3430
8807 1511
8807 3431
8808 1512
8808 3432
8809 1513
8809 3433
8810 1514
8810 3434
8811 1515
8811 3435
8812 1516
8812 3436
8813 1517
8813 3437
8814 1518
8814 3438
8815 1519
8815 3439
8816 1520
8816 3440
8817 1521
8817 3441
8818 1522
8818 3442
8819 1523
8819 3443
8820 1524
8820 3444
8821 1525
8821 3445
8822 1526
8822 3446
8823 1527
8823 3447
8824 1528
8824 3448
8825 1529
8825 3449
8826 1530
8826 3450
8827 1531
8827 3451
8828 1532
8828 3452
8829 1533
8829 3453
8830 1534
8830 3454
8831 1535
8831 3455
8832 1408
8832 4224
8833 1409
8833 4225
8834 1410
8834 4226
8835 1411
8835 4227
8836 1412
8836 4228
8837 1413
8837 4229
8838 1414
8838 4230
8839 1415
8839 4231
8840 1416
8840 4232
8841 1417
8841 4233
8842 1418
8842 4234
8843 1419
8843 4235
8844 1420
8844 4236
8845 1421
8845 4237
8846 1422
8846 4238
8847 1423
8847 4239
8848 1424
8848 4240
8849 1425
8849 4241
8850 1426
8850 4242
8851 1427
8851 4243
8852 1428
8852 4244
8853 1429
8853 4245
8854 1430
8854 4246
8855 1431
8855 4247
8856 1432
8856 4248
8857 1433
8857 4249
8858 1434
8858 4250
8859 1435
8859 4251
8860 1436
8860 4252
8861 1437
8861 4253
8862 1438
8862 4254
8863 1439
8863 4255
8864 1440
8864 4256
8865 1441
8865 4257
8866 1442
8866 4258
8867 1443
8867 4259
8868 1444
8868 4260
8869 1445
8869 4261
8870 1446
8870 4262
8871 1447
8871 4263
8872 1448
8872 4264
8873 1449
8873 4265
8874 1450
8874 4266
8875 1451
8875 4267
8876 1452
8876 4268
8877 1453
8877 4269
8878 1454
8878 4270
8879 1455
8879 4271
8880 1456
8880 4272
8881 1457
8881 4273
8882 1458
8882 4274
8883 1459
8883 4275
8884 1460
8884 4276
8885 1461
8885 4277
8886 1462
8886 4278
8887 1463
8887 4279
8888 1464
8888 4280
8889 1465
8889 4281
8890 1466
8890 4282
8891 1467
8891 4283
8892 1468
8892 4284
8893 1469
8893 4285
8894 1470
8894 4286
8895 1471
8895 4287
8896 1472
8896 4288
8897 1473
8897 4289
8898 1474
8898 4290
8899 1475
8899 4291
8900 1476
8900 4292
8901 1477
8901 4293
8902 1478
8902 4294
8903 1479
8903 4295
8904 1480
8904 4296
8905 1481
8905 4297
8906 1482
8906 4298
8907 1483
8907 4299
8908 1484
8908 4300
8909 1485
8909 4301
8910 1486
8910 4302
8911 1487
8911 4303
8912 1488
8912 4304
8913 1489
8913 4305
8914 1490
8914 4306
8915 1491
8915 4307
8916 1492
8916 4308
8917 1493
8917 4309
8918 1494
8918 4310
8919 1495
8919 4311
8920 1496
8920 4312
8921 1497
8921 4313
8922 1498
8922 4314
8923 1499
8923 4315
8924 1500
8924 4316
8925 1501
8925 4317
8926 1502
8926 4318
8927 1503
8927 4319
8928 1504
8928 4320
8929 1505
8929 4321
8930 1506
8930 4322
8931 1507
8931 4323
8932 1508
8932 4324
8933 1509
8933 4325
8934 1510
8934 4326
8935 1511
8935 4327
8936 1512
8936 4328
8937 1513
8937 4329
8938 1514
8938 4330
8939 1515
8939 4331
8940 1516
8940 4332
8941 1517
8941 4333
8942 1518
8942 4334
8943 1519
8943 4335
8944 1520
8944 4336
8945 1521
8945 4337
8946 1522
8946 4338
8947 1523
8947 4339
8948 1524
8948 4340
8949 1525
8949 4341
8950 1526
8950 4342
8951 1527
8951 4343
8952 1528
8952 4344
8953 1529
8953 4345
8954 1530
8954 4346
8955 1531
8955 4347
8956 1532
8956 4348
8957 1533
8957 4349
8958 1534
8958 4350
8959 1535
8959 4351
8960 1408
8960 4480
8961 1409
8961 4481
8962 1410
8962 4482
8963 1411
8963 4483
8964 1412
8964 4484
8965 1413
8965 4485
8966 1414
8966 4486
8967 1415
8967 4487
8968 1416
8968 4488
8969 1417
8969 4489
8970 1418
8970 4490
8971 1419
8971 4491
8972 1420
8972 4492
8973 1421
8973 4493
8974 1422
8974 4494
8975 1423
8975 4495
8976 1424
8976 4496
8977 1425
8977 4497
8978 1426
8978 4498
8979 1427
8979 4499
8980 1428
8980 4500
8981 1429
8981 4501
8982 1430
8982 4502
8983 1431
8983 4503
8984 1432
8984 4504
8985 1433
8985 4505
8986 1434
8986 4506
8987 1435
8987 4507
8988 1436
8988 4508
8989 1437
8989 4509
8990 1438
8990 4510
8991 1439
8991 4511
8992 1440
8992 4512
8993 1441
8993 4513
8994 1442
8994 4514
8995 1443
8995 4515
8996 1444
8996 4516
8997 1445
8997 4517
8998 1446
8998 4518
8999 1447
8999 4519
9000 1448
9000 4520
9001 1449
9001 4521
9002 1450
9002 4522
9003 1451
9003 4523
9004 1452
9004 4524
9005 1453
9005 4525
9006 1454
9006 4526
9007 1455
9007 4527
9008 1456
9008 4528
9009 1457
9009 4529
9010 1458
9010 4530
9011 1459
9011 4531
9012 1460
9012 4532
9013 1461
9013 4533
9014 1462
9014 4534
9015 1463
9015 4535
9016 1464
9016 4536
9017 1465
9017 4537
9018 1466
9018 4538
9019 1467
9019 4539
9020 1468
9020 4540
9021 1469
9021 4541
9022 1470
9022 4542
9023 1471
9023 4543
9024 1472
9024 4544
9025 1473
9025 4545
9026 1474
9026 4546
9027 1475
9027 4547
9028 1476
9028 4548
9029 1477
9029 4549
9030 1478
9030 4550
9031 1479
9031 4551
9032 1480
9032 4552
9033 1481
9033 4553
9034 1482
9034 4554
9035 1483
9035 4555
9036 1484
9036 4556
9037 1485
9037 4557
9038 1486
9038 4558
9039 1487
9039 4559
9040 1488
9040 4560
9041 1489
9041 4561
9042 1490
9042 4562
9043 1491
9043 4563
9044 1492
9044 4564
9045 1493
9045 4565
9046 1494
9046 4566
9047 1495
9047 4567
9048 1496
9048 4568
9049 1497
9049 4569
9050 1498
9050 4570
9051 1499
9051 4571
9052 1500
9052 4572
9053 1501
9053 4573
9054 1502
9054 4574
9055 1503
9055 4575
9056 1504
9056 4576
9057 1505
9057 4577
9058 1506
9058 4578
9059 1507
9059 4579
9060 1508
9060 4580
9061 1509
9061 4581
9062 1510
9062 4582
9063 1511
9063 4583
9064 1512
9064 4584
9065 1513
9065 4585
9066 1514
9066 4586
9067 1515
9067 4587
9068 1516
9068 4588
9069 1517
9069 4589
9070 1518
9070 4590
9071 1519
9071 4591
9072 1520
9072 4592
9073 1521
9073 4593
9074 1522
9074 4594
9075 1523
9075 4595
9076 1524
9076 4596
9077 1525
9077 4597
9078 1526
9078 4598
9079 1527
9079 4599
9080 1528
9080 4600
9081 1529
9081 4601
9082 1530
9082 4602
9083 1531
9083 4603
9084 1532
9084 4604
9085 1533
9085 4605
9086 1534
9086 4606
9087 1535
9087 4607
9088 1408
9088 5376
9089 1409
9089 5377
9090 1410
9090 5378
9091 1411
9091 5379
9092 1412
9092 5380
9093 1413
9093 5381
9094 1414
9094 5382
9095 1415
9095 5383
9096 1416
9096 5384
9097 1417
9097 5385
9098 1418
9098 5386
9099 1419
9099 5387
9100 1420
9100 5388
9101 1421
9101 5389
9102 1422
9102 5390
9103 1423
9103 5391
9104 1424
9104 5392
9105 1425
9105 5393
9106 1426
9106 5394
9107 1427
9107 5395
9108 1428
9108 5396
9109 1429
9109 5397
9110 1430
9110 5398
9111 1431
9111 5399
9112 1432
9112 5400
9113 1433
9113 5401
9114 1434
9114 5402
9115 1435
9115 5403
9116 1436
9116 5404
9117 1437
9117 5405
9118 1438
9118 5406
9119 1439
9119 5407
9120 1440
9120 5408
9121 1441
9121 5409
9122 1442
9122 5410
9123 1443
9123 5411
9124 1444
9124 5412
9125 1445
9125 5413
9126 1446
9126 5414
9127 1447
9127 5415
9128 1448
9128 5416
9129 1449
9129 5417
9130 1450
9130 5418
9131 1451
9131 5419
9132 1452
9132 5420
9133 1453
9133 5421
9134 1454
9134 5422
9135 1455
9135 5423
9136 1456
9136 5424
9137 1457
9137 5425
9138 1458
9138 5426
9139 1459
9139 5427
9140 1460
9140 5428
9141 1461
9141 5429
9142 1462
9142 5430
9143 1463
9143 5431
9144 1464
9144 5432
9145 1465
9145 5433
9146 1466
9146 5434
9147 1467
9147 5435
9148 1468
9148 5436
9149 1469
9149 5437
9150 1470
9150 5438
9151 1471
9151 5439
9152 1472
9152 5440
9153 1473
9153 5441
9154 1474
9154 5442
9155 1475
9155 5443
9156 1476
9156 5444
9157 1477
9157 5445
9158 1478
9158 5446
9159 1479
9159 5447
9160 1480
9160 5448
9161 1481
9161 5449
9162 1482
9162 5450
9163 1483
9163 5451
9164 1484
9164 5452
9165 1485
9165 5453
9166 1486
9166 5454
9167 1487
9167 5455
9168 1488
9168 5456
9169 1489
9169 5457
9170 1490
9170 5458
9171 1491
9171 5459
9172 1492
9172 5460
9173 1493
9173 5461
9174 1494
9174 5462
9175 1495
9175 5463
9176 1496
9176 5464
9177 1497
9177 5465
9178 1498
9178 5466
9179 1499
9179 5467
9180 1500
9180 5468
9181 1501
9181 5469
9182 1502
9182 5470
9183 1503
9183 5471
9184 1504
9184 5472
9185 1505
9185 5473
9186 1506
9186 5474
9187 1507
9187 5475
9188 1508
9188 5476
9189 1509
9189 5477
9190 1510
9190 5478
9191 1511
9191 5479
9192 1512
9192 5480
9193 1513
9193 5481
9194 1514
9194 5482
9195 1515
9195 5483
9196 1516
9196 5484
9197 1517
9197 5485
9198 1518
9198 5486
9199 1519
9199 5487
9200 1520
9200 5488
9201 1521
9201 5489
9202 1522
9202 5490
9203 1523
9203 5491
9204 1524
9204 5492
9205 1525
9205 5493
9206 1526
9206 5494
9207 1527
9207 5495
9208 1528
9208 5496
9209 1529
9209 5497
9210 1530
9210 5498
9211 1531
9211 5499
9212 1532
9212 5500
9213 1533
9213 5501
9214 1534
9214 5502
9215 1535
9215 5503
9216 1408
9216 6272
9217 1409
9217 6273
9218 1410
9218 6274
9219 1411
9219 6275
9220 1412
9220 6276
9221 1413
9221 6277
9222 1414
9222 6278
9223 1415
9223 6279
9224 1416
9224 6280
9225 1417
9225 6281
9226 1418
9226 6282
9227 1419
9227 6283
9228 1420
9228 6284
9229 1421
9229 6285
9230 1422
9230 6286
9231 1423
9231 6287
9232 1424
9232 6288
9233 1425
9233 6289
9234 1426
9234 6290
9235 1427
9235 6291
9236 1428
9236 6292
9237 1429
9237 6293
9238 1430
9238 6294
9239 1431
9239 6295
9240 1432
9240 6296
9241 1433
9241 6297
9242 1434
9242 6298
9243 1435
9243 6299
9244 1436
9244 6300
9245 1437
9245 6301
9246 1438
9246 6302
9247 1439
9247 6303
9248 1440
9248 6304
9249 1441
9249 6305
9250 1442
9250 6306
9251 1443
9251 6307
9252 1444
9252 6308
9253 1445
9253 6309
9254 1446
9254 6310
9255 1447
9255 6311
9256 1448
9256 6312
9257 1449
9257 6313
9258 1450
9258 6314
9259 1451
9259 6315
9260 1452
9260 6316
9261 1453
9261 6317
9262 1454
9262 6318
9263 1455
9263 6319
9264 1456
9264 6320
9265 1457
9265 6321
9266 1458
9266 6322
9267 1459
9267 6323
9268 1460
9268 6324
9269 1461
9269 6325
9270 1462
9270 6326
9271 1463
9271 6327
9272 1464
9272 6328
9273 1465
9273 6329
9274 1466
9274 6330
9275 1467
9275 6331
9276 1468
9276 6332
9277 1469
9277 6333
9278 1470
9278 6334
9279 1471
9279 6335
9280 1472
9280 6336
9281 1473
9281 6337
9282 1474
9282 6338
9283 1475
9283 6339
9284 1476
9284 6340
9285 1477
9285 6341
9286 1478
9286 6342
9287 1479
9287 6343
9288 1480
9288 6344
9289 1481
9289 6345
9290 1482
9290 6346
9291 1483
9291 6347
9292 1484
9292 6348
9293 1485
9293 6349
9294 1486
9294 6350
9295 1487
9295 6351
9296 1488
9296 6352
9297 1489
9297 6353
9298 1490
9298 6354
9299 1491
9299 6355
9300 1492
9300 6356
9301 1493
9301 6357
9302 1494
9302 6358
9303 1495
9303 6359
9304 1496
9304 6360
9305 1497
9305 6361
9306 1498
9306 6362
9307 1499
9307 6363
9308 1500
9308 6364
9309 1501
9309 6365
9310 1502
9310 6366
9311 1503
9311 6367
9312 1504
9312 6368
9313 1505
9313 6369
9314 1506
9314 6370
9315 1507
9315 6371
9316 1508
9316 6372
9317 1509
9317 6373
9318 1510
9318 6374
9319 1511
9319 6375
9320 1512
9320 6376
9321 1513
9321 6377
9322 1514
9322 6378
9323 1515
9323 6379
9324 1516
9324 6380
9325 1517
9325 6381
9326 1518
9326 6382
9327 1519
9327 6383
9328 1520
9328 6384
9329 1521
9329 6385
9330 1522
9330 6386
9331 1523
9331 6387
9332 1524
9332 6388
9333 1525
9333 6389
9334 1526
9334 6390
9335 1527
9335 6391
9336 1528
9336 6392
9337 1529
9337 6393
9338 1530
9338 6394
9339 1531
9339 6395
9340 1532
9340 6396
9341 1533
9341 6397
9342 1534
9342 6398
9343 1535
9343 6399
9344 1536
9344 1664
9345 1537
9345 1665
9346 1538
9346 1666
9347 1539
9347 1667
9348 1540
9348 1668
9349 1541
9349 1669
9350 1542
9350 1670
9351 1543
9351 1671
9352 1544
9352 1672
9353 1545
9353 1673
9354 1546
9354 1674
9355 1547
9355 1675
9356 1548
9356 1676
9357 1549
9357 1677
9358 1550
9358 1678
9359 1551
9359 1679
9360 1552
9360 1680
9361 1553
9361 1681
9362 1554
9362 1682
9363 1555
9363 1683
9364 1556
9364 1684
9365 1557
9365 1685
9366 1558
9366 1686
9367 1559
9367 1687
9368 1560
9368 1688
9369 1561
9369 1689
9370 1562
9370 1690
9371 1563
9371 1691
9372 1564
9372 1692
9373 1565
9373 1693
9374 1566
9374 1694
9375 1567
9375 1695
9376 1568
9376 1696
9377 1569
9377 1697
9378 1570
9378 1698
9379 1571
9379 1699
9380 1572
9380 1700
9381 1573
9381 1701
9382 1574
9382 1702
9383 1575
9383 1703
9384 1576
9384 1704
9385 1577
9385 1705
9386 1578
9386 1706
9387 1579
9387 1707
9388 1580
9388 1708
9389 1581
9389 1709
9390 1582
9390 1710
9391 1583
9391 1711
9392 1584
9392 1712
9393 1585
9393 1713
9394 1586
9394 1714
9395 1587
9395 1715
9396 1588
9396 1716
9397 1589
9397 1717
9398 1590
9398 1718
9399 1591
9399 1719
9400 1592
9400 1720
9401 1593
9401 1721
9402 1594
9402 1722
9403 1595
9403 1723
9404 1596
9404 1724
9405 1597
9405 1725
9406 1598
9406 1726
9407 1599
9407 1727
9408 1600
9408 1728
9409 1601
9409 1729
9410 1602
9410 1730
9411 1603
9411 1731
9412 1604
9412 1732
9413 1605
9413 1733
9414 1606
9414 1734
9415 1607
9415 1735
9416 1608
9416 1736
9417 1609
9417 1737
9418 1610
9418 1738
9419 1611
9419 1739
9420 1612
9420 1740
9421 1613
9421 1741
9422 1614
9422 1742
9423 1615
9423 1743
9424 1616
9424 1744
9425 1617
9425 1745
9426 1618
9426 1746
9427 1619
9427 1747
9428 1620
9428 1748
9429 1621
9429 1749
9430 1622
9430 1750
9431 1623
9431 1751
9432 1624
9432 1752
9433 1625
9433 1753
9434 1626
9434 1754
9435 1627
9435 1755
9436 1628
9436 1756
9437 1629
9437 1757
9438 1630
9438 1758
9439 1631
9439 1759
9440 1632
9440 1760
9441 1633
9441 1761
9442 1634
9442 1762
9443 1635
9443 1763
9444 1636
9444 1764
9445 1637
9445 1765
9446 1638
9446 1766
9447 1639
9447 1767
9448 1640
9448 1768
9449 1641
9449 1769
9450 1642
9450 1770
9451 1643
9451 1771
9452 1644
9452 1772
9453 1645
9453 1773
9454 1646
9454 1774
9455 1647
9455 1775
9456 1648
9456 1776
9457 1649
9457 1777
9458 1650
9458 1778
9459 1651
9459 1779
9460 1652
9460 1780
9461 1653
9461 1781
9462 1654
9462 1782
9463 1655
9463 1783
9464 1656
9464 1784
9465 1657
9465 1785
9466 1658
9466 1786
9467 1659
9467 1787
9468 1660
9468 1788
9469 1661
9469 1789
9470 1662
9470 1790
9471 1663
9471 1791
9472 1536
9472 3456
9473 1537
9473 3457
9474 1538
9474 3458
9475 1539
9475 3459
9476 1540
9476 3460
9477 1541
9477 3461
9478 1542
9478 3462
9479 1543
9479 3463
9480 1544
9480 3464
9481 1545
9481 3465
9482 1546
9482 3466
9483 1547
9483 3467
9484 1548
9484 3468
9485 1549
9485 3469
9486 1550
9486 3470
9487 1551
9487 3471
9488 1552
9488 3472
9489 1553
9489 3473
9490 1554
9490 3474
9491 1555
9491 3475
9492 1556
9492 3476
9493 1557
9493 3477
9494 1558
9494 3478
9495 1559
9495 3479
9496 1560
9496 3480
9497 1561
9497 3481
9498 1562
9498 3482
9499 1563
9499 3483
9500 1564
9500 3484
9501 1565
9501 3485
9502 1566
9502 3486
9503 1567
9503 3487
9504 1568
9504 3488
9505 1569
9505 3489
9506 1570
9506 3490
9507 1571
9507 3491
9508 1572
9508 3492
9509 1573
9509 3493
9510 1574
9510 3494
9511 1575
9511 3495
9512 1576
9512 3496
9513 1577
9513 3497
9514 1578
9514 3498
9515 1579
9515 3499
9516 1580
9516 3500
9517 1581
9517 3501
9518 1582
9518 3502
9519 1583
9519 3503
9520 1584
9520 3504
9521 1585
9521 3505
9522 1586
9522 3506
9523 1587
9523 3507
9524 1588
9524 3508
9525 1589
9525 3509
9526 1590
9526 3510
9527 1591
9527 3511
9528 1592
9528 3512
9529 1593
9529 3513
9530 1594
9530 3514
9531 1595
9531 3515
9532 1596
9532 3516
9533 1597
9533 3517
9534 1598
9534 3518
9535 1599
9535 3519
9536 1600
9536 3520
9537 1601
9537 3521
9538 1602
9538 3522
9539 1603
9539 3523
9540 1604
9540 3524
9541 1605
9541 3525
9542 1606
9542 3526
9543 1607
9543 3527
9544 1608
9544 3528
9545 1609
9545 3529
9546 1610
9546 3530
9547 1611
9547 3531
9548 1612
9548 3532
9549 1613
9549 3533
9550 1614
9550 3534
9551 1615
9551 3535
9552 1616
9552 3536
9553 1617
9553 3537
9554 1618
9554 3538
9555 1619
9555 3539
9556 1620
9556 3540
9557 1621
9557 3541
9558 1622
9558 3542
9559 1623
9559 3543
9560 1624
9560 3544
9561 1625
9561 3545
9562 1626
9562 3546
9563 1627
9563 3547
9564 1628
9564 3548
9565 1629
9565 3549
9566 1630
9566 3550
9567 1631
9567 3551
9568 1632
9568 3552
9569 1633
9569 3553
9570 1634
9570 3554
9571 1635
9571 3555
9572 1636
9572 3556
9573 1637
9573 3557
9574 1638
9574 3558
9575 1639
9575 3559
9576 1640
9576 3560
9577 1641
9577 3561
9578 1642
9578 3562
9579 1643
9579 3563
9580 1644
9580 3564
9581 1645
9581 3565
9582 1646
9582 3566
9583 1647
9583 3567
9584 1648
9584 3568
9585 1649
9585 3569
9586 1650
9586 3570
9587 1651
9587 3571
9588 1652
9588 3572
9589 1653
9589 3573
9590 1654
9590 3574
9591 1655
9591 3575
9592 1656
9592 3576
9593 1657
9593 3577
9594 1658
9594 3578
9595 1659
9595 3579
9596 1660
9596 3580
9597 1661
9597 3581
9598 1662
9598 3582
9599 1663
9599 3583
9600 1536
9600 4352
9601 1537
9601 4353
9602 1538
9602 4354
9603 1539
9603 4355
9604 1540
9604 4356
9605 1541
9605 4357
9606 1542
9606 4358
9607 1543
9607 4359
9608 1544
9608 4360
9609 1545
9609 4361
9610 1546
9610 4362
9611 1547
9611 4363
9612 1548
9612 4364
9613 1549
9613 4365
9614 1550
9614 4366
9615 1551
9615 4367
9616 1552
9616 4368
9617 1553
9617 4369
9618 1554
9618 4370
9619 1555
9619 4371
9620 1556
9620 4372
9621 1557
9621 4373
9622 1558
9622 4374
9623 1559
9623 4375
9624 1560
9624 4376
9625 1561
9625 4377
9626 1562
9626 4378
9627 1563
9627 4379
9628 1564
9628 4380
9629 1565
9629 4381
9630 1566
9630 4382
9631 1567
9631 4383
9632 1568
9632 4384
9633 1569
9633 4385
9634 1570
9634 4386
9635 1571
9635 4387
9636 1572
9636 4388
9637 1573
9637 4389
9638 1574
9638 4390
9639 1575
9639 4391
9640 1576
9640 4392
9641 1577
9641 4393
9642 1578
9642 4394
9643 1579
9643 4395
9644 1580
9644 4396
9645 1581
9645 4397
9646 1582
9646 4398
9647 1583
9647 4399
9648 1584
9648 4400
9649 1585
9649 4401
9650 1586
9650 4402
9651 1587
9651 4403
9652 1588
9652 4404
9653 1589
9653 4405
9654 1590
9654 4406
9655 1591
9655 4407
9656 1592
9656 4408
9657 1593
9657 4409
9658 1594
9658 4410
9659 1595
9659 4411
9660 1596
9660 4412
9661 1597
9661 4413
9662 1598
9662 4414
9663 1599
9663 4415
9664 1600
9664 4416
9665 1601
9665 4417
9666 1602
9666 4418
9667 1603
9667 4419
9668 1604
9668 4420
9669 1605
9669 4421
9670 1606
9670 4422
9671 1607
9671 4423
9672 1608
9672 4424
9673 1609
9673 4425
9674 1610
9674 4426
9675 1611
9675 4427
9676 1612
9676 4428
9677 1613
9677 4429
9678 1614
9678 4430
9679 1615
9679 4431
9680 1616
9680 4432
9681 1617
9681 4433
9682 1618
9682 4434
9683 1619
9683 4435
9684 1620
9684 4436
9685 1621
9685 4437
9686 1622
9686 4438
9687 1623
9687 4439
9688 1624
9688 4440
9689 1625
9689 4441
9690 1626
9690 4442
9691 1627
9691 4443
9692 1628
9692 4444
9693 1629
9693 4445
9694 1630
9694 4446
9695 1631
9695 4447
9696 1632
9696 4448
9697 1633
9697 4449
9698 1634
9698 4450
9699 1635
9699 4451
9700 1636
9700 4452
9701 1637
9701 4453
9702 1638
9702 4454
9703 1639
9703 4455
9704 1640
9704 4456
9705 1641
9705 4457
9706 1642
9706 4458
9707 1643
9707 4459
9708 1644
9708 4460
9709 1645
9709 4461
9710 1646
9710 4462
9711 1647
9711 4463
9712 1648
9712 4464
9713 1649
9713 4465
9714 1650
9714 4466
9715 1651
9715 4467
9716 1652
9716 4468
9717 1653
9717 4469
9718 1654
9718 4470
9719 1655
9719 4471
9720 1656
9720 4472
9721 1657
9721 4473
9722 1658
9722 4474
9723 1659
9723 4475
9724 1660
9724 4476
9725 1661
9725 4477
9726 1662
9726 4478
9727 1663
9727 4479
9728 1536
9728 4608
9729 1537
9729 4609
9730 1538
9730 4610
9731 1539
9731 4611
9732 1540
9732 4612
9733 1541
9733 4613
9734 1542
9734 4614
9735 1543
9735 4615
9736 1544
9736 4616
9737 1545
9737 4617
9738 1546
9738 4618
9739 1547
9739 4619
9740 1548
9740 4620
9741 1549
9741 4621
9742 1550
9742 4622
9743 1551
9743 4623
9744 1552
9744 4624
9745 1553
9745 4625
9746 1554
9746 4626
9747 1555
9747 4627
9748 1556
9748 4628
9749 1557
9749 4629
9750 1558
9750 4630
9751 1559
9751 4631
9752 1560
9752 4632
9753 1561
9753 4633
9754 1562
9754 4634
9755 1563
9755 4635
9756 1564
9756 4636
9757 1565
9757 4637
9758 1566
9758 4638
9759 1567
9759 4639
9760 1568
9760 4640
9761 1569
9761 4641
9762 1570
9762 4642
9763 1571
9763 4643
9764 1572
9764 4644
9765 1573
9765 4645
9766 1574
9766 4646
9767 1575
9767 4647
9768 1576
9768 4648
9769 1577
9769 4649
9770 1578
9770 4650
9771 1579
9771 4651
9772 1580
9772 4652
9773 1581
9773 4653
9774 1582
9774 4654
9775 1583
9775 4655
9776 1584
9776 4656
9777 1585
9777 4657
9778 1586
9778 4658
9779 1587
9779 4659
9780 1588
9780 4660
9781 1589
9781 4661
9782 1590
9782 4662
9783 1591
9783 4663
9784 1592
9784 4664
9785 1593
9785 4665
9786 1594
9786 4666
9787 1595
9787 4667
9788 1596
9788 4668
9789 1597
9789 4669
9790 1598
9790 4670
9791 1599
9791 4671
9792 1600
9792 4672
9793 1601
9793 4673
9794 1602
9794 4674
9795 1603
9795 4675
9796 1604
9796 4676
9797 1605
9797 4677
9798 1606
9798 4678
9799 1607
9799 4679
9800 1608
9800 4680
9801 1609
9801 4681
9802 1610
9802 4682
9803 1611
9803 4683
9804 1612
9804 4684
9805 1613
9805 4685
9806 1614
9806 4686
9807 1615
9807 4687
9808 1616
9808 4688
9809 1617
9809 4689
9810 1618
9810 4690
9811 1619
9811 4691
9812 1620
9812 4692
9813 1621
9813 4693
9814 1622
9814 4694
9815 1623
9815 4695
9816 1624
9816 4696
9817 1625
9817 4697
9818 1626
9818 4698
9819 1627
9819 4699
9820 1628
9820 4700
9821 1629
9821 4701
9822 1630
9822 4702
9823 1631
9823 4703
9824 1632
9824 4704
9825 1633
9825 4705
9826 1634
9826 4706
9827 1635
9827 4707
9828 1636
9828 4708
9829 1637
9829 4709
9830 1638
9830 4710
9831 1639
9831 4711
9832 1640
9832 4712
9833 1641
9833 4713
9834 1642
9834 4714
9835 1643
9835 4715
9836 1644
9836 4716
9837 1645
9837 4717
9838 1646
9838 4718
9839 1647
9839 4719
9840 1648
9840 4720
9841 1649
9841 4721
9842 1650
9842 4722
9843 1651
9843 4723
9844 1652
9844 4724
9845 1653
9845 4725
9846 1654
9846 4726
9847 1655
9847 4727
9848 1656
9848 4728
9849 1657
9849 4729
9850 1658
9850 4730
9851 1659
9851 4731
9852 1660
9852 4732
9853 1661
9853 4733
9854 1662
9854 4734
9855 1663
9855 4735
9856 1536
9856 5504
9857 1537
9857 5505
9858 1538
9858 5506
9859 1539
9859 5507
9860 1540
9860 5508
9861 1541
9861 5509
9862 1542
9862 5510
9863 1543
9863 5511
9864 1544
9864 5512
9865 1545
9865 5513
9866 1546
9866 5514
9867 1547
9867 5515
9868 1548
9868 5516
9869 1549
9869 5517
9870 1550
9870 5518
9871 1551
9871 5519
9872 1552
9872 5520
9873 1553
9873 5521
9874 1554
9874 5522
9875 1555
9875 5523
9876 1556
9876 5524
9877 1557
9877 5525
9878 1558
9878 5526
9879 1559
9879 5527
9880 1560
9880 5528
9881 1561
9881 5529
9882 1562
9882 5530
9883 1563
9883 5531
9884 1564
9884 5532
9885 1565
9885 5533
9886 1566
9886 5534
9887 1567
9887 5535
9888 1568
9888 5536
9889 1569
9889 5537
9890 1570
9890 5538
9891 1571
9891 5539
9892 1572
9892 5540
9893 1573
9893 5541
9894 1574
9894 5542
9895 1575
9895 5543
9896 1576
9896 5544
9897 1577
9897 5545
9898 1578
9898 5546
9899 1579
9899 5547
9900 1580
9900 5548
9901 1581
9901 5549
9902 1582
9902 5550
9903 1583
9903 5551
9904 1584
9904 5552
9905 1585
9905 5553
9906 1586
9906 5554
9907 1587
9907 5555
9908 1588
9908 5556
9909 1589
9909 5557
9910 1590
9910 5558
9911 1591
9911 5559
9912 1592
9912 5560
9913 1593
9913 5561
9914 1594
9914 5562
9915 1595
9915 5563
9916 1596
9916 5564
9917 1597
9917 5565
9918 1598
9918 5566
9919 1599
9919 5567
9920 1600
9920 5568
9921 1601
9921 5569
9922 1602
9922 5570
9923 1603
9923 5571
9924 1604
9924 5572
9925 1605
9925 5573
9926 1606
9926 5574
9927 1607
9927 5575
9928 1608
9928 5576
9929 1609
9929 5577
9930 1610
9930 5578
9931 1611
9931 5579
9932 1612
9932 5580
9933 1613
9933 5581
9934 1614
9934 5582
9935 1615
9935 5583
9936 1616
9936 5584
9937 1617
9937 5585
9938 1618
9938 5586
9939 1619
9939 5587
9940 1620
9940 5588
9941 1621
9941 5589
9942 1622
9942 5590
9943 1623
9943 5591
9944 1624
9944 5592
9945 1625
9945 5593
9946 1626
9946 5594
9947 1627
9947 5595
9948 1628
9948 5596
9949 1629
9949 5597
9950 1630
9950 5598
9951 1631
9951 5599
9952 1632
9952 5600
9953 1633
9953 5601
9954 1634
9954 5602
9955 1635
9955 5603
9956 1636
9956 5604
9957 1637
9957 5605
9958 1638
9958 5606
9959 1639
9959 5607
9960 1640
9960 5608
9961 1641
9961 5609
9962 1642
9962 5610
9963 1643
9963 5611
9964 1644
9964 5612
9965 1645
9965 5613
9966 1646
9966 5614
9967 1647
9967 5615
9968 1648
9968 5616
9969 1649
9969 5617
9970 1650
9970 5618
9971 1651
9971 5619
9972 1652
9972 5620
9973 1653
9973 5621
9974 1654
9974 5622
9975 1655
9975 5623
9976 1656
9976 5624
9977 1657
9977 5625
9978 1658
9978 5626
9979 1659
9979 5627
9980 1660
9980 5628
9981 1661
9981 5629
9982 1662
9982 5630
9983 1663
9983 5631
9984 1536
9984 5760
9985 1537
9985 5761
9986 1538
9986 5762
9987 1539
9987 5763
9988 1540
9988 5764
9989 1541
9989 5765
9990 1542
9990 5766
9991 1543
9991 5767
9992 1544
9992 5768
9993 1545
9993 5769
9994 1546
9994 5770
9995 1547
9995 5771
9996 1548
9996 5772
9997 1549
9997 5773
9998 1550
9998 5774
9999 1551
9999 5775
10000 1552
10000 5776
10001 1553
10001 5777
10002 1554
10002 5778
10003 1555
10003 5779
10004 1556
10004 5780
10005 1557
10005 5781
10006 1558
10006 5782
10007 1559
10007 5783
10008 1560
10008 5784
10009 1561
10009 5785
10010 1562
10010 5786
10011 1563
10011 5787
10012 1564
10012 5788
10013 1565
10013 5789
10014 1566
10014 5790
10015 1567
10015 5791
10016 1568
10016 5792
10017 1569
10017 5793
10018 1570
10018 5794
10019 1571
10019 5795
10020 1572
10020 5796
10021 1573
10021 5797
10022 1574
10022 5798
10023 1575
10023 5799
10024 1576
10024 5800
10025 1577
10025 5801
10026 1578
10026 5802
10027 1579
10027 5803
10028 1580
10028 5804
10029 1581
10029 5805
10030 1582
10030 5806
10031 1583
10031 5807
10032 1584
10032 5808
10033 1585
10033 5809
10034 1586
10034 5810
10035 1587
10035 5811
10036 1588
10036 5812
10037 1589
10037 5813
10038 1590
10038 5814
10039 1591
10039 5815
10040 1592
10040 5816
10041 1593
10041 5817
10042 1594
10042 5818
10043 1595
10043 5819
10044 1596
10044 5820
10045 1597
10045 5821
10046 1598
10046 5822
10047 1599
10047 5823
10048 1600
10048 5824
10049 1601
10049 5825
10050 1602
10050 5826
10051 1603
10051 5827
10052 1604
10052 5828
10053 1605
10053 5829
10054 1606
10054 5830
10055 1607
10055 5831
10056 1608
10056 5832
10057 1609
10057 5833
10058 1610
10058 5834
10059 1611
10059 5835
10060 1612
10060 5836
10061 1613
10061 5837
10062 1614
10062 5838
10063 1615
10063 5839
10064 1616
10064 5840
10065 1617
10065 5841
10066 1618
10066 5842
10067 1619
10067 5843
10068 1620
10068 5844
10069 1621
10069 5845
10070 1622
10070 5846
10071 1623
10071 5847
10072 1624
10072 5848
10073 1625
10073 5849
10074 1626
10074 5850
10075 1627
10075 5851
10076 1628
10076 5852
10077 1629
10077 5853
10078 1630
10078 5854
10079 1631
10079 5855
10080 1632
10080 5856
10081 1633
10081 5857
10082 1634
10082 5858
10083 1635
10083 5859
10084 1636
10084 5860
10085 1637
10085 5861
10086 1638
10086 5862
10087 1639
10087 5863
10088 1640
10088 5864
10089 1641
10089 5865
10090 1642
10090 5866
10091 1643
10091 5867
10092 1644
10092 5868
10093 1645
10093 5869
10094 1646
10094 5870
10095 1647
10095 5871
10096 1648
10096 5872
10097 1649
10097 5873
10098 1650
10098 5874
10099 1651
10099 5875
10100 1652
10100 5876
10101 1653
10101 5877
10102 1654
10102 5878
10103 1655
10103 5879
10104 1656
10104 5880
10105 1657
10105 5881
10106 1658
10106 5882
10107 1659
10107 5883
10108 1660
10108 5884
10109 1661
10109 5885
10110 1662
10110 5886
10111 1663
10111 5887
10112 1664
10112 1792
10113 1665
10113 1793
10114 1666
10114 1794
10115 1667
10115 1795
10116 1668
10116 1796
10117 1669
10117 1797
10118 1670
10118 1798
10119 1671
10119 1799
10120 1672
10120 1800
10121 1673
10121 1801
10122 1674
10122 1802
10123 1675
10123 1803
10124 1676
10124 1804
10125 1677
10125 1805
10126 1678
10126 1806
10127 1679
10127 1807
10128 1680
10128 1808
10129 1681
10129 1809
10130 1682
10130 1810
10131 1683
10131 1811
10132 1684
10132 1812
10133 1685
10133 1813
10134 1686
10134 1814
10135 1687
10135 1815
10136 1688
10136 1816
10137 1689
10137 1817
10138 1690
10138 1818
10139 1691
10139 1819
10140 1692
10140 1820
10141 1693
10141 1821
10142 1694
10142 1822
10143 1695
10143 1823
10144 1696
10144 1824
10145 1697
10145 1825
10146 1698
10146 1826
10147 1699
10147 1827
10148 1700
10148 1828
10149 1701
10149 1829
10150 1702
10150 1830
10151 1703
10151 1831
10152 1704
10152 1832
10153 1705
10153 1833
10154 1706
10154 1834
10155 1707
10155 1835
10156 1708
10156 1836
10157 1709
10157 1837
10158 1710
10158 1838
10159 1711
10159 1839
10160 1712
10160 1840
10161 1713
10161 1841
10162 1714
10162 1842
10163 1715
10163 1843
10164 1716
10164 1844
10165 1717
10165 1845
10166 1718
10166 1846
10167 1719
10167 1847
10168 1720
10168 1848
10169 1721
10169 1849
10170 1722
10170 1850
10171 1723
10171 1851
10172 1724
10172 1852
10173 1725
10173 1853
10174 1726
10174 1854
10175 1727
10175 1855
10176 1728
10176 1856
10177 1729
10177 1857
10178 1730
10178 1858
10179 1731
10179 1859
10180 1732
10180 1860
10181 1733
10181 1861
10182 1734
10182 1862
10183 1735
10183 1863
10184 1736
10184 1864
10185 1737
10185 1865
10186 1738
10186 1866
10187 1739
10187 1867
10188 1740
10188 1868
10189 1741
10189 1869
10190 1742
10190 1870
10191 1743
10191 1871
10192 1744
10192 1872
10193 1745
10193 1873
10194 1746
10194 1874
10195 1747
10195 1875
10196 1748
10196 1876
10197 1749
10197 1877
10198 1750
10198 1878
10199 1751
10199 1879
10200 1752
10200 1880
10201 1753
10201 1881
10202 1754
10202 1882
10203 1755
10203 1883
10204 1756
10204 1884
10205 1757
10205 1885
10206 1758
10206 1886
10207 1759
10207 1887
10208 1760
10208 1888
10209 1761
10209 1889
10210 1762
10210 1890
10211 1763
10211 1891
10212 1764
10212 1892
10213 1765
10213 1893
10214 1766
10214 1894
10215 1767
10215 1895
10216 1768
10216 1896
10217 1769
10217 1897
10218 1770
10218 1898
10219 1771
10219 1899
10220 1772
10220 1900
10221 1773
10221 1901
10222 1774
10222 1902
10223 1775
10223 1903
10224 1776
10224 1904
10225 1777
10225 1905
10226 1778
10226 1906
10227 1779
10227 1907
10228 1780
10228 1908
10229 1781
10229 1909
10230 1782
10230 1910
10231 1783
10231 1911
10232 1784
10232 1912
10233 1785
10233 1913
10234 1786
10234 1914
10235 1787
10235 1915
10236 1788
10236 1916
10237 1789
10237 1917
10238 1790
10238 1918
10239 1791
10239 1919
10240 1664
10240 3584
10241 1665
10241 3585
10242 1666
10242 3586
10243 1667
10243 3587
10244 1668
10244 3588
10245 1669
10245 3589
10246 1670
10246 3590
10247 1671
10247 3591
10248 1672
10248 3592
10249 1673
10249 3593
10250 1674
10250 3594
10251 1675
10251 3595
10252 1676
10252 3596
10253 1677
10253 3597
10254 1678
10254 3598
10255 1679
10255 3599
10256 1680
10256 3600
10257 1681
10257 3601
10258 1682
10258 3602
10259 1683
10259 3603
10260 1684
10260 3604
10261 1685
10261 3605
10262 1686
10262 3606
10263 1687
10263 3607
10264 1688
10264 3608
10265 1689
10265 3609
10266 1690
10266 3610
10267 1691
10267 3611
10268 1692
10268 3612
10269 1693
10269 3613
10270 1694
10270 3614
10271 1695
10271 3615
10272 1696
10272 3616
10273 1697
10273 3617
10274 1698
10274 3618
10275 1699
10275 3619
10276 1700
10276 3620
10277 1701
10277 3621
10278 1702
10278 3622
10279 1703
10279 3623
10280 1704
10280 3624
10281 1705
10281 3625
10282 1706
10282 3626
10283 1707
10283 3627
10284 1708
10284 3628
10285 1709
10285 3629
10286 1710
10286 3630
10287 1711
10287 3631
10288 1712
10288 3632
10289 1713
10289 3633
10290 1714
10290 3634
10291 1715
10291 3635
10292 1716
10292 3636
10293 1717
10293 3637
10294 1718
10294 3638
10295 1719
10295 3639
10296 1720
10296 3640
10297 1721
10297 3641
10298 1722
10298 3642
10299 1723
10299 3643
10300 1724
10300 3644
10301 1725
10301 3645
10302 1726
10302 3646
10303 1727
10303 3647
10304 1728
10304 3648
10305 1729
10305 3649
10306 1730
10306 3650
10307 1731
10307 3651
10308 1732
10308 3652
10309 1733
10309 3653
10310 1734
10310 3654
10311 1735
10311 3655
10312 1736
10312 3656
10313 1737
10313 3657
10314 1738
10314 3658
10315 1739
10315 3659
10316 1740
10316 3660
10317 1741
10317 3661
10318 1742
10318 3662
10319 1743
10319 3663
10320 1744
10320 3664
10321 1745
10321 3665
10322 1746
10322 3666
10323 1747
10323 3667
10324 1748
10324 3668
10325 1749
10325 3669
10326 1750
10326 3670
10327 1751
10327 3671
10328 1752
10328 3672
10329 1753
10329 3673
10330 1754
10330 3674
10331 1755
10331 3675
10332 1756
10332 3676
10333 1757
10333 3677
10334 1758
10334 3678
10335 1759
10335 3679
10336 1760
10336 3680
10337 1761
10337 3681
10338 1762
10338 3682
10339 1763
10339 3683
10340 1764
10340 3684
10341 1765
10341 3685
10342 1766
10342 3686
10343 1767
10343 3687
10344 1768
10344 3688
10345 1769
10345 3689
10346 1770
10346 3690
10347 1771
10347 3691
10348 1772
10348 3692
10349 1773
10349 3693
10350 1774
10350 3694
10351 1775
10351 3695
10352 1776
10352 3696
10353 1777
10353 3697
10354 1778
10354 3698
10355 1779
10355 3699
10356 1780
10356 3700
10357 1781
10357 3701
10358 1782
10358 3702
10359 1783
10359 3703
10360 1784
10360 3704
10361 1785
10361 3705
10362 1786
10362 3706
10363 1787
10363 3707
10364 1788
10364 3708
10365 1789
10365 3709
10366 1790
10366 3710
10367 1791
10367 3711
10368 1664
10368 3840
10369 1665
10369 3841
10370 1666
10370 3842
10371 1667
10371 3843
10372 1668
10372 3844
10373 1669
10373 3845
10374 1670
10374 3846
10375 1671
10375 3847
10376 1672
10376 3848
10377 1673
10377 3849
10378 1674
10378 3850
10379 1675
10379 3851
10380 1676
10380 3852
10381 1677
10381 3853
10382 1678
10382 3854
10383 1679
10383 3855
10384 1680
10384 3856
10385 1681
10385 3857
10386 1682
10386 3858
10387 1683
10387 3859
10388 1684
10388 3860
10389 1685
10389 3861
10390 1686
10390 3862
10391 1687
10391 3863
10392 1688
10392 3864
10393 1689
10393 3865
10394 1690
10394 3866
10395 1691
10395 3867
10396 1692
10396 3868
10397 1693
10397 3869
10398 1694
10398 3870
10399 1695
10399 3871
10400 1696
10400 3872
10401 1697
10401 3873
10402 1698
10402 3874
10403 1699
10403 3875
10404 1700
10404 3876
10405 1701
10405 3877
10406 1702
10406 3878
10407 1703
10407 3879
10408 1704
10408 3880
10409 1705
10409 3881
10410 1706
10410 3882
10411 1707
10411 3883
10412 1708
10412 3884
10413 1709
10413 3885
10414 1710
10414 3886
10415 1711
10415 3887
10416 1712
10416 3888
10417 1713
10417 3889
10418 1714
10418 3890
10419 1715
10419 3891
10420 1716
10420 3892
10421 1717
10421 3893
10422 1718
10422 3894
10423 1719
10423 3895
10424 1720
10424 3896
10425 1721
10425 3897
10426 1722
10426 3898
10427 1723
10427 3899
10428 1724
10428 3900
10429 1725
10429 3901
10430 1726
10430 3902
10431 1727
10431 3903
10432 1728
10432 3904
10433 1729
10433 3905
10434 1730
10434 3906
10435 1731
10435 3907
10436 1732
10436 3908
10437 1733
10437 3909
10438 1734
10438 3910
10439 1735
10439 3911
10440 1736
10440 3912
10441 1737
10441 3913
10442 1738
10442 3914
10443 1739
10443 3915
10444 1740
10444 3916
10445 1741
10445 3917
10446 1742
10446 3918
10447 1743
10447 3919
10448 1744
10448 3920
10449 1745
10449 3921
10450 1746
10450 3922
10451 1747
10451 3923
10452 1748
10452 3924
10453 1749
10453 3925
10454 1750
10454 3926
10455 1751
10455 3927
10456 1752
10456 3928
10457 1753
10457 3929
10458 1754
10458 3930
10459 1755
10459 3931
10460 1756
10460 3932
10461 1757
10461 3933
10462 1758
10462 3934
10463 1759
10463 3935
10464 1760
10464 3936
10465 1761
10465 3937
10466 1762
10466 3938
10467 1763
10467 3939
10468 1764
10468 3940
10469 1765
10469 3941
10470 1766
10470 3942
10471 1767
10471 3943
10472 1768
10472 3944
10473 1769
10473 3945
10474 1770
10474 3946
10475 1771
10475 3947
10476 1772
10476 3948
10477 1773
10477 3949
10478 1774
10478 3950
10479 1775
10479 3951
10480 1776
10480 3952
10481 1777
10481 3953
10482 1778
10482 3954
10483 1779
10483 3955
10484 1780
10484 3956
10485 1781
10485 3957
10486 1782
10486 3958
10487 1783
10487 3959
10488 1784
10488 3960
10489 1785
10489 3961
10490 1786
10490 3962
10491 1787
10491 3963
10492 1788
10492 3964
10493 1789
10493 3965
10494 1790
10494 3966
10495 1791
10495 3967
10496 1664
10496 4736
10497 1665
10497 4737
10498 1666
10498 4738
10499 1667
10499 4739
10500 1668
10500 4740
10501 1669
10501 4741
10502 1670
10502 4742
10503 1671
10503 4743
10504 1672
10504 4744
10505 1673
10505 4745
10506 1674
10506 4746
10507 1675
10507 4747
10508 1676
10508 4748
10509 1677
10509 4749
10510 1678
10510 4750
10511 1679
10511 4751
10512 1680
10512 4752
10513 1681
10513 4753
10514 1682
10514 4754
10515 1683
10515 4755
10516 1684
10516 4756
10517 1685
10517 4757
10518 1686
10518 4758
10519 1687
10519 4759
10520 1688
10520 4760
10521 1689
10521 4761
10522 1690
10522 4762
10523 1691
10523 4763
10524 1692
10524 4764
10525 1693
10525 4765
10526 1694
10526 4766
10527 1695
10527 4767
10528 1696
10528 4768
10529 1697
10529 4769
10530 1698
10530 4770
10531 1699
10531 4771
10532 1700
10532 4772
10533 1701
10533 4773
10534 1702
10534 4774
10535 1703
10535 4775
10536 1704
10536 4776
10537 1705
10537 4777
10538 1706
10538 4778
10539 1707
10539 4779
10540 1708
10540 4780
10541 1709
10541 4781
10542 1710
10542 4782
10543 1711
10543 4783
10544 1712
10544 4784
10545 1713
10545 4785
10546 1714
10546 4786
10547 1715
10547 4787
10548 1716
10548 4788
10549 1717
10549 4789
10550 1718
10550 4790
10551 1719
10551 4791
10552 1720
10552 4792
10553 1721
10553 4793
10554 1722
10554 4794
10555 1723
10555 4795
10556 1724
10556 4796
10557 1725
10557 4797
10558 1726
10558 4798
10559 1727
10559 4799
10560 1728
10560 4800
10561 1729
10561 4801
10562 1730
10562 4802
10563 1731
10563 4803
10564 1732
10564 4804
10565 1733
10565 4805
10566 1734
10566 4806
10567 1735
10567 4807
10568 1736
10568 4808
10569 1737
10569 4809
10570 1738
10570 4810
10571 1739
10571 4811
10572 1740
10572 4812
10573 1741
10573 4813
10574 1742
10574 4814
10575 1743
10575 4815
10576 1744
10576 4816
10577 1745
10577 4817
10578 1746
10578 4818
10579 1747
10579 4819
10580 1748
10580 4820
10581 1749
10581 4821
10582 1750
10582 4822
10583 1751
10583 4823
10584 1752
10584 4824
10585 1753
10585 4825
10586 1754
10586 4826
10587 1755
10587 4827
10588 1756
10588 4828
10589 1757
10589 4829
10590 1758
10590 4830
10591 1759
10591 4831
10592 1760
10592 4832
10593 1761
10593 4833
10594 1762
10594 4834
10595 1763
10595 4835
10596 1764
10596 4836
10597 1765
10597 4837
10598 1766
10598 4838
10599 1767
10599 4839
10600 1768
10600 4840
10601 1769
10601 4841
10602 1770
10602 4842
10603 1771
10603 4843
10604 1772
10604 4844
10605 1773
10605 4845
10606 1774
10606 4846
10607 1775
10607 4847
10608 1776
10608 4848
10609 1777
10609 4849
10610 1778
10610 4850
10611 1779
10611 4851
10612 1780
10612 4852
10613 1781
10613 4853
10614 1782
10614 4854
10615 1783
10615 4855
10616 1784
10616 4856
10617 1785
10617 4857
10618 1786
10618 4858
10619 1787
10619 4859
10620 1788
10620 4860
10621 1789
10621 4861
10622 1790
10622 4862
10623 1791
10623 4863
10624 1664
10624 5632
10625 1665
10625 5633
10626 1666
10626 5634
10627 1667
10627 5635
10628 1668
10628 5636
10629 1669
10629 5637
10630 1670
10630 5638
10631 1671
10631 5639
10632 1672
10632 5640
10633 1673
10633 5641
10634 1674
10634 5642
10635 1675
10635 5643
10636 1676
10636 5644
10637 1677
10637 5645
10638 1678
10638 5646
10639 1679
10639 5647
10640 1680
10640 5648
10641 1681
10641 5649
10642 1682
10642 5650
10643 1683
10643 5651
10644 1684
10644 5652
10645 1685
10645 5653
10646 1686
10646 5654
10647 1687
10647 5655
10648 1688
10648 5656
10649 1689
10649 5657
10650 1690
10650 5658
10651 1691
10651 5659
10652 1692
10652 5660
10653 1693
10653 5661
10654 1694
10654 5662
10655 1695
10655 5663
10656 1696
10656 5664
10657 1697
10657 5665
10658 1698
10658 5666
10659 1699
10659 5667
10660 1700
10660 5668
10661 1701
10661 5669
10662 1702
10662 5670
10663 1703
10663 5671
10664 1704
10664 5672
10665 1705
10665 5673
10666 1706
10666 5674
10667 1707
10667 5675
10668 1708
10668 5676
10669 1709
10669 5677
10670 1710
10670 5678
10671 1711
10671 5679
10672 1712
10672 5680
10673 1713
10673 5681
10674 1714
10674 5682
10675 1715
10675 5683
10676 1716
10676 5684
10677 1717
10677 5685
10678 1718
10678 5686
10679 1719
10679 5687
10680 1720
10680 5688
10681 1721
10681 5689
10682 1722
10682 5690
10683 1723
10683 5691
10684 1724
10684 5692
10685 1725
10685 5693
10686 1726
10686 5694
10687 1727
10687 5695
10688 1728
10688 5696
10689 1729
10689 5697
10690 1730
10690 5698
10691 1731
10691 5699
10692 1732
10692 5700
10693 1733
10693 5701
10694 1734
10694 5702
10695 1735
10695 5703
10696 1736
10696 5704
10697 1737
10697 5705
10698 1738
10698 5706
10699 1739
10699 5707
10700 1740
10700 5708
10701 1741
10701 5709
10702 1742
10702 5710
10703 1743
10703 5711
10704 1744
10704 5712
10705 1745
10705 5713
10706 1746
10706 5714
10707 1747
10707 5715
10708 1748
10708 5716
10709 1749
10709 5717
10710 1750
10710 5718
10711 1751
10711 5719
10712 1752
10712 5720
10713 1753
10713 5721
10714 1754
10714 5722
10715 1755
10715 5723
10716 1756
10716 5724
10717 1757
10717 5725
10718 1758
10718 5726
10719 1759
10719 5727
10720 1760
10720 5728
10721 1761
10721 5729
10722 1762
10722 5730
10723 1763
10723 5731
10724 1764
10724 5732
10725 1765
10725 5733
10726 1766
10726 5734
10727 1767
10727 5735
10728 1768
10728 5736
10729 1769
10729 5737
10730 1770
10730 5738
10731 1771
10731 5739
10732 1772
10732 5740
10733 1773
10733 5741
10734 1774
10734 5742
10735 1775
10735 5743
10736 1776
10736 5744
10737 1777
10737 5745
10738 1778
10738 5746
10739 1779
10739 5747
10740 1780
10740 5748
10741 1781
10741 5749
10742 1782
10742 5750
10743 1783
10743 5751
10744 1784
10744 5752
10745 1785
10745 5753
10746 1786
10746 5754
10747 1787
10747 5755
10748 1788
10748 5756
10749 1789
10749 5757
10750 1790
10750 5758
10751 1791
10751 5759
10752 1664
10752 5888
10753 1665
10753 5889
10754 1666
10754 5890
10755 1667
10755 5891
10756 1668
10756 5892
10757 1669
10757 5893
10758 1670
10758 5894
10759 1671
10759 5895
10760 1672
10760 5896
10761 1673
10761 5897
10762 1674
10762 5898
10763 1675
10763 5899
10764 1676
10764 5900
10765 1677
10765 5901
10766 1678
10766 5902
10767 1679
10767 5903
10768 1680
10768 5904
10769 1681
10769 5905
10770 1682
10770 5906
10771 1683
10771 5907
10772 1684
10772 5908
10773 1685
10773 5909
10774 1686
10774 5910
10775 1687
10775 5911
10776 1688
10776 5912
10777 1689
10777 5913
10778 1690
10778 5914
10779 1691
10779 5915
10780 1692
10780 5916
10781 1693
10781 5917
10782 1694
10782 5918
10783 1695
10783 5919
10784 1696
10784 5920
10785 1697
10785 5921
10786 1698
10786 5922
10787 1699
10787 5923
10788 1700
10788 5924
10789 1701
10789 5925
10790 1702
10790 5926
10791 1703
10791 5927
10792 1704
10792 5928
10793 1705
10793 5929
10794 1706
10794 5930
10795 1707
10795 5931
10796 1708
10796 5932
10797 1709
10797 5933
10798 1710
10798 5934
10799 1711
10799 5935
10800 1712
10800 5936
10801 1713
10801 5937
10802 1714
10802 5938
10803 1715
10803 5939
10804 1716
10804 5940
10805 1717
10805 5941
10806 1718
10806 5942
10807 1719
10807 5943
10808 1720
10808 5944
10809 1721
10809 5945
10810 1722
10810 5946
10811 1723
10811 5947
10812 1724
10812 5948
10813 1725
10813 5949
10814 1726
10814 5950
10815 1727
10815 5951
10816 1728
10816 5952
10817 1729
10817 5953
10818 1730
10818 5954
10819 1731
10819 5955
10820 1732
10820 5956
10821 1733
10821 5957
10822 1734
10822 5958
10823 1735
10823 5959
10824 1736
10824 5960
10825 1737
10825 5961
10826 1738
10826 5962
10827 1739
10827 5963
10828 1740
10828 5964
10829 1741
10829 5965
10830 1742
10830 5966
10831 1743
10831 5967
10832 1744
10832 5968
10833 1745
10833 5969
10834 1746
10834 5970
10835 1747
10835 5971
10836 1748
10836 5972
10837 1749
10837 5973
10838 1750
10838 5974
10839 1751
10839 5975
10840 1752
10840 5976
10841 1753
10841 5977
10842 1754
10842 5978
10843 1755
10843 5979
10844 1756
10844 5980
10845 1757
10845 5981
10846 1758
10846 5982
10847 1759
10847 5983
10848 1760
10848 5984
10849 1761
10849 5985
10850 1762
10850 5986
10851 1763
10851 5987
10852 1764
10852 5988
10853 1765
10853 5989
10854 1766
10854 5990
10855 1767
10855 5991
10856 1768
10856 5992
10857 1769
10857 5993
10858 1770
10858 5994
10859 1771
10859 5995
10860 1772
10860 5996
10861 1773
10861 5997
10862 1774
10862 5998
10863 1775
10863 5999
10864 1776
10864 6000
10865 1777
10865 6001
10866 1778
10866 6002
10867 1779
10867 6003
10868 1780
10868 6004
10869 1781
10869 6005
10870 1782
10870 6006
10871 1783
10871 6007
10872 1784
10872 6008
10873 1785
10873 6009
10874 1786
10874 6010
10875 1787
10875 6011
10876 1788
10876 6012
10877 1789
10877 6013
10878 1790
10878 6014
10879 1791
10879 6015
10880 1792
10880 3712
10881 1793
10881 3713
10882 1794
10882 3714
10883 1795
10883 3715
10884 1796
10884 3716
10885 1797
10885 3717
10886 1798
10886 3718
10887 1799
10887 3719
10888 1800
10888 3720
10889 1801
10889 3721
10890 1802
10890 3722
10891 1803
10891 3723
10892 1804
10892 3724
10893 1805
10893 3725
10894 1806
10894 3726
10895 1807
10895 3727
10896 1808
10896 3728
10897 1809
10897 3729
10898 1810
10898 3730
10899 1811
10899 3731
10900 1812
10900 3732
10901 1813
10901 3733
10902 1814
10902 3734
10903 1815
10903 3735
10904 1816
10904 3736
10905 1817
10905 3737
10906 1818
10906 3738
10907 1819
10907 3739
10908 1820
10908 3740
10909 1821
10909 3741
10910 1822
10910 3742
10911 1823
10911 3743
10912 1824
10912 3744
10913 1825
10913 3745
10914 1826
10914 3746
10915 1827
10915 3747
10916 1828
10916 3748
10917 1829
10917 3749
10918 1830
10918 3750
10919 1831
10919 3751
10920 1832
10920 3752
10921 1833
10921 3753
10922 1834
10922 3754
10923 1835
10923 3755
10924 1836
10924 3756
10925 1837
10925 3757
10926 1838
10926 3758
10927 1839
10927 3759
10928 1840
10928 3760
10929 1841
10929 3761
10930 1842
10930 3762
10931 1843
10931 3763
10932 1844
10932 3764
10933 1845
10933 3765
10934 1846
10934 3766
10935 1847
10935 3767
10936 1848
10936 3768
10937 1849
10937 3769
10938 1850
10938 3770
10939 1851
10939 3771
10940 1852
10940 3772
10941 1853
10941 3773
10942 1854
10942 3774
10943 1855
10943 3775
10944 1856
10944 3776
10945 1857
10945 3777
10946 1858
10946 3778
10947 1859
10947 3779
10948 1860
10948 3780
10949 1861
10949 3781
10950 1862
10950 3782
10951 1863
10951 3783
10952 1864
10952 3784
10953 1865
10953 3785
10954 1866
10954 3786
10955 1867
10955 3787
10956 1868
10956 3788
10957 1869
10957 3789
10958 1870
10958 3790
10959 1871
10959 3791
10960 1872
10960 3792
10961 1873
10961 3793
10962 1874
10962 3794
10963 1875
10963 3795
10964 1876
10964 3796
10965 1877
10965 3797
10966 1878
10966 3798
10967 1879
10967 3799
10968 1880
10968 3800
10969 1881
10969 3801
10970 1882
10970 3802
10971 1883
10971 3803
10972 1884
10972 3804
10973 1885
10973 3805
10974 1886
10974 3806
10975 1887
10975 3807
10976 1888
10976 3808
10977 1889
10977 3809
10978 1890
10978 3810
10979 1891
10979 3811
10980 1892
10980 3812
10981 1893
10981 3813
10982 1894
10982 3814
10983 1895
10983 3815
10984 1896
10984 3816
10985 1897
10985 3817
10986 1898
10986 3818
10987 1899
10987 3819
10988 1900
10988 3820
10989 1901
10989 3821
10990 1902
10990 3822
10991 1903
10991 3823
10992 1904
10992 3824
10993 1905
10993 3825
10994 1906
10994 3826
10995 1907
10995 3827
10996 1908
10996 3828
10997 1909
10997 3829
10998 1910
10998 3830
10999 1911
10999 3831
11000 1912
11000 3832
11001 1913
11001 3833
11002 1914
11002 3834
11003 1915
11003 3835
11004 1916
11004 3836
11005 1917
11005 3837
11006 1918
11006 3838
11007 1919
11007 3839
11008 1792
11008 3968
11009 1793
11009 3969
11010 1794
11010 3970
11011 1795
11011 3971
11012 1796
11012 3972
11013 1797
11013 3973
11014 1798
11014 3974
11015 1799
11015 3975
11016 1800
11016 3976
11017 1801
11017 3977
11018 1802
11018 3978
11019 1803
11019 3979
11020 1804
11020 3980
11021 1805
11021 3981
11022 1806
11022 3982
11023 1807
11023 3983
11024 1808
11024 3984
11025 1809
11025 3985
11026 1810
11026 3986
11027 1811
11027 3987
11028 1812
11028 3988
11029 1813
11029 3989
11030 1814
11030 3990
11031 1815
11031 3991
11032 1816
11032 3992
11033 1817
11033 3993
11034 1818
11034 3994
11035 1819
11035 3995
11036 1820
11036 3996
11037 1821
11037 3997
11038 1822
11038 3998
11039 1823
11039 3999
11040 1824
11040 4000
11041 1825
11041 4001
11042 1826
11042 4002
11043 1827
11043 4003
11044 1828
11044 4004
11045 1829
11045 4005
11046 1830
11046 4006
11047 1831
11047 4007
11048 1832
11048 4008
11049 1833
11049 4009
11050 1834
11050 4010
11051 1835
11051 4011
11052 1836
11052 4012
11053 1837
11053 4013
11054 1838
11054 4014
11055 1839
11055 4015
11056 1840
11056 4016
11057 1841
11057 4017
11058 1842
11058 4018
11059 1843
11059 4019
11060 1844
11060 4020
11061 1845
11061 4021
11062 1846
11062 4022
11063 1847
11063 4023
11064 1848
11064 4024
11065 1849
11065 4025
11066 1850
11066 4026
11067 1851
11067 4027
11068 1852
11068 4028
11069 1853
11069 4029
11070 1854
11070 4030
11071 1855
11071 4031
11072 1856
11072 4032
11073 1857
11073 4033
11074 1858
11074 4034
11075 1859
11075 4035
11076 1860
11076 4036
11077 1861
11077 4037
11078 1862
11078 4038
11079 1863
11079 4039
11080 1864
11080 4040
11081 1865
11081 4041
11082 1866
11082 4042
11083 1867
11083 4043
11084 1868
11084 4044
11085 1869
11085 4045
11086 1870
11086 4046
11087 1871
11087 4047
11088 1872
11088 4048
11089 1873
11089 4049
11090 1874
11090 4050
11091 1875
11091 4051
11092 1876
11092 4052
11093 1877
11093 4053
11094 1878
11094 4054
11095 1879
11095 4055
11096 1880
11096 4056
11097 1881
11097 4057
11098 1882
11098 4058
11099 1883
11099 4059
11100 1884
11100 4060
11101 1885
11101 4061
11102 1886
11102 4062
11103 1887
11103 4063
11104 1888
11104 4064
11105 1889
11105 4065
11106 1890
11106 4066
11107 1891
11107 4067
11108 1892
11108 4068
11109 1893
11109 4069
11110 1894
11110 4070
11111 1895
11111 4071
11112 1896
11112 4072
11113 1897
11113 4073
11114 1898
11114 4074
11115 1899
11115 4075
11116 1900
11116 4076
11117 1901
11117 4077
11118 1902
11118 4078
11119 1903
11119 4079
11120 1904
11120 4080
11121 1905
11121 4081
11122 1906
11122 4082
11123 1907
11123 4083
11124 1908
11124 4084
11125 1909
11125 4085
11126 1910
11126 4086
11127 1911
11127 4087
11128 1912
11128 4088
11129 1913
11129 4089
11130 1914
11130 4090
11131 1915
11131 4091
11132 1916
11132 4092
11133 1917
11133 4093
11134 1918
11134 4094
11135 1919
11135 4095
11136 1792
11136 4864
11137 1793
11137 4865
11138 1794
11138 4866
11139 1795
11139 4867
11140 1796
11140 4868
11141 1797
11141 4869
11142 1798
11142 4870
11143 1799
11143 4871
11144 1800
11144 4872
11145 1801
11145 4873
11146 1802
11146 4874
11147 1803
11147 4875
11148 1804
11148 4876
11149 1805
11149 4877
11150 1806
11150 4878
11151 1807
11151 4879
11152 1808
11152 4880
11153 1809
11153 4881
11154 1810
11154 4882
11155 1811
11155 4883
11156 1812
11156 4884
11157 1813
11157 4885
11158 1814
11158 4886
11159 1815
11159 4887
11160 1816
11160 4888
11161 1817
11161 4889
11162 1818
11162 4890
11163 1819
11163 4891
11164 1820
11164 4892
11165 1821
11165 4893
11166 1822
11166 4894
11167 1823
11167 4895
11168 1824
11168 4896
11169 1825
11169 4897
11170 1826
11170 4898
11171 1827
11171 4899
11172 1828
11172 4900
11173 1829
11173 4901
11174 1830
11174 4902
11175 1831
11175 4903
11176 1832
11176 4904
11177 1833
11177 4905
11178 1834
11178 4906
11179 1835
11179 4907
11180 1836
11180 4908
11181 1837
11181 4909
11182 1838
11182 4910
11183 1839
11183 4911
11184 1840
11184 4912
11185 1841
11185 4913
11186 1842
11186 4914
11187 1843
11187 4915
11188 1844
11188 4916
11189 1845
11189 4917
11190 1846
11190 4918
11191 1847
11191 4919
11192 1848
11192 4920
11193 1849
11193 4921
11194 1850
11194 4922
11195 1851
11195 4923
11196 1852
11196 4924
11197 1853
11197 4925
11198 1854
11198 4926
11199 1855
11199 4927
11200 1856
11200 4928
11201 1857
11201 4929
11202 1858
11202 4930
11203 1859
11203 4931
11204 1860
11204 4932
11205 1861
11205 4933
11206 1862
11206 4934
11207 1863
11207 4935
11208 1864
11208 4936
11209 1865
11209 4937
11210 1866
11210 4938
11211 1867
11211 4939
11212 1868
11212 4940
11213 1869
11213 4941
11214 1870
11214 4942
11215 1871
11215 4943
11216 1872
11216 4944
11217 1873
11217 4945
11218 1874
11218 4946
11219 1875
11219 4947
11220 1876
11220 4948
11221 1877
11221 4949
11222 1878
11222 4950
11223 1879
11223 4951
11224 1880
11224 4952
11225 1881
11225 4953
11226 1882
11226 4954
11227 1883
11227 4955
11228 1884
11228 4956
11229 1885
11229 4957
11230 1886
11230 4958
11231 1887
11231 4959
11232 1888
11232 4960
11233 1889
11233 4961
11234 1890
11234 4962
11235 1891
11235 4963
11236 1892
11236 4964
11237 1893
11237 4965
11238 1894
11238 4966
11239 1895
11239 4967
11240 1896
11240 4968
11241 1897
11241 4969
11242 1898
11242 4970
11243 1899
11243 4971
11244 1900
11244 4972
11245 1901
11245 4973
11246 1902
11246 4974
11247 1903
11247 4975
11248 1904
11248 4976
11249 1905
11249 4977
11250 1906
11250 4978
11251 1907
11251 4979
11252 1908
11252 4980
11253 1909
11253 4981
11254 1910
11254 4982
11255 1911
11255 4983
11256 1912
11256 4984
11257 1913
11257 4985
11258 1914
11258 4986
11259 1915
11259 4987
11260 1916
11260 4988
11261 1917
11261 4989
11262 1918
11262 4990
11263 1919
11263 4991
11264 1792
11264 5120
11265 1793
11265 5121
11266 1794
11266 5122
11267 1795
11267 5123
11268 1796
11268 5124
11269 1797
11269 5125
11270 1798
11270 5126
11271 1799
11271 5127
11272 1800
11272 5128
11273 1801
11273 5129
11274 1802
11274 5130
11275 1803
11275 5131
11276 1804
11276 5132
11277 1805
11277 5133
11278 1806
11278 5134
11279 1807
11279 5135
11280 1808
11280 5136
11281 1809
11281 5137
11282 1810
11282 5138
11283 1811
11283 5139
11284 1812
11284 5140
11285 1813
11285 5141
11286 1814
11286 5142
11287 1815
11287 5143
11288 1816
11288 5144
11289 1817
11289 5145
11290 1818
11290 5146
11291 1819
11291 5147
11292 1820
11292 5148
11293 1821
11293 5149
11294 1822
11294 5150
11295 1823
11295 5151
11296 1824
11296 5152
11297 1825
11297 5153
11298 1826
11298 5154
11299 1827
11299 5155
11300 1828
11300 5156
11301 1829
11301 5157
11302 1830
11302 5158
11303 1831
11303 5159
11304 1832
11304 5160
11305 1833
11305 5161
11306 1834
11306 5162
11307 1835
11307 5163
11308 1836
11308 5164
11309 1837
11309 5165
11310 1838
11310 5166
11311 1839
11311 5167
11312 1840
11312 5168
11313 1841
11313 5169
11314 1842
11314 5170
11315 1843
11315 5171
11316 1844
11316 5172
11317 1845
11317 5173
11318 1846
11318 5174
11319 1847
11319 5175
11320 1848
11320 5176
11321 1849
11321 5177
11322 1850
11322 5178
11323 1851
11323 5179
11324 1852
11324 5180
11325 1853
11325 5181
11326 1854
11326 5182
11327 1855
11327 5183
11328 1856
11328 5184
11329 1857
11329 5185
11330 1858
11330 5186
11331 1859
11331 5187
11332 1860
11332 5188
11333 1861
11333 5189
11334 1862
11334 5190
11335 1863
11335 5191
11336 1864
11336 5192
11337 1865
11337 5193
11338 1866
11338 5194
11339 1867
11339 5195
11340 1868
11340 5196
11341 1869
11341 5197
11342 1870
11342 5198
11343 1871
11343 5199
11344 1872
11344 5200
11345 1873
11345 5201
11346 1874
11346 5202
11347 1875
11347 5203
11348 1876
11348 5204
11349 1877
11349 5205
11350 1878
11350 5206
11351 1879
11351 5207
11352 1880
11352 5208
11353 1881
11353 5209
11354 1882
11354 5210
11355 1883
11355 5211
11356 1884
11356 5212
11357 1885
11357 5213
11358 1886
11358 5214
11359 1887
11359 5215
11360 1888
11360 5216
11361 1889
11361 5217
11362 1890
11362 5218
11363 1891
11363 5219
11364 1892
11364 5220
11365 1893
11365 5221
11366 1894
11366 5222
11367 1895
11367 5223
11368 1896
11368 5224
11369 1897
11369 5225
11370 1898
11370 5226
11371 1899
11371 5227
11372 1900
11372 5228
11373 1901
11373 5229
11374 1902
11374 5230
11375 1903
11375 5231
11376 1904
11376 5232
11377 1905
11377 5233
11378 1906
11378 5234
11379 1907
11379 5235
11380 1908
11380 5236
11381 1909
11381 5237
11382 1910
11382 5238
11383 1911
11383 5239
11384 1912
11384 5240
11385 1913
11385 5241
11386 1914
11386 5242
11387 1915
11387 5243
11388 1916
11388 5244
11389 1917
11389 5245
11390 1918
11390 5246
11391 1919
11391 5247
11392 1792
11392 6016
11393 1793
11393 6017
11394 1794
11394 6018
11395 1795
11395 6019
11396 1796
11396 6020
11397 1797
11397 6021
11398 1798
11398 6022
11399 1799
11399 6023
11400 1800
11400 6024
11401 1801
11401 6025
11402 1802
11402 6026
11403 1803
11403 6027
11404 1804
11404 6028
11405 1805
11405 6029
11406 1806
11406 6030
11407 1807
11407 6031
11408 1808
11408 6032
11409 1809
11409 6033
11410 1810
11410 6034
11411 1811
11411 6035
11412 1812
11412 6036
11413 1813
11413 6037
11414 1814
11414 6038
11415 1815
11415 6039
11416 1816
11416 6040
11417 1817
11417 6041
11418 1818
11418 6042
11419 1819
11419 6043
11420 1820
11420 6044
11421 1821
11421 6045
11422 1822
11422 6046
11423 1823
11423 6047
11424 1824
11424 6048
11425 1825
11425 6049
11426 1826
11426 6050
11427 1827
11427 6051
11428 1828
11428 6052
11429 1829
11429 6053
11430 1830
11430 6054
11431 1831
11431 6055
11432 1832
11432 6056
11433 1833
11433 6057
11434 1834
11434 6058
11435 1835
11435 6059
11436 1836
11436 6060
11437 1837
11437 6061
11438 1838
11438 6062
11439 1839
11439 6063
11440 1840
11440 6064
11441 1841
11441 6065
11442 1842
11442 6066
11443 1843
11443 6067
11444 1844
11444 6068
11445 1845
11445 6069
11446 1846
11446 6070
11447 1847
11447 6071
11448 1848
11448 6072
11449 1849
11449 6073
11450 1850
11450 6074
11451 1851
11451 6075
11452 1852
11452 6076
11453 1853
11453 6077
11454 1854
11454 6078
11455 1855
11455 6079
11456 1856
11456 6080
11457 1857
11457 6081
11458 1858
11458 6082
11459 1859
11459 6083
11460 1860
11460 6084
11461 1861
11461 6085
11462 1862
11462 6086
11463 1863
11463 6087
11464 1864
11464 6088
11465 1865
11465 6089
11466 1866
11466 6090
11467 1867
11467 6091
11468 1868
11468 6092
11469 1869
11469 6093
11470 1870
11470 6094
11471 1871
11471 6095
11472 1872
11472 6096
11473 1873
11473 6097
11474 1874
11474 6098
11475 1875
11475 6099
11476 1876
11476 6100
11477 1877
11477 6101
11478 1878
11478 6102
11479 1879
11479 6103
11480 1880
11480 6104
11481 1881
11481 6105
11482 1882
11482 6106
11483 1883
11483 6107
11484 1884
11484 6108
11485 1885
11485 6109
11486 1886
11486 6110
11487 1887
11487 6111
11488 1888
11488 6112
11489 1889
11489 6113
11490 1890
11490 6114
11491 1891
11491 6115
11492 1892
11492 6116
11493 1893
11493 6117
11494 1894
11494 6118
11495 1895
11495 6119
11496 1896
11496 6120
11497 1897
11497 6121
11498 1898
11498 6122
11499 1899
11499 6123
11500 1900
11500 6124
11501 1901
11501 6125
11502 1902
11502 6126
11503 1903
11503 6127
11504 1904
11504 6128
11505 1905
11505 6129
11506 1906
11506 6130
11507 1907
11507 6131
11508 1908
11508 6132
11509 1909
11509 6133
11510 1910
11510 6134
11511 1911
11511 6135
11512 1912
11512 6136
11513 1913
11513 6137
11514 1914
11514 6138
11515 1915
11515 6139
11516 1916
11516 6140
11517 1917
11517 6141
11518 1918
11518 6142
11519 1919
11519 6143
11520 1920
11520 2048
11521 1921
11521 2049
11522 1922
11522 2050
11523 1923
11523 2051
11524 1924
11524 2052
11525 1925
11525 2053
11526 1926
11526 2054
11527 1927
11527 2055
11528 1928
11528 2056
11529 1929
11529 2057
11530 1930
11530 2058
11531 1931
11531 2059
11532 1932
11532 2060
11533 1933
11533 2061
11534 1934
11534 2062
11535 1935
11535 2063
11536 1936
11536 2064
11537 1937
11537 2065
11538 1938
11538 2066
11539 1939
11539 2067
11540 1940
11540 2068
11541 1941
11541 2069
11542 1942
11542 2070
11543 1943
11543 2071
11544 1944
11544 2072
11545 1945
11545 2073
11546 1946
11546 2074
11547 1947
11547 2075
11548 1948
11548 2076
11549 1949
11549 2077
11550 1950
11550 2078
11551 1951
11551 2079
11552 1952
11552 2080
11553 1953
11553 2081
11554 1954
11554 2082
11555 1955
11555 2083
11556 1956
11556 2084
11557 1957
11557 2085
11558 1958
11558 2086
11559 1959
11559 2087
11560 1960
11560 2088
11561 1961
11561 2089
11562 1962
11562 2090
11563 1963
11563 2091
11564 1964
11564 2092
11565 1965
11565 2093
11566 1966
11566 2094
11567 1967
11567 2095
11568 1968
11568 2096
11569 1969
11569 2097
11570 1970
11570 2098
11571 1971
11571 2099
11572 1972
11572 2100
11573 1973
11573 2101
11574 1974
11574 2102
11575 1975
11575 2103
11576 1976
11576 2104
11577 1977
11577 2105
11578 1978
11578 2106
11579 1979
11579 2107
11580 1980
11580 2108
11581 1981
11581 2109
11582 1982
11582 2110
11583 1983
11583 2111
11584 1984
11584 2112
11585 1985
11585 2113
11586 1986
11586 2114
11587 1987
11587 2115
11588 1988
11588 2116
11589 1989
11589 2117
11590 1990
11590 2118
11591 1991
11591 2119
11592 1992
11592 2120
11593 1993
11593 2121
11594 1994
11594 2122
11595 1995
11595 2123
11596 1996
11596 2124
11597 1997
11597 2125
11598 1998
11598 2126
11599 1999
11599 2127
11600 2000
11600 2128
11601 2001
11601 2129
11602 2002
11602 2130
11603 2003
11603 2131
11604 2004
11604 2132
11605 2005
11605 2133
11606 2006
11606 2134
11607 2007
11607 2135
11608 2008
11608 2136
11609 2009
11609 2137
11610 2010
11610 2138
11611 2011
11611 2139
11612 2012
11612 2140
11613 2013
11613 2141
11614 2014
11614 2142
11615 2015
11615 2143
11616 2016
11616 2144
11617 2017
11617 2145
11618 2018
11618 2146
11619 2019
11619 2147
11620 2020
11620 2148
11621 2021
11621 2149
11622 2022
11622 2150
11623 2023
11623 2151
11624 2024
11624 2152
11625 2025
11625 2153
11626 2026
11626 2154
11627 2027
11627 2155
11628 2028
11628 2156
11629 2029
11629 2157
11630 2030
11630 2158
11631 2031
11631 2159
11632 2032
11632 2160
11633 2033
11633 2161
11634 2034
11634 2162
11635 2035
11635 2163
11636 2036
11636 2164
11637 2037
11637 2165
11638 2038
11638 2166
11639 2039
11639 2167
11640 2040
11640 2168
11641 2041
11641 2169
11642 2042
11642 2170
11643 2043
11643 2171
11644 2044
11644 2172
11645 2045
11645 2173
11646 2046
11646 2174
11647 2047
11647 2175
11648 1920
11648 2432
11649 1921
11649 2433
11650 1922
11650 2434
11651 1923
11651 2435
11652 1924
11652 2436
11653 1925
11653 2437
11654 1926
11654 2438
11655 1927
11655 2439
11656 1928
11656 2440
11657 1929
11657 2441
11658 1930
11658 2442
11659 1931
11659 2443
11660 1932
11660 2444
11661 1933
11661 2445
11662 1934
11662 2446
11663 1935
11663 2447
11664 1936
11664 2448
11665 1937
11665 2449
11666 1938
11666 2450
11667 1939
11667 2451
11668 1940
11668 2452
11669 1941
11669 2453
11670 1942
11670 2454
11671 1943
11671 2455
11672 1944
11672 2456
11673 1945
11673 2457
11674 1946
11674 2458
11675 1947
11675 2459
11676 1948
11676 2460
11677 1949
11677 2461
11678 1950
11678 2462
11679 1951
11679 2463
11680 1952
11680 2464
11681 1953
11681 2465
11682 1954
11682 2466
11683 1955
11683 2467
11684 1956
11684 2468
11685 1957
11685 2469
11686 1958
11686 2470
11687 1959
11687 2471
11688 1960
11688 2472
11689 1961
11689 2473
11690 1962
11690 2474
11691 1963
11691 2475
11692 1964
11692 2476
11693 1965
11693 2477
11694 1966
11694 2478
11695 1967
11695 2479
11696 1968
11696 2480
11697 1969
11697 2481
11698 1970
11698 2482
11699 1971
11699 2483
11700 1972
11700 2484
11701 1973
11701 2485
11702 1974
11702 2486
11703 1975
11703 2487
11704 1976
11704 2488
11705 1977
11705 2489
11706 1978
11706 2490
11707 1979
11707 2491
11708 1980
11708 2492
11709 1981
11709 2493
11710 1982
11710 2494
11711 1983
11711 2495
11712 1984
11712 2496
11713 1985
11713 2497
11714 1986
11714 2498
11715 1987
11715 2499
11716 1988
11716 2500
11717 1989
11717 2501
11718 1990
11718 2502
11719 1991
11719 2503
11720 1992
11720 2504
11721 1993
11721 2505
11722 1994
11722 2506
11723 1995
11723 2507
11724 1996
11724 2508
11725 1997
11725 2509
11726 1998
11726 2510
11727 1999
11727 2511
11728 2000
11728 2512
11729 2001
11729 2513
11730 2002
11730 2514
11731 2003
11731 2515
11732 2004
11732 2516
11733 2005
11733 2517
11734 2006
11734 2518
11735 2007
11735 2519
11736 2008
11736 2520
11737 2009
11737 2521
11738 2010
11738 2522
11739 2011
11739 2523
11740 2012
11740 2524
11741 2013
11741 2525
11742 2014
11742 2526
11743 2015
11743 2527
11744 2016
11744 2528
11745 2017
11745 2529
11746 2018
11746 2530
11747 2019
11747 2531
11748 2020
11748 2532
11749 2021
11749 2533
11750 2022
11750 2534
11751 2023
11751 2535
11752 2024
11752 2536
11753 2025
11753 2537
11754 2026
11754 2538
11755 2027
11755 2539
11756 2028
11756 2540
11757 2029
11757 2541
11758 2030
11758 2542
11759 2031
11759 2543
11760 2032
11760 2544
11761 2033
11761 2545
11762 2034
11762 2546
11763 2035
11763 2547
11764 2036
11764 2548
11765 2037
11765 2549
11766 2038
11766 2550
11767 2039
11767 2551
11768 2040
11768 2552
11769 2041
11769 2553
11770 2042
11770 2554
11771 2043
11771 2555
11772 2044
11772 2556
11773 2045
11773 2557
11774 2046
11774 2558
11775 2047
11775 2559
11776 1920
11776 3200
11777 1921
11777 3201
11778 1922
11778 3202
11779 1923
11779 3203
11780 1924
11780 3204
11781 1925
11781 3205
11782 1926
11782 3206
11783 1927
11783 3207
11784 1928
11784 3208
11785 1929
11785 3209
11786 1930
11786 3210
11787 1931
11787 3211
11788 1932
11788 3212
11789 1933
11789 3213
11790 1934
11790 3214
11791 1935
11791 3215
11792 1936
11792 3216
11793 1937
11793 3217
11794 1938
11794 3218
11795 1939
11795 3219
11796 1940
11796 3220
11797 1941
11797 3221
11798 1942
11798 3222
11799 1943
11799 3223
11800 1944
11800 3224
11801 1945
11801 3225
11802 1946
11802 3226
11803 1947
11803 3227
11804 1948
11804 3228
11805 1949
11805 3229
11806 1950
11806 3230
11807 1951
11807 3231
11808 1952
11808 3232
11809 1953
11809 3233
11810 1954
11810 3234
11811 1955
11811 3235
11812 1956
11812 3236
11813 1957
11813 3237
11814 1958
11814 3238
11815 1959
11815 3239
11816 1960
11816 3240
11817 1961
11817 3241
11818 1962
11818 3242
11819 1963
11819 3243
11820 1964
11820 3244
11821 1965
11821 3245
11822 1966
11822 3246
11823 1967
11823 3247
11824 1968
11824 3248
11825 1969
11825 3249
11826 1970
11826 3250
11827 1971
11827 3251
11828 1972
11828 3252
11829 1973
11829 3253
11830 1974
11830 3254
11831 1975
11831 3255
11832 1976
11832 3256
11833 1977
11833 3257
11834 1978
11834 3258
11835 1979
11835 3259
11836 1980
11836 3260
11837 1981
11837 3261
11838 1982
11838 3262
11839 1983
11839 3263
11840 1984
11840 3264
11841 1985
11841 3265
11842 1986
11842 3266
11843 1987
11843 3267
11844 1988
11844 3268
11845 1989
11845 3269
11846 1990
11846 3270
11847 1991
11847 3271
11848 1992
11848 3272
11849 1993
11849 3273
11850 1994
11850 3274
11851 1995
11851 3275
11852 1996
11852 3276
11853 1997
11853 3277
11854 1998
11854 3278
11855 1999
11855 3279
11856 2000
11856 3280
11857 2001
11857 3281
11858 2002
11858 3282
11859 2003
11859 3283
11860 2004
11860 3284
11861 2005
11861 3285
11862 2006
11862 3286
11863 2007
11863 3287
11864 2008
11864 3288
11865 2009
11865 3289
11866 2010
11866 3290
11867 2011
11867 3291
11868 2012
11868 3292
11869 2013
11869 3293
11870 2014
11870 3294
11871 2015
11871 3295
11872 2016
11872 3296
11873 2017
11873 3297
11874 2018
11874 3298
11875 2019
11875 3299
11876 2020
11876 3300
11877 2021
11877 3301
11878 2022
11878 3302
11879 2023
11879 3303
11880 2024
11880 3304
11881 2025
11881 3305
11882 2026
11882 3306
11883 2027
11883 3307
11884 2028
11884 3308
11885 2029
11885 3309
11886 2030
11886 3310
11887 2031
11887 3311
11888 2032
11888 3312
11889 2033
11889 3313
11890 2034
11890 3314
11891 2035
11891 3315
11892 2036
11892 3316
11893 2037
11893 3317
11894 2038
11894 3318
11895 2039
11895 3319
11896 2040
11896 3320
11897 2041
11897 3321
11898 2042
11898 3322
11899 2043
11899 3323
11900 2044
11900 3324
11901 2045
11901 3325
11902 2046
11902 3326
11903 2047
11903 3327
11904 1920
11904 4224
11905 1921
11905 4225
11906 1922
11906 4226
11907 1923
11907 4227
11908 1924
11908 4228
11909 1925
11909 4229
11910 1926
11910 4230
11911 1927
11911 4231
11912 1928
11912 4232
11913 1929
11913 4233
11914 1930
11914 4234
11915 1931
11915 4235
11916 1932
11916 4236
11917 1933
11917 4237
11918 1934
11918 4238
11919 1935
11919 4239
11920 1936
11920 4240
11921 1937
11921 4241
11922 1938
11922 4242
11923 1939
11923 4243
11924 1940
11924 4244
11925 1941
11925 4245
11926 1942
11926 4246
11927 1943
11927 4247
11928 1944
11928 4248
11929 1945
11929 4249
11930 1946
11930 4250
11931 1947
11931 4251
11932 1948
11932 4252
11933 1949
11933 4253
11934 1950
11934 4254
11935 1951
11935 4255
11936 1952
11936 4256
11937 1953
11937 4257
11938 1954
11938 4258
11939 1955
11939 4259
11940 1956
11940 4260
11941 1957
11941 4261
11942 1958
11942 4262
11943 1959
11943 4263
11944 1960
11944 4264
11945 1961
11945 4265
11946 1962
11946 4266
11947 1963
11947 4267
11948 1964
11948 4268
11949 1965
11949 4269
11950 1966
11950 4270
11951 1967
11951 4271
11952 1968
11952 4272
11953 1969
11953 4273
11954 1970
11954 4274
11955 1971
11955 4275
11956 1972
11956 4276
11957 1973
11957 4277
11958 1974
11958 4278
11959 1975
11959 4279
11960 1976
11960 4280
11961 1977
11961 4281
11962 1978
11962 4282
11963 1979
11963 4283
11964 1980
11964 4284
11965 1981
11965 4285
11966 1982
11966 4286
11967 1983
11967 4287
11968 1984
11968 4288
11969 1985
11969 4289
11970 1986
11970 4290
11971 1987
11971 4291
11972 1988
11972 4292
11973 1989
11973 4293
11974 1990
11974 4294
11975 1991
11975 4295
11976 1992
11976 4296
11977 1993
11977 4297
11978 1994
11978 4298
11979 1995
11979 4299
11980 1996
11980 4300
11981 1997
11981 4301
11982 1998
11982 4302
11983 1999
11983 4303
11984 2000
11984 4304
11985 2001
11985 4305
11986 2002
11986 4306
11987 2003
11987 4307
11988 2004
11988 4308
11989 2005
11989 4309
11990 2006
11990 4310
11991 2007
11991 4311
11992 2008
11992 4312
11993 2009
11993 4313
11994 2010
11994 4314
11995 2011
11995 4315
11996 2012
11996 4316
11997 2013
11997 4317
11998 2014
11998 4318
11999 2015
11999 4319
12000 2016
12000 4320
12001 2017
12001 4321
12002 2018
12002 4322
12003 2019
12003 4323
12004 2020
12004 4324
12005 2021
12005 4325
12006 2022
12006 4326
12007 2023
12007 4327
12008 2024
12008 4328
12009 2025
12009 4329
12010 2026
12010 4330
12011 2027
12011 4331
12012 2028
12012 4332
12013 2029
12013 4333
12014 2030
12014 4334
12015 2031
12015 4335
12016 2032
12016 4336
12017 2033
12017 4337
12018 2034
12018 4338
12019 2035
12019 4339
12020 2036
12020 4340
12021 2037
12021 4341
12022 2038
12022 4342
12023 2039
12023 4343
12024 2040
12024 4344
12025 2041
12025 4345
12026 2042
12026 4346
12027 2043
12027 4347
12028 2044
12028 4348
12029 2045
12029 4349
12030 2046
12030 4350
12031 2047
12031 4351
12032 1920
12032 4608
12033 1921
12033 4609
12034 1922
12034 4610
12035 1923
12035 4611
12036 1924
12036 4612
12037 1925
12037 4613
12038 1926
12038 4614
12039 1927
12039 4615
12040 1928
12040 4616
12041 1929
12041 4617
12042 1930
12042 4618
12043 1931
12043 4619
12044 1932
12044 4620
12045 1933
12045 4621
12046 1934
12046 4622
12047 1935
12047 4623
12048 1936
12048 4624
12049 1937
12049 4625
12050 1938
12050 4626
12051 1939
12051 4627
12052 1940
12052 4628
12053 1941
12053 4629
12054 1942
12054 4630
12055 1943
12055 4631
12056 1944
12056 4632
12057 1945
12057 4633
12058 1946
12058 4634
12059 1947
12059 4635
12060 1948
12060 4636
12061 1949
12061 4637
12062 1950
12062 4638
12063 1951
12063 4639
12064 1952
12064 4640
12065 1953
12065 4641
12066 1954
12066 4642
12067 1955
12067 4643
12068 1956
12068 4644
12069 1957
12069 4645
12070 1958
12070 4646
12071 1959
12071 4647
12072 1960
12072 4648
12073 1961
12073 4649
12074 1962
12074 4650
12075 1963
12075 4651
12076 1964
12076 4652
12077 1965
12077 4653
12078 1966
12078 4654
12079 1967
12079 4655
12080 1968
12080 4656
12081 1969
12081 4657
12082 1970
12082 4658
12083 1971
12083 4659
12084 1972
12084 4660
12085 1973
12085 4661
12086 1974
12086 4662
12087 1975
12087 4663
12088 1976
12088 4664
12089 1977
12089 4665
12090 1978
12090 4666
12091 1979
12091 4667
12092 1980
12092 4668
12093 1981
12093 4669
12094 1982
12094 4670
12095 1983
12095 4671
12096 1984
12096 4672
12097 1985
12097 4673
12098 1986
12098 4674
12099 1987
12099 4675
12100 1988
12100 4676
12101 1989
12101 4677
12102 1990
12102 4678
12103 1991
12103 4679
12104 1992
12104 4680
12105 1993
12105 4681
12106 1994
12106 4682
12107 1995
12107 4683
12108 1996
12108 4684
12109 1997
12109 4685
12110 1998
12110 4686
12111 1999
12111 4687
12112 2000
12112 4688
12113 2001
12113 4689
12114 2002
12114 4690
12115 2003
12115 4691
12116 2004
12116 4692
12117 2005
12117 4693
12118 2006
12118 4694
12119 2007
12119 4695
12120 2008
12120 4696
12121 2009
12121 4697
12122 2010
12122 4698
12123 2011
12123 4699
12124 2012
12124 4700
12125 2013
12125 4701
12126 2014
12126 4702
12127 2015
12127 4703
12128 2016
12128 4704
12129 2017
12129 4705
12130 2018
12130 4706
12131 2019
12131 4707
12132 2020
12132 4708
12133 2021
12133 4709
12134 2022
12134 4710
12135 2023
12135 4711
12136 2024
12136 4712
12137 2025
12137 4713
12138 2026
12138 4714
12139 2027
12139 4715
12140 2028
12140 4716
12141 2029
12141 4717
12142 2030
12142 4718
12143 2031
12143 4719
12144 2032
12144 4720
12145 2033
12145 4721
12146 2034
12146 4722
12147 2035
12147 4723
12148 2036
12148 4724
12149 2037
12149 4725
12150 2038
12150 4726
12151 2039
12151 4727
12152 2040
12152 4728
12153 2041
12153 4729
12154 2042
12154 4730
12155 2043
12155 4731
12156 2044
12156 4732
12157 2045
12157 4733
12158 2046
12158 4734
12159 2047
12159 4735
12160 1920
12160 5632
12161 1921
12161 5633
12162 1922
12162 5634
12163 1923
12163 5635
12164 1924
12164 5636
12165 1925
12165 5637
12166 1926
12166 5638
12167 1927
12167 5639
12168 1928
12168 5640
12169 1929
12169 5641
12170 1930
12170 5642
12171 1931
12171 5643
12172 1932
12172 5644
12173 1933
12173 5645
12174 1934
12174 5646
12175 1935
12175 5647
12176 1936
12176 5648
12177 1937
12177 5649
12178 1938
12178 5650
12179 1939
12179 5651
12180 1940
12180 5652
12181 1941
12181 5653
12182 1942
12182 5654
12183 1943
12183 5655
12184 1944
12184 5656
12185 1945
12185 5657
12186 1946
12186 5658
12187 1947
12187 5659
12188 1948
12188 5660
12189 1949
12189 5661
12190 1950
12190 5662
12191 1951
12191 5663
12192 1952
12192 5664
12193 1953
12193 5665
12194 1954
12194 5666
12195 1955
12195 5667
12196 1956
12196 5668
12197 1957
12197 5669
12198 1958
12198 5670
12199 1959
12199 5671
12200 1960
12200 5672
12201 1961
12201 5673
12202 1962
12202 5674
12203 1963
12203 5675
12204 1964
12204 5676
12205 1965
12205 5677
12206 1966
12206 5678
12207 1967
12207 5679
12208 1968
12208 5680
12209 1969
12209 5681
12210 1970
12210 5682
12211 1971
12211 5683
12212 1972
12212 5684
12213 1973
12213 5685
12214 1974
12214 5686
12215 1975
12215 5687
12216 1976
12216 5688
12217 1977
12217 5689
12218 1978
12218 5690
12219 1979
12219 5691
12220 1980
12220 5692
12221 1981
12221 5693
12222 1982
12222 5694
12223 1983
12223 5695
12224 1984
12224 5696
12225 1985
12225 5697
12226 1986
12226 5698
12227 1987
12227 5699
12228 1988
12228 5700
12229 1989
12229 5701
12230 1990
12230 5702
12231 1991
12231 5703
12232 1992
12232 5704
12233 1993
12233 5705
12234 1994
12234 5706
12235 1995
12235 5707
12236 1996
12236 5708
12237 1997
12237 5709
12238 1998
12238 5710
12239 1999
12239 5711
12240 2000
12240 5712
12241 2001
12241 5713
12242 2002
12242 5714
12243 2003
12243 5715
12244 2004
12244 5716
12245 2005
12245 5717
12246 2006
12246 5718
12247 2007
12247 5719
12248 2008
12248 5720
12249 2009
12249 5721
12250 2010
12250 5722
12251 2011
12251 5723
12252 2012
12252 5724
12253 2013
12253 5725
12254 2014
12254 5726
12255 2015
12255 5727
12256 2016
12256 5728
12257 2017
12257 5729
12258 2018
12258 5730
12259 2019
12259 5731
12260 2020
12260 5732
12261 2021
12261 5733
12262 2022
12262 5734
12263 2023
12263 5735
12264 2024
12264 5736
12265 2025
12265 5737
12266 2026
12266 5738
12267 2027
12267 5739
12268 2028
12268 5740
12269 2029
12269 5741
12270 2030
12270 5742
12271 2031
12271 5743
12272 2032
12272 5744
12273 2033
12273 5745
12274 2034
12274 5746
12275 2035
12275 5747
12276 2036
12276 5748
12277 2037
12277 5749
12278 2038
12278 5750
12279 2039
12279 5751
12280 2040
12280 5752
12281 2041
12281 5753
12282 2042
12282 5754
12283 2043
12283 5755
12284 2044
12284 5756
12285 2045
12285 5757
12286 2046
12286 5758
12287 2047
12287 5759
12288 1920
12288 6016
12289 1921
12289 6017
12290 1922
12290 6018
12291 1923
12291 6019
12292 1924
12292 6020
12293 1925
12293 6021
12294 1926
12294 6022
12295 1927
12295 6023
12296 1928
12296 6024
12297 1929
12297 6025
12298 1930
12298 6026
12299 1931
12299 6027
12300 1932
12300 6028
12301 1933
12301 6029
12302 1934
12302 6030
12303 1935
12303 6031
12304 1936
12304 6032
12305 1937
12305 6033
12306 1938
12306 6034
12307 1939
12307 6035
12308 1940
12308 6036
12309 1941
12309 6037
12310 1942
12310 6038
12311 1943
12311 6039
12312 1944
12312 6040
12313 1945
12313 6041
12314 1946
12314 6042
12315 1947
12315 6043
12316 1948
12316 6044
12317 1949
12317 6045
12318 1950
12318 6046
12319 1951
12319 6047
12320 1952
12320 6048
12321 1953
12321 6049
12322 1954
12322 6050
12323 1955
12323 6051
12324 1956
12324 6052
12325 1957
12325 6053
12326 1958
12326 6054
12327 1959
12327 6055
12328 1960
12328 6056
12329 1961
12329 6057
12330 1962
12330 6058
12331 1963
12331 6059
12332 1964
12332 6060
12333 1965
12333 6061
12334 1966
12334 6062
12335 1967
12335 6063
12336 1968
12336 6064
12337 1969
12337 6065
12338 1970
12338 6066
12339 1971
12339 6067
12340 1972
12340 6068
12341 1973
12341 6069
12342 1974
12342 6070
12343 1975
12343 6071
12344 1976
12344 6072
12345 1977
12345 6073
12346 1978
12346 6074
12347 1979
12347 6075
12348 1980
12348 6076
12349 1981
12349 6077
12350 1982
12350 6078
12351 1983
12351 6079
12352 1984
12352 6080
12353 1985
12353 6081
12354 1986
12354 6082
12355 1987
12355 6083
12356 1988
12356 6084
12357 1989
12357 6085
12358 1990
12358 6086
12359 1991
12359 6087
12360 1992
12360 6088
12361 1993
12361 6089
12362 1994
12362 6090
12363 1995
12363 6091
12364 1996
12364 6092
12365 1997
12365 6093
12366 1998
12366 6094
12367 1999
12367 6095
12368 2000
12368 6096
12369 2001
12369 6097
12370 2002
12370 6098
12371 2003
12371 6099
12372 2004
12372 6100
12373 2005
12373 6101
12374 2006
12374 6102
12375 2007
12375 6103
12376 2008
12376 6104
12377 2009
12377 6105
12378 2010
12378 6106
12379 2011
12379 6107
12380 2012
12380 6108
12381 2013
12381 6109
12382 2014
12382 6110
12383 2015
12383 6111
12384 2016
12384 6112
12385 2017
12385 6113
12386 2018
12386 6114
12387 2019
12387 6115
12388 2020
12388 6116
12389 2021
12389 6117
12390 2022
12390 6118
12391 2023
12391 6119
12392 2024
12392 6120
12393 2025
12393 6121
12394 2026
12394 6122
12395 2027
12395 6123
12396 2028
12396 6124
12397 2029
12397 6125
12398 2030
12398 6126
12399 2031
12399 6127
12400 2032
12400 6128
12401 2033
12401 6129
12402 2034
12402 6130
12403 2035
12403 6131
12404 2036
12404 6132
12405 2037
12405 6133
12406 2038
12406 6134
12407 2039
12407 6135
12408 2040
12408 6136
12409 2041
12409 6137
12410 2042
12410 6138
12411 2043
12411 6139
12412 2044
12412 6140
12413 2045
12413 6141
12414 2046
12414 6142
12415 2047
12415 6143
12416 2048
12416 2176
12417 2049
12417 2177
12418 2050
12418 2178
12419 2051
12419 2179
12420 2052
12420 2180
12421 2053
12421 2181
12422 2054
12422 2182
12423 2055
12423 2183
12424 2056
12424 2184
12425 2057
12425 2185
12426 2058
12426 2186
12427 2059
12427 2187
12428 2060
12428 2188
12429 2061
12429 2189
12430 2062
12430 2190
12431 2063
12431 2191
12432 2064
12432 2192
12433 2065
12433 2193
12434 2066
12434 2194
12435 2067
12435 2195
12436 2068
12436 2196
12437 2069
12437 2197
12438 2070
12438 2198
12439 2071
12439 2199
12440 2072
12440 2200
12441 2073
12441 2201
12442 2074
12442 2202
12443 2075
12443 2203
12444 2076
12444 2204
12445 2077
12445 2205
12446 2078
12446 2206
12447 2079
12447 2207
12448 2080
12448 2208
12449 2081
12449 2209
12450 2082
12450 2210
12451 2083
12451 2211
12452 2084
12452 2212
12453 2085
12453 2213
12454 2086
12454 2214
12455 2087
12455 2215
12456 2088
12456 2216
12457 2089
12457 2217
12458 2090
12458 2218
12459 2091
12459 2219
12460 2092
12460 2220
12461 2093
12461 2221
12462 2094
12462 2222
12463 2095
12463 2223
12464 2096
12464 2224
12465 2097
12465 2225
12466 2098
12466 2226
12467 2099
12467 2227
12468 2100
12468 2228
12469 2101
12469 2229
12470 2102
12470 2230
12471 2103
12471 2231
12472 2104
12472 2232
12473 2105
12473 2233
12474 2106
12474 2234
12475 2107
12475 2235
12476 2108
12476 2236
12477 2109
12477 2237
12478 2110
12478 2238
12479 2111
12479 2239
12480 2112
12480 2240
12481 2113
12481 2241
12482 2114
12482 2242
12483 2115
12483 2243
12484 2116
12484 2244
12485 2117
12485 2245
12486 2118
12486 2246
12487 2119
12487 2247
12488 2120
12488 2248
12489 2121
12489 2249
12490 2122
12490 2250
12491 2123
12491 2251
12492 2124
12492 2252
12493 2125
12493 2253
12494 2126
12494 2254
12495 2127
12495 2255
12496 2128
12496 2256
12497 2129
12497 2257
12498 2130
12498 2258
12499 2131
12499 2259
12500 2132
12500 2260
12501 2133
12501 2261
12502 2134
12502 2262
12503 2135
12503 2263
12504 2136
12504 2264
12505 2137
12505 2265
12506 2138
12506 2266
12507 2139
12507 2267
12508 2140
12508 2268
12509 2141
12509 2269
12510 2142
12510 2270
12511 2143
12511 2271
12512 2144
12512 2272
12513 2145
12513 2273
12514 2146
12514 2274
12515 2147
12515 2275
12516 2148
12516 2276
12517 2149
12517 2277
12518 2150
12518 2278
12519 2151
12519 2279
12520 2152
12520 2280
12521 2153
12521 2281
12522 2154
12522 2282
12523 2155
12523 2283
12524 2156
12524 2284
12525 2157
12525 2285
12526 2158
12526 2286
12527 2159
12527 2287
12528 2160
12528 2288
12529 2161
12529 2289
12530 2162
12530 2290
12531 2163
12531 2291
12532 2164
12532 2292
12533 2165
12533 2293
12534 2166
12534 2294
12535 2167
12535 2295
12536 2168
12536 2296
12537 2169
12537 2297
12538 2170
12538 2298
12539 2171
12539 2299
12540 2172
12540 2300
12541 2173
12541 2301
12542 2174
12542 2302
12543 2175
12543 2303
12544 2048
12544 3328
12545 2049
12545 3329
12546 2050
12546 3330
12547 2051
12547 3331
12548 2052
12548 3332
12549 2053
12549 3333
12550 2054
12550 3334
12551 2055
12551 3335
12552 2056
12552 3336
12553 2057
12553 3337
12554 2058
12554 3338
12555 2059
12555 3339
12556 2060
12556 3340
12557 2061
12557 3341
12558 2062
12558 3342
12559 2063
12559 3343
12560 2064
12560 3344
12561 2065
12561 3345
12562 2066
12562 3346
12563 2067
12563 3347
12564 2068
12564 3348
12565 2069
12565 3349
12566 2070
12566 3350
12567 2071
12567 3351
12568 2072
12568 3352
12569 2073
12569 3353
12570 2074
12570 3354
12571 2075
12571 3355
12572 2076
12572 3356
12573 2077
12573 3357
12574 2078
12574 3358
12575 2079
12575 3359
12576 2080
12576 3360
12577 2081
12577 3361
12578 2082
12578 3362
12579 2083
12579 3363
12580 2084
12580 3364
12581 2085
12581 3365
12582 2086
12582 3366
12583 2087
12583 3367
12584 2088
12584 3368
12585 2089
12585 3369
12586 2090
12586 3370
12587 2091
12587 3371
12588 2092
12588 3372
12589 2093
12589 3373
12590 2094
12590 3374
12591 2095
12591 3375
12592 2096
12592 3376
12593 2097
12593 3377
12594 2098
12594 3378
12595 2099
12595 3379
12596 2100
12596 3380
12597 2101
12597 3381
12598 2102
12598 3382
12599 2103
12599 3383
12600 2104
12600 3384
12601 2105
12601 3385
12602 2106
12602 3386
12603 2107
12603 3387
12604 2108
12604 3388
12605 2109
12605 3389
12606 2110
12606 3390
12607 2111
12607 3391
12608 2112
12608 3392
12609 2113
12609 3393
12610 2114
12610 3394
12611 2115
12611 3395
12612 2116
12612 3396
12613 2117
12613 3397
12614 2118
12614 3398
12615 2119
12615 3399
12616 2120
12616 3400
12617 2121
12617 3401
12618 2122
12618 3402
12619 2123
12619 3403
12620 2124
12620 3404
12621 2125
12621 3405
12622 2126
12622 3406
12623 2127
12623 3407
12624 2128
12624 3408
12625 2129
12625 3409
12626 2130
12626 3410
12627 2131
12627 3411
12628 2132
12628 3412
12629 2133
12629 3413
12630 2134
12630 3414
12631 2135
12631 3415
12632 2136
12632 3416
12633 2137
12633 3417
12634 2138
12634 3418
12635 2139
12635 3419
12636 2140
12636 3420
12637 2141
12637 3421
12638 2142
12638 3422
12639 2143
12639 3423
12640 2144
12640 3424
12641 2145
12641 3425
12642 2146
12642 3426
12643 2147
12643 3427
12644 2148
12644 3428
12645 2149
12645 3429
12646 2150
12646 3430
12647 2151
12647 3431
12648 2152
12648 3432
12649 2153
12649 3433
12650 2154
12650 3434
12651 2155
12651 3435
12652 2156
12652 3436
12653 2157
12653 3437
12654 2158
12654 3438
12655 2159
12655 3439
12656 2160
12656 3440
12657 2161
12657 3441
12658 2162
12658 3442
12659 2163
12659 3443
12660 2164
12660 3444
12661 2165
12661 3445
12662 2166
12662 3446
12663 2167
12663 3447
12664 2168
12664 3448
12665 2169
12665 3449
12666 2170
12666 3450
12667 2171
12667 3451
12668 2172
12668 3452
12669 2173
12669 3453
12670 2174
12670 3454
12671 2175
12671 3455
12672 2048
12672 4352
12673 2049
12673 4353
12674 2050
12674 4354
12675 2051
12675 4355
12676 2052
12676 4356
12677 2053
12677 4357
12678 2054
12678 4358
12679 2055
12679 4359
12680 2056
12680 4360
12681 2057
12681 4361
12682 2058
12682 4362
12683 2059
12683 4363
12684 2060
12684 4364
12685 2061
12685 4365
12686 2062
12686 4366
12687 2063
12687 4367
12688 2064
12688 4368
12689 2065
12689 4369
12690 2066
12690 4370
12691 2067
12691 4371
12692 2068
12692 4372
12693 2069
12693 4373
12694 2070
12694 4374
12695 2071
12695 4375
12696 2072
12696 4376
12697 2073
12697 4377
12698 2074
12698 4378
12699 2075
12699 4379
12700 2076
12700 4380
12701 2077
12701 4381
12702 2078
12702 4382
12703 2079
12703 4383
12704 2080
12704 4384
12705 2081
12705 4385
12706 2082
12706 4386
12707 2083
12707 4387
12708 2084
12708 4388
12709 2085
12709 4389
12710 2086
12710 4390
12711 2087
12711 4391
12712 2088
12712 4392
12713 2089
12713 4393
12714 2090
12714 4394
12715 2091
12715 4395
12716 2092
12716 4396
12717 2093
12717 4397
12718 2094
12718 4398
12719 2095
12719 4399
12720 2096
12720 4400
12721 2097
12721 4401
12722 2098
12722 4402
12723 2099
12723 4403
12724 2100
12724 4404
12725 2101
12725 4405
12726 2102
12726 4406
12727 2103
12727 4407
12728 2104
12728 4408
12729 2105
12729 4409
12730 2106
12730 4410
12731 2107
12731 4411
12732 2108
12732 4412
12733 2109
12733 4413
12734 2110
12734 4414
12735 2111
12735 4415
12736 2112
12736 4416
12737 2113
12737 4417
12738 2114
12738 4418
12739 2115
12739 4419
12740 2116
12740 4420
12741 2117
12741 4421
12742 2118
12742 4422
12743 2119
12743 4423
12744 2120
12744 4424
12745 2121
12745 4425
12746 2122
12746 4426
12747 2123
12747 4427
12748 2124
12748 4428
12749 2125
12749 4429
12750 2126
12750 4430
12751 2127
12751 4431
12752 2128
12752 4432
12753 2129
12753 4433
12754 2130
12754 4434
12755 2131
12755 4435
12756 2132
12756 4436
12757 2133
12757 4437
12758 2134
12758 4438
12759 2135
12759 4439
12760 2136
12760 4440
12761 2137
12761 4441
12762 2138
12762 4442
12763 2139
12763 4443
12764 2140
12764 4444
12765 2141
12765 4445
12766 2142
12766 4446
12767 2143
12767 4447
12768 2144
12768 4448
12769 2145
12769 4449
12770 2146
12770 4450
12771 2147
12771 4451
12772 2148
12772 4452
12773 2149
12773 4453
12774 2150
12774 4454
12775 2151
12775 4455
12776 2152
12776 4456
12777 2153
12777 4457
12778 2154
12778 4458
12779 2155
12779 4459
12780 2156
12780 4460
12781 2157
12781 4461
12782 2158
12782 4462
12783 2159
12783 4463
12784 2160
12784 4464
12785 2161
12785 4465
12786 2162
12786 4466
12787 2163
12787 4467
12788 2164
12788 4468
12789 2165
12789 4469
12790 2166
12790 4470
12791 2167
12791 4471
12792 2168
12792 4472
12793 2169
12793 4473
12794 2170
12794 4474
12795 2171
12795 4475
12796 2172
12796 4476
12797 2173
12797 4477
12798 2174
12798 4478
12799 2175
12799 4479
12800 2048
12800 4736
12801 2049
12801 4737
12802 2050
12802 4738
12803 2051
12803 4739
12804 2052
12804 4740
12805 2053
12805 4741
12806 2054
12806 4742
12807 2055
12807 4743
12808 2056
12808 4744
12809 2057
12809 4745
12810 2058
12810 4746
12811 2059
12811 4747
12812 2060
12812 4748
12813 2061
12813 4749
12814 2062
12814 4750
12815 2063
12815 4751
12816 2064
12816 4752
12817 2065
12817 4753
12818 2066
12818 4754
12819 2067
12819 4755
12820 2068
12820 4756
12821 2069
12821 4757
12822 2070
12822 4758
12823 2071
12823 4759
12824 2072
12824 4760
12825 2073
12825 4761
12826 2074
12826 4762
12827 2075
12827 4763
12828 2076
12828 4764
12829 2077
12829 4765
12830 2078
12830 4766
12831 2079
12831 4767
12832 2080
12832 4768
12833 2081
12833 4769
12834 2082
12834 4770
12835 2083
12835 4771
12836 2084
12836 4772
12837 2085
12837 4773
12838 2086
12838 4774
12839 2087
12839 4775
12840 2088
12840 4776
12841 2089
12841 4777
12842 2090
12842 4778
12843 2091
12843 4779
12844 2092
12844 4780
12845 2093
12845 4781
12846 2094
12846 4782
12847 2095
12847 4783
12848 2096
12848 4784
12849 2097
12849 4785
12850 2098
12850 4786
12851 2099
12851 4787
12852 2100
12852 4788
12853 2101
12853 4789
12854 2102
12854 4790
12855 2103
12855 4791
12856 2104
12856 4792
12857 2105
12857 4793
12858 2106
12858 4794
12859 2107
12859 4795
12860 2108
12860 4796
12861 2109
12861 4797
12862 2110
12862 4798
12863 2111
12863 4799
12864 2112
12864 4800
12865 2113
12865 4801
12866 2114
12866 4802
12867 2115
12867 4803
12868 2116
12868 4804
12869 2117
12869 4805
12870 2118
12870 4806
12871 2119
12871 4807
12872 2120
12872 4808
12873 2121
12873 4809
12874 2122
12874 4810
12875 2123
12875 4811
12876 2124
12876 4812
12877 2125
12877 4813
12878 2126
12878 4814
12879 2127
12879 4815
12880 2128
12880 4816
12881 2129
12881 4817
12882 2130
12882 4818
12883 2131
12883 4819
12884 2132
12884 4820
12885 2133
12885 4821
12886 2134
12886 4822
12887 2135
12887 4823
12888 2136
12888 4824
12889 2137
12889 4825
12890 2138
12890 4826
12891 2139
12891 4827
12892 2140
12892 4828
12893 2141
12893 4829
12894 2142
12894 4830
12895 2143
12895 4831
12896 2144
12896 4832
12897 2145
12897 4833
12898 2146
12898 4834
12899 2147
12899 4835
12900 2148
12900 4836
12901 2149
12901 4837
12902 2150
12902 4838
12903 2151
12903 4839
12904 2152
12904 4840
12905 2153
12905 4841
12906 2154
12906 4842
12907 2155
12907 4843
12908 2156
12908 4844
12909 2157
12909 4845
12910 2158
12910 4846
12911 2159
12911 4847
12912 2160
12912 4848
12913 2161
12913 4849
12914 2162
12914 4850
12915 2163
12915 4851
12916 2164
12916 4852
12917 2165
12917 4853
12918 2166
12918 4854
12919 2167
12919 4855
12920 2168
12920 4856
12921 2169
12921 4857
12922 2170
12922 4858
12923 2171
12923 4859
12924 2172
12924 4860
12925 2173
12925 4861
12926 2174
12926 4862
12927 2175
12927 4863
12928 2048
12928 5120
12929 2049
12929 5121
12930 2050
12930 5122
12931 2051
12931 5123
12932 2052
12932 5124
12933 2053
12933 5125
12934 2054
12934 5126
12935 2055
12935 5127
12936 2056
12936 5128
12937 2057
12937 5129
12938 2058
12938 5130
12939 2059
12939 5131
12940 2060
12940 5132
12941 2061
12941 5133
12942 2062
12942 5134
12943 2063
12943 5135
12944 2064
12944 5136
12945 2065
12945 5137
12946 2066
12946 5138
12947 2067
12947 5139
12948 2068
12948 5140
12949 2069
12949 5141
12950 2070
12950 5142
12951 2071
12951 5143
12952 2072
12952 5144
12953 2073
12953 5145
12954 2074
12954 5146
12955 2075
12955 5147
12956 2076
12956 5148
12957 2077
12957 5149
12958 2078
12958 5150
12959 2079
12959 5151
12960 2080
12960 5152
12961 2081
12961 5153
12962 2082
12962 5154
12963 2083
12963 5155
12964 2084
12964 5156
12965 2085
12965 5157
12966 2086
12966 5158
12967 2087
12967 5159
12968 2088
12968 5160
12969 2089
12969 5161
12970 2090
12970 5162
12971 2091
12971 5163
12972 2092
12972 5164
12973 2093
12973 5165
12974 2094
12974 5166
12975 2095
12975 5167
12976 2096
12976 5168
12977 2097
12977 5169
12978 2098
12978 5170
12979 2099
12979 5171
12980 2100
12980 5172
12981 2101
12981 5173
12982 2102
12982 5174
12983 2103
12983 5175
12984 2104
12984 5176
12985 2105
12985 5177
12986 2106
12986 5178
12987 2107
12987 5179
12988 2108
12988 5180
12989 2109
12989 5181
12990 2110
12990 5182
12991 2111
12991 5183
12992 2112
12992 5184
12993 2113
12993 5185
12994 2114
12994 5186
12995 2115
12995 5187
12996 2116
12996 5188
12997 2117
12997 5189
12998 2118
12998 5190
12999 2119
12999 5191
13000 2120
13000 5192
13001 2121
13001 5193
13002 2122
13002 5194
13003 2123
13003 5195
13004 2124
13004 5196
13005 2125
13005 5197
13006 2126
13006 5198
13007 2127
13007 5199
13008 2128
13008 5200
13009 2129
13009 5201
13010 2130
13010 5202
13011 2131
13011 5203
13012 2132
13012 5204
13013 2133
13013 5205
13014 2134
13014 5206
13015 2135
13015 5207
13016 2136
13016 5208
13017 2137
13017 5209
13018 2138
13018 5210
13019 2139
13019 5211
13020 2140
13020 5212
13021 2141
13021 5213
13022 2142
13022 5214
13023 2143
13023 5215
13024 2144
13024 5216
13025 2145
13025 5217
13026 2146
13026 5218
13027 2147
13027 5219
13028 2148
13028 5220
13029 2149
13029 5221
13030 2150
13030 5222
13031 2151
13031 5223
13032 2152
13032 5224
13033 2153
13033 5225
13034 2154
13034 5226
13035 2155
13035 5227
13036 2156
13036 5228
13037 2157
13037 5229
13038 2158
13038 5230
13039 2159
13039 5231
13040 2160
13040 5232
13041 2161
13041 5233
13042 2162
13042 5234
13043 2163
13043 5235
13044 2164
13044 5236
13045 2165
13045 5237
13046 2166
13046 5238
13047 2167
13047 5239
13048 2168
13048 5240
13049 2169
13049 5241
13050 2170
13050 5242
13051 2171
13051 5243
13052 2172
13052 5244
13053 2173
13053 5245
13054 2174
13054 5246
13055 2175
13055 5247
13056 2048
13056 6144
13057 2049
13057 6145
13058 2050
13058 6146
13059 2051
13059 6147
13060 2052
13060 6148
13061 2053
13061 6149
13062 2054
13062 6150
13063 2055
13063 6151
13064 2056
13064 6152
13065 2057
13065 6153
13066 2058
13066 6154
13067 2059
13067 6155
13068 2060
13068 6156
13069 2061
13069 6157
13070 2062
13070 6158
13071 2063
13071 6159
13072 2064
13072 6160
13073 2065
13073 6161
13074 2066
13074 6162
13075 2067
13075 6163
13076 2068
13076 6164
13077 2069
13077 6165
13078 2070
13078 6166
13079 2071
13079 6167
13080 2072
13080 6168
13081 2073
13081 6169
13082 2074
13082 6170
13083 2075
13083 6171
13084 2076
13084 6172
13085 2077
13085 6173
13086 2078
13086 6174
13087 2079
13087 6175
13088 2080
13088 6176
13089 2081
13089 6177
13090 2082
13090 6178
13091 2083
13091 6179
13092 2084
13092 6180
13093 2085
13093 6181
13094 2086
13094 6182
13095 2087
13095 6183
13096 2088
13096 6184
13097 2089
13097 6185
13098 2090
13098 6186
13099 2091
13099 6187
13100 2092
13100 6188
13101 2093
13101 6189
13102 2094
13102 6190
13103 2095
13103 6191
13104 2096
13104 6192
13105 2097
13105 6193
13106 2098
13106 6194
13107 2099
13107 6195
13108 2100
13108 6196
13109 2101
13109 6197
13110 2102
13110 6198
13111 2103
13111 6199
13112 2104
13112 6200
13113 2105
13113 6201
13114 2106
13114 6202
13115 2107
13115 6203
13116 2108
13116 6204
13117 2109
13117 6205
13118 2110
13118 6206
13119 2111
13119 6207
13120 2112
13120 6208
13121 2113
13121 6209
13122 2114
13122 6210
13123 2115
13123 6211
13124 2116
13124 6212
13125 2117
13125 6213
13126 2118
13126 6214
13127 2119
13127 6215
13128 2120
13128 6216
13129 2121
13129 6217
13130 2122
13130 6218
13131 2123
13131 6219
13132 2124
13132 6220
13133 2125
13133 6221
13134 2126
13134 6222
13135 2127
13135 6223
13136 2128
13136 6224
13137 2129
13137 6225
13138 2130
13138 6226
13139 2131
13139 6227
13140 2132
13140 6228
13141 2133
13141 6229
13142 2134
13142 6230
13143 2135
13143 6231
13144 2136
13144 6232
13145 2137
13145 6233
13146 2138
13146 6234
13147 2139
13147 6235
13148 2140
13148 6236
13149 2141
13149 6237
13150 2142
13150 6238
13151 2143
13151 6239
13152 2144
13152 6240
13153 2145
13153 6241
13154 2146
13154 6242
13155 2147
13155 6243
13156 2148
13156 6244
13157 2149
13157 6245
13158 2150
13158 6246
13159 2151
13159 6247
13160 2152
13160 6248
13161 2153
13161 6249
13162 2154
13162 6250
13163 2155
13163 6251
13164 2156
13164 6252
13165 2157
13165 6253
13166 2158
13166 6254
13167 2159
13167 6255
13168 2160
13168 6256
13169 2161
13169 6257
13170 2162
13170 6258
13171 2163
13171 6259
13172 2164
13172 6260
13173 2165
13173 6261
13174 2166
13174 6262
13175 2167
13175 6263
13176 2168
13176 6264
13177 2169
13177 6265
13178 2170
13178 6266
13179 2171
13179 6267
13180 2172
13180 6268
13181 2173
13181 6269
13182 2174
13182 6270
13183 2175
13183 6271
13184 2176
13184 2304
13185 2177
13185 2305
13186 2178
13186 2306
13187 2179
13187 2307
13188 2180
13188 2308
13189 2181
13189 2309
13190 2182
13190 2310
13191 2183
13191 2311
13192 2184
13192 2312
13193 2185
13193 2313
13194 2186
13194 2314
13195 2187
13195 2315
13196 2188
13196 2316
13197 2189
13197 2317
13198 2190
13198 2318
13199 2191
13199 2319
13200 2192
13200 2320
13201 2193
13201 2321
13202 2194
13202 2322
13203 2195
13203 2323
13204 2196
13204 2324
13205 2197
13205 2325
13206 2198
13206 2326
13207 2199
13207 2327
13208 2200
13208 2328
13209 2201
13209 2329
13210 2202
13210 2330
13211 2203
13211 2331
13212 2204
13212 2332
13213 2205
13213 2333
13214 2206
13214 2334
13215 2207
13215 2335
13216 2208
13216 2336
13217 2209
13217 2337
13218 2210
13218 2338
13219 2211
13219 2339
13220 2212
13220 2340
13221 2213
13221 2341
13222 2214
13222 2342
13223 2215
13223 2343
13224 2216
13224 2344
13225 2217
13225 2345
13226 2218
13226 2346
13227 2219
13227 2347
13228 2220
13228 2348
13229 2221
13229 2349
13230 2222
13230 2350
13231 2223
13231 2351
13232 2224
13232 2352
13233 2225
13233 2353
13234 2226
13234 2354
13235 2227
13235 2355
13236 2228
13236 2356
13237 2229
13237 2357
13238 2230
13238 2358
13239 2231
13239 2359
13240 2232
13240 2360
13241 2233
13241 2361
13242 2234
13242 2362
13243 2235
13243 2363
13244 2236
13244 2364
13245 2237
13245 2365
13246 2238
13246 2366
13247 2239
13247 2367
13248 2240
13248 2368
13249 2241
13249 2369
13250 2242
13250 2370
13251 2243
13251 2371
13252 2244
13252 2372
13253 2245
13253 2373
13254 2246
13254 2374
13255 2247
13255 2375
13256 2248
13256 2376
13257 2249
13257 2377
13258 2250
13258 2378
13259 2251
13259 2379
13260 2252
13260 2380
13261 2253
13261 2381
13262 2254
13262 2382
13263 2255
13263 2383
13264 2256
13264 2384
13265 2257
13265 2385
13266 2258
13266 2386
13267 2259
13267 2387
13268 2260
13268 2388
13269 2261
13269 2389
13270 2262
13270 2390
13271 2263
13271 2391
13272 2264
13272 2392
13273 2265
13273 2393
13274 2266
13274 2394
13275 2267
13275 2395
13276 2268
13276 2396
13277 2269
13277 2397
13278 2270
13278 2398
13279 2271
13279 2399
13280 2272
13280 2400
13281 2273
13281 2401
13282 2274
13282 2402
13283 2275
13283 2403
13284 2276
13284 2404
13285 2277
13285 2405
13286 2278
13286 2406
13287 2279
13287 2407
13288 2280
13288 2408
13289 2281
13289 2409
13290 2282
13290 2410
13291 2283
13291 2411
13292 2284
13292 2412
13293 2285
13293 2413
13294 2286
13294 2414
13295 2287
13295 2415
13296 2288
13296 2416
13297 2289
13297 2417
13298 2290
13298 2418
13299 2291
13299 2419
13300 2292
13300 2420
13301 2293
13301 2421
13302 2294
13302 2422
13303 2295
13303 2423
13304 2296
13304 2424
13305 2297
13305 2425
13306 2298
13306 2426
13307 2299
13307 2427
13308 2300
13308 2428
13309 2301
13309 2429
13310 2302
13310 2430
13311 2303
13311 2431
13312 2176
13312 3456
13313 2177
13313 3457
13314 2178
13314 3458
13315 2179
13315 3459
13316 2180
13316 3460
13317 2181
13317 3461
13318 2182
13318 3462
13319 2183
13319 3463
13320 2184
13320 3464
13321 2185
13321 3465
13322 2186
13322 3466
13323 2187
13323 3467
13324 2188
13324 3468
13325 2189
13325 3469
13326 2190
13326 3470
13327 2191
13327 3471
13328 2192
13328 3472
13329 2193
13329 3473
13330 2194
13330 3474
13331 2195
13331 3475
13332 2196
13332 3476
13333 2197
13333 3477
13334 2198
13334 3478
13335 2199
13335 3479
13336 2200
13336 3480
13337 2201
13337 3481
13338 2202
13338 3482
13339 2203
13339 3483
13340 2204
13340 3484
13341 2205
13341 3485
13342 2206
13342 3486
13343 2207
13343 3487
13344 2208
13344 3488
13345 2209
13345 3489
13346 2210
13346 3490
13347 2211
13347 3491
13348 2212
13348 3492
13349 2213
13349 3493
13350 2214
13350 3494
13351 2215
13351 3495
13352 2216
13352 3496
13353 2217
13353 3497
13354 2218
13354 3498
13355 2219
13355 3499
13356 2220
13356 3500
13357 2221
13357 3501
13358 2222
13358 3502
13359 2223
13359 3503
13360 2224
13360 3504
13361 2225
13361 3505
13362 2226
13362 3506
13363 2227
13363 3507
13364 2228
13364 3508
13365 2229
13365 3509
13366 2230
13366 3510
13367 2231
13367 3511
13368 2232
13368 3512
13369 2233
13369 3513
13370 2234
13370 3514
13371 2235
13371 3515
13372 2236
13372 3516
13373 2237
13373 3517
13374 2238
13374 3518
13375 2239
13375 3519
13376 2240
13376 3520
13377 2241
13377 3521
13378 2242
13378 3522
13379 2243
13379 3523
13380 2244
13380 3524
13381 2245
13381 3525
13382 2246
13382 3526
13383 2247
13383 3527
13384 2248
13384 3528
13385 2249
13385 3529
13386 2250
13386 3530
13387 2251
13387 3531
13388 2252
13388 3532
13389 2253
13389 3533
13390 2254
13390 3534
13391 2255
13391 3535
13392 2256
13392 3536
13393 2257
13393 3537
13394 2258
13394 3538
13395 2259
13395 3539
13396 2260
13396 3540
13397 2261
13397 3541
13398 2262
13398 3542
13399 2263
13399 3543
13400 2264
13400 3544
13401 2265
13401 3545
13402 2266
13402 3546
13403 2267
13403 3547
13404 2268
13404 3548
13405 2269
13405 3549
13406 2270
13406 3550
13407 2271
13407 3551
13408 2272
13408 3552
13409 2273
13409 3553
13410 2274
13410 3554
13411 2275
13411 3555
13412 2276
13412 3556
13413 2277
13413 3557
13414 2278
13414 3558
13415 2279
13415 3559
13416 2280
13416 3560
13417 2281
13417 3561
13418 2282
13418 3562
13419 2283
13419 3563
13420 2284
13420 3564
13421 2285
13421 3565
13422 2286
13422 3566
13423 2287
13423 3567
13424 2288
13424 3568
13425 2289
13425 3569
13426 2290
13426 3570
13427 2291
13427 3571
13428 2292
13428 3572
13429 2293
13429 3573
13430 2294
13430 3574
13431 2295
13431 3575
13432 2296
13432 3576
13433 2297
13433 3577
13434 2298
13434 3578
13435 2299
13435 3579
13436 2300
13436 3580
13437 2301
13437 3581
13438 2302
13438 3582
13439 2303
13439 3583
13440 2176
13440 3840
13441 2177
13441 3841
13442 2178
13442 3842
13443 2179
13443 3843
13444 2180
13444 3844
13445 2181
13445 3845
13446 2182
13446 3846
13447 2183
13447 3847
13448 2184
13448 3848
13449 2185
13449 3849
13450 2186
13450 3850
13451 2187
13451 3851
13452 2188
13452 3852
13453 2189
13453 3853
13454 2190
13454 3854
13455 2191
13455 3855
13456 2192
13456 3856
13457 2193
13457 3857
13458 2194
13458 3858
13459 2195
13459 3859
13460 2196
13460 3860
13461 2197
13461 3861
13462 2198
13462 3862
13463 2199
13463 3863
13464 2200
13464 3864
13465 2201
13465 3865
13466 2202
13466 3866
13467 2203
13467 3867
13468 2204
13468 3868
13469 2205
13469 3869
13470 2206
13470 3870
13471 2207
13471 3871
13472 2208
13472 3872
13473 2209
13473 3873
13474 2210
13474 3874
13475 2211
13475 3875
13476 2212
13476 3876
13477 2213
13477 3877
13478 2214
13478 3878
13479 2215
13479 3879
13480 2216
13480 3880
13481 2217
13481 3881
13482 2218
13482 3882
13483 2219
13483 3883
13484 2220
13484 3884
13485 2221
13485 3885
13486 2222
13486 3886
13487 2223
13487 3887
13488 2224
13488 3888
13489 2225
13489 3889
13490 2226
13490 3890
13491 2227
13491 3891
13492 2228
13492 3892
13493 2229
13493 3893
13494 2230
13494 3894
13495 2231
13495 3895
13496 2232
13496 3896
13497 2233
13497 3897
13498 2234
13498 3898
13499 2235
13499 3899
13500 2236
13500 3900
13501 2237
13501 3901
13502 2238
13502 3902
13503 2239
13503 3903
13504 2240
13504 3904
13505 2241
13505 3905
13506 2242
13506 3906
13507 2243
13507 3907
13508 2244
13508 3908
13509 2245
13509 3909
13510 2246
13510 3910
13511 2247
13511 3911
13512 2248
13512 3912
13513 2249
13513 3913
13514 2250
13514 3914
13515 2251
13515 3915
13516 2252
13516 3916
13517 2253
13517 3917
13518 2254
13518 3918
13519 2255
13519 3919
13520 2256
13520 3920
13521 2257
13521 3921
13522 2258
13522 3922
13523 2259
13523 3923
13524 2260
13524 3924
13525 2261
13525 3925
13526 2262
13526 3926
13527 2263
13527 3927
13528 2264
13528 3928
13529 2265
13529 3929
13530 2266
13530 3930
13531 2267
13531 3931
13532 2268
13532 3932
13533 2269
13533 3933
13534 2270
13534 3934
13535 2271
13535 3935
13536 2272
13536 3936
13537 2273
13537 3937
13538 2274
13538 3938
13539 2275
13539 3939
13540 2276
13540 3940
13541 2277
13541 3941
13542 2278
13542 3942
13543 2279
13543 3943
13544 2280
13544 3944
13545 2281
13545 3945
13546 2282
13546 3946
13547 2283
13547 3947
13548 2284
13548 3948
13549 2285
13549 3949
13550 2286
13550 3950
13551 2287
13551 3951
13552 2288
13552 3952
13553 2289
13553 3953
13554 2290
13554 3954
13555 2291
13555 3955
13556 2292
13556 3956
13557 2293
13557 3957
13558 2294
13558 3958
13559 2295
13559 3959
13560 2296
13560 3960
13561 2297
13561 3961
13562 2298
13562 3962
13563 2299
13563 3963
13564 2300
13564 3964
13565 2301
13565 3965
13566 2302
13566 3966
13567 2303
13567 3967
13568 2176
13568 4864
13569 2177
13569 4865
13570 2178
13570 4866
13571 2179
13571 4867
13572 2180
13572 4868
13573 2181
13573 4869
13574 2182
13574 4870
13575 2183
13575 4871
13576 2184
13576 4872
13577 2185
13577 4873
13578 2186
13578 4874
13579 2187
13579 4875
13580 2188
13580 4876
13581 2189
13581 4877
13582 2190
13582 4878
13583 2191
13583 4879
13584 2192
13584 4880
13585 2193
13585 4881
13586 2194
13586 4882
13587 2195
13587 4883
13588 2196
13588 4884
13589 2197
13589 4885
13590 2198
13590 4886
13591 2199
13591 4887
13592 2200
13592 4888
13593 2201
13593 4889
13594 2202
13594 4890
13595 2203
13595 4891
13596 2204
13596 4892
13597 2205
13597 4893
13598 2206
13598 4894
13599 2207
13599 4895
13600 2208
13600 4896
13601 2209
13601 4897
13602 2210
13602 4898
13603 2211
13603 4899
13604 2212
13604 4900
13605 2213
13605 4901
13606 2214
13606 4902
13607 2215
13607 4903
13608 2216
13608 4904
13609 2217
13609 4905
13610 2218
13610 4906
13611 2219
13611 4907
13612 2220
13612 4908
13613 2221
13613 4909
13614 2222
13614 4910
13615 2223
13615 4911
13616 2224
13616 4912
13617 2225
13617 4913
13618 2226
13618 4914
13619 2227
13619 4915
13620 2228
13620 4916
13621 2229
13621 4917
13622 2230
13622 4918
13623 2231
13623 4919
13624 2232
13624 4920
13625 2233
13625 4921
13626 2234
13626 4922
13627 2235
13627 4923
13628 2236
13628 4924
13629 2237
13629 4925
13630 2238
13630 4926
13631 2239
13631 4927
13632 2240
13632 4928
13633 2241
13633 4929
13634 2242
13634 4930
13635 2243
13635 4931
13636 2244
13636 4932
13637 2245
13637 4933
13638 2246
13638 4934
13639 2247
13639 4935
13640 2248
13640 4936
13641 2249
13641 4937
13642 2250
13642 4938
13643 2251
13643 4939
13644 2252
13644 4940
13645 2253
13645 4941
13646 2254
13646 4942
13647 2255
13647 4943
13648 2256
13648 4944
13649 2257
13649 4945
13650 2258
13650 4946
13651 2259
13651 4947
13652 2260
13652 4948
13653 2261
13653 4949
13654 2262
13654 4950
13655 2263
13655 4951
13656 2264
13656 4952
13657 2265
13657 4953
13658 2266
13658 4954
13659 2267
13659 4955
13660 2268
13660 4956
13661 2269
13661 4957
13662 2270
13662 4958
13663 2271
13663 4959
13664 2272
13664 4960
13665 2273
13665 4961
13666 2274
13666 4962
13667 2275
13667 4963
13668 2276
13668 4964
13669 2277
13669 4965
13670 2278
13670 4966
13671 2279
13671 4967
13672 2280
13672 4968
13673 2281
13673 4969
13674 2282
13674 4970
13675 2283
13675 4971
13676 2284
13676 4972
13677 2285
13677 4973
13678 2286
13678 4974
13679 2287
13679 4975
13680 2288
13680 4976
13681 2289
13681 4977
13682 2290
13682 4978
13683 2291
13683 4979
13684 2292
13684 4980
13685 2293
13685 4981
13686 2294
13686 4982
13687 2295
13687 4983
13688 2296
13688 4984
13689 2297
13689 4985
13690 2298
13690 4986
13691 2299
13691 4987
13692 2300
13692 4988
13693 2301
13693 4989
13694 2302
13694 4990
13695 2303
13695 4991
13696 2176
13696 5248
13697 2177
13697 5249
13698 2178
13698 5250
13699 2179
13699 5251
13700 2180
13700 5252
13701 2181
13701 5253
13702 2182
13702 5254
13703 2183
13703 5255
13704 2184
13704 5256
13705 2185
13705 5257
13706 2186
13706 5258
13707 2187
13707 5259
13708 2188
13708 5260
13709 2189
13709 5261
13710 2190
13710 5262
13711 2191
13711 5263
13712 2192
13712 5264
13713 2193
13713 5265
13714 2194
13714 5266
13715 2195
13715 5267
13716 2196
13716 5268
13717 2197
13717 5269
13718 2198
13718 5270
13719 2199
13719 5271
13720 2200
13720 5272
13721 2201
13721 5273
13722 2202
13722 5274
13723 2203
13723 5275
13724 2204
13724 5276
13725 2205
13725 5277
13726 2206
13726 5278
13727 2207
13727 5279
13728 2208
13728 5280
13729 2209
13729 5281
13730 2210
13730 5282
13731 2211
13731 5283
13732 2212
13732 5284
13733 2213
13733 5285
13734 2214
13734 5286
13735 2215
13735 5287
13736 2216
13736 5288
13737 2217
13737 5289
13738 2218
13738 5290
13739 2219
13739 5291
13740 2220
13740 5292
13741 2221
13741 5293
13742 2222
13742 5294
13743 2223
13743 5295
13744 2224
13744 5296
13745 2225
13745 5297
13746 2226
13746 5298
13747 2227
13747 5299
13748 2228
13748 5300
13749 2229
13749 5301
13750 2230
13750 5302
13751 2231
13751 5303
13752 2232
13752 5304
13753 2233
13753 5305
13754 2234
13754 5306
13755 2235
13755 5307
13756 2236
13756 5308
13757 2237
13757 5309
13758 2238
13758 5310
13759 2239
13759 5311
13760 2240
13760 5312
13761 2241
13761 5313
13762 2242
13762 5314
13763 2243
13763 5315
13764 2244
13764 5316
13765 2245
13765 5317
13766 2246
13766 5318
13767 2247
13767 5319
13768 2248
13768 5320
13769 2249
13769 5321
13770 2250
13770 5322
13771 2251
13771 5323
13772 2252
13772 5324
13773 2253
13773 5325
13774 2254
13774 5326
13775 2255
13775 5327
13776 2256
13776 5328
13777 2257
13777 5329
13778 2258
13778 5330
13779 2259
13779 5331
13780 2260
13780 5332
13781 2261
13781 5333
13782 2262
13782 5334
13783 2263
13783 5335
13784 2264
13784 5336
13785 2265
13785 5337
13786 2266
13786 5338
13787 2267
13787 5339
13788 2268
13788 5340
13789 2269
13789 5341
13790 2270
13790 5342
13791 2271
13791 5343
13792 2272
13792 5344
13793 2273
13793 5345
13794 2274
13794 5346
13795 2275
13795 5347
13796 2276
13796 5348
13797 2277
13797 5349
13798 2278
13798 5350
13799 2279
13799 5351
13800 2280
13800 5352
13801 2281
13801 5353
13802 2282
13802 5354
13803 2283
13803 5355
13804 2284
13804 5356
13805 2285
13805 5357
13806 2286
13806 5358
13807 2287
13807 5359
13808 2288
13808 5360
13809 2289
13809 5361
13810 2290
13810 5362
13811 2291
13811 5363
13812 2292
13812 5364
13813 2293
13813 5365
13814 2294
13814 5366
13815 2295
13815 5367
13816 2296
13816 5368
13817 2297
13817 5369
13818 2298
13818 5370
13819 2299
13819 5371
13820 2300
13820 5372
13821 2301
13821 5373
13822 2302
13822 5374
13823 2303
13823 5375
13824 2176
13824 6272
13825 2177
13825 6273
13826 2178
13826 6274
13827 2179
13827 6275
13828 2180
13828 6276
13829 2181
13829 6277
13830 2182
13830 6278
13831 2183
13831 6279
13832 2184
13832 6280
13833 2185
13833 6281
13834 2186
13834 6282
13835 2187
13835 6283
13836 2188
13836 6284
13837 2189
13837 6285
13838 2190
13838 6286
13839 2191
13839 6287
13840 2192
13840 6288
13841 2193
13841 6289
13842 2194
13842 6290
13843 2195
13843 6291
13844 2196
13844 6292
13845 2197
13845 6293
13846 2198
13846 6294
13847 2199
13847 6295
13848 2200
13848 6296
13849 2201
13849 6297
13850 2202
13850 6298
13851 2203
13851 6299
13852 2204
13852 6300
13853 2205
13853 6301
13854 2206
13854 6302
13855 2207
13855 6303
13856 2208
13856 6304
13857 2209
13857 6305
13858 2210
13858 6306
13859 2211
13859 6307
13860 2212
13860 6308
13861 2213
13861 6309
13862 2214
13862 6310
13863 2215
13863 6311
13864 2216
13864 6312
13865 2217
13865 6313
13866 2218
13866 6314
13867 2219
13867 6315
13868 2220
13868 6316
13869 2221
13869 6317
13870 2222
13870 6318
13871 2223
13871 6319
13872 2224
13872 6320
13873 2225
13873 6321
13874 2226
13874 6322
13875 2227
13875 6323
13876 2228
13876 6324
13877 2229
13877 6325
13878 2230
13878 6326
13879 2231
13879 6327
13880 2232
13880 6328
13881 2233
13881 6329
13882 2234
13882 6330
13883 2235
13883 6331
13884 2236
13884 6332
13885 2237
13885 6333
13886 2238
13886 6334
13887 2239
13887 6335
13888 2240
13888 6336
13889 2241
13889 6337
13890 2242
13890 6338
13891 2243
13891 6339
13892 2244
13892 6340
13893 2245
13893 6341
13894 2246
13894 6342
13895 2247
13895 6343
13896 2248
13896 6344
13897 2249
13897 6345
13898 2250
13898 6346
13899 2251
13899 6347
13900 2252
13900 6348
13901 2253
13901 6349
13902 2254
13902 6350
13903 2255
13903 6351
13904 2256
13904 6352
13905 2257
13905 6353
13906 2258
13906 6354
13907 2259
13907 6355
13908 2260
13908 6356
13909 2261
13909 6357
13910 2262
13910 6358
13911 2263
13911 6359
13912 2264
13912 6360
13913 2265
13913 6361
13914 2266
13914 6362
13915 2267
13915 6363
13916 2268
13916 6364
13917 2269
13917 6365
13918 2270
13918 6366
13919 2271
13919 6367
13920 2272
13920 6368
13921 2273
13921 6369
13922 2274
13922 6370
13923 2275
13923 6371
13924 2276
13924 6372
13925 2277
13925 6373
13926 2278
13926 6374
13927 2279
13927 6375
13928 2280
13928 6376
13929 2281
13929 6377
13930 2282
13930 6378
13931 2283
13931 6379
13932 2284
13932 6380
13933 2285
13933 6381
13934 2286
13934 6382
13935 2287
13935 6383
13936 2288
13936 6384
13937 2289
13937 6385
13938 2290
13938 6386
13939 2291
13939 6387
13940 2292
13940 6388
13941 2293
13941 6389
13942 2294
13942 6390
13943 2295
13943 6391
13944 2296
13944 6392
13945 2297
13945 6393
13946 2298
13946 6394
13947 2299
13947 6395
13948 2300
13948 6396
13949 2301
13949 6397
13950 2302
13950 6398
13951 2303
13951 6399
13952 2304
13952 2432
13953 2305
13953 2433
13954 2306
13954 2434
13955 2307
13955 2435
13956 2308
13956 2436
13957 2309
13957 2437
13958 2310
13958 2438
13959 2311
13959 2439
13960 2312
13960 2440
13961 2313
13961 2441
13962 2314
13962 2442
13963 2315
13963 2443
13964 2316
13964 2444
13965 2317
13965 2445
13966 2318
13966 2446
13967 2319
13967 2447
13968 2320
13968 2448
13969 2321
13969 2449
13970 2322
13970 2450
13971 2323
13971 2451
13972 2324
13972 2452
13973 2325
13973 2453
13974 2326
13974 2454
13975 2327
13975 2455
13976 2328
13976 2456
13977 2329
13977 2457
13978 2330
13978 2458
13979 2331
13979 2459
13980 2332
13980 2460
13981 2333
13981 2461
13982 2334
13982 2462
13983 2335
13983 2463
13984 2336
13984 2464
13985 2337
13985 2465
13986 2338
13986 2466
13987 2339
13987 2467
13988 2340
13988 2468
13989 2341
13989 2469
13990 2342
13990 2470
13991 2343
13991 2471
13992 2344
13992 2472
13993 2345
13993 2473
13994 2346
13994 2474
13995 2347
13995 2475
13996 2348
13996 2476
13997 2349
13997 2477
13998 2350
13998 2478
13999 2351
13999 2479
14000 2352
14000 2480
14001 2353
14001 2481
14002 2354
14002 2482
14003 2355
14003 2483
14004 2356
14004 2484
14005 2357
14005 2485
14006 2358
14006 2486
14007 2359
14007 2487
14008 2360
14008 2488
14009 2361
14009 2489
14010 2362
14010 2490
14011 2363
14011 2491
14012 2364
14012 2492
14013 2365
14013 2493
14014 2366
14014 2494
14015 2367
14015 2495
14016 2368
14016 2496
14017 2369
14017 2497
14018 2370
14018 2498
14019 2371
14019 2499
14020 2372
14020 2500
14021 2373
14021 2501
14022 2374
14022 2502
14023 2375
14023 2503
14024 2376
14024 2504
14025 2377
14025 2505
14026 2378
14026 2506
14027 2379
14027 2507
14028 2380
14028 2508
14029 2381
14029 2509
14030 2382
14030 2510
14031 2383
14031 2511
14032 2384
14032 2512
14033 2385
14033 2513
14034 2386
14034 2514
14035 2387
14035 2515
14036 2388
14036 2516
14037 2389
14037 2517
14038 2390
14038 2518
14039 2391
14039 2519
14040 2392
14040 2520
14041 2393
14041 2521
14042 2394
14042 2522
14043 2395
14043 2523
14044 2396
14044 2524
14045 2397
14045 2525
14046 2398
14046 2526
14047 2399
14047 2527
14048 2400
14048 2528
14049 2401
14049 2529
14050 2402
14050 2530
14051 2403
14051 2531
14052 2404
14052 2532
14053 2405
14053 2533
14054 2406
14054 2534
14055 2407
14055 2535
14056 2408
14056 2536
14057 2409
14057 2537
14058 2410
14058 2538
14059 2411
14059 2539
14060 2412
14060 2540
14061 2413
14061 2541
14062 2414
14062 2542
14063 2415
14063 2543
14064 2416
14064 2544
14065 2417
14065 2545
14066 2418
14066 2546
14067 2419
14067 2547
14068 2420
14068 2548
14069 2421
14069 2549
14070 2422
14070 2550
14071 2423
14071 2551
14072 2424
14072 2552
14073 2425
14073 2553
14074 2426
14074 2554
14075 2427
14075 2555
14076 2428
14076 2556
14077 2429
14077 2557
14078 2430
14078 2558
14079 2431
14079 2559
14080 2304
14080 3584
14081 2305
14081 3585
14082 2306
14082 3586
14083 2307
14083 3587
14084 2308
14084 3588
14085 2309
14085 3589
14086 2310
14086 3590
14087 2311
14087 3591
14088 2312
14088 3592
14089 2313
14089 3593
14090 2314
14090 3594
14091 2315
14091 3595
14092 2316
14092 3596
14093 2317
14093 3597
14094 2318
14094 3598
14095 2319
14095 3599
14096 2320
14096 3600
14097 2321
14097 3601
14098 2322
14098 3602
14099 2323
14099 3603
14100 2324
14100 3604
14101 2325
14101 3605
14102 2326
14102 3606
14103 2327
14103 3607
14104 2328
14104 3608
14105 2329
14105 3609
14106 2330
14106 3610
14107 2331
14107 3611
14108 2332
14108 3612
14109 2333
14109 3613
14110 2334
14110 3614
14111 2335
14111 3615
14112 2336
14112 3616
14113 2337
14113 3617
14114 2338
14114 3618
14115 2339
14115 3619
14116 2340
14116 3620
14117 2341
14117 3621
14118 2342
14118 3622
14119 2343
14119 3623
14120 2344
14120 3624
14121 2345
14121 3625
14122 2346
14122 3626
14123 2347
14123 3627
14124 2348
14124 3628
14125 2349
14125 3629
14126 2350
14126 3630
14127 2351
14127 3631
14128 2352
14128 3632
14129 2353
14129 3633
14130 2354
14130 3634
14131 2355
14131 3635
14132 2356
14132 3636
14133 2357
14133 3637
14134 2358
14134 3638
14135 2359
14135 3639
14136 2360
14136 3640
14137 2361
14137 3641
14138 2362
14138 3642
14139 2363
14139 3643
14140 2364
14140 3644
14141 2365
14141 3645
14142 2366
14142 3646
14143 2367
14143 3647
14144 2368
14144 3648
14145 2369
14145 3649
14146 2370
14146 3650
14147 2371
14147 3651
14148 2372
14148 3652
14149 2373
14149 3653
14150 2374
14150 3654
14151 2375
14151 3655
14152 2376
14152 3656
14153 2377
14153 3657
14154 2378
14154 3658
14155 2379
14155 3659
14156 2380
14156 3660
14157 2381
14157 3661
14158 2382
14158 3662
14159 2383
14159 3663
14160 2384
14160 3664
14161 2385
14161 3665
14162 2386
14162 3666
14163 2387
14163 3667
14164 2388
14164 3668
14165 2389
14165 3669
14166 2390
14166 3670
14167 2391
14167 3671
14168 2392
14168 3672
14169 2393
14169 3673
14170 2394
14170 3674
14171 2395
14171 3675
14172 2396
14172 3676
14173 2397
14173 3677
14174 2398
14174 3678
14175 2399
14175 3679
14176 2400
14176 3680
14177 2401
14177 3681
14178 2402
14178 3682
14179 2403
14179 3683
14180 2404
14180 3684
14181 2405
14181 3685
14182 2406
14182 3686
14183 2407
14183 3687
14184 2408
14184 3688
14185 2409
14185 3689
14186 2410
14186 3690
14187 2411
14187 3691
14188 2412
14188 3692
14189 2413
14189 3693
14190 2414
14190 3694
14191 2415
14191 3695
14192 2416
14192 3696
14193 2417
14193 3697
14194 2418
14194 3698
14195 2419
14195 3699
14196 2420
14196 3700
14197 2421
14197 3701
14198 2422
14198 3702
14199 2423
14199 3703
14200 2424
14200 3704
14201 2425
14201 3705
14202 2426
14202 3706
14203 2427
14203 3707
14204 2428
14204 3708
14205 2429
14205 3709
14206 2430
14206 3710
14207 2431
14207 3711
14208 2304
14208 3968
14209 2305
14209 3969
14210 2306
14210 3970
14211 2307
14211 3971
14212 2308
14212 3972
14213 2309
14213 3973
14214 2310
14214 3974
14215 2311
14215 3975
14216 2312
14216 3976
14217 2313
14217 3977
14218 2314
14218 3978
14219 2315
14219 3979
14220 2316
14220 3980
14221 2317
14221 3981
14222 2318
14222 3982
14223 2319
14223 3983
14224 2320
14224 3984
14225 2321
14225 3985
14226 2322
14226 3986
14227 2323
14227 3987
14228 2324
14228 3988
14229 2325
14229 3989
14230 2326
14230 3990
14231 2327
14231 3991
14232 2328
14232 3992
14233 2329
14233 3993
14234 2330
14234 3994
14235 2331
14235 3995
14236 2332
14236 3996
14237 2333
14237 3997
14238 2334
14238 3998
14239 2335
14239 3999
14240 2336
14240 4000
14241 2337
14241 4001
14242 2338
14242 4002
14243 2339
14243 4003
14244 2340
14244 4004
14245 2341
14245 4005
14246 2342
14246 4006
14247 2343
14247 4007
14248 2344
14248 4008
14249 2345
14249 4009
14250 2346
14250 4010
14251 2347
14251 4011
14252 2348
14252 4012
14253 2349
14253 4013
14254 2350
14254 4014
14255 2351
14255 4015
14256 2352
14256 4016
14257 2353
14257 4017
14258 2354
14258 4018
14259 2355
14259 4019
14260 2356
14260 4020
14261 2357
14261 4021
14262 2358
14262 4022
14263 2359
14263 4023
14264 2360
14264 4024
14265 2361
14265 4025
14266 2362
14266 4026
14267 2363
14267 4027
14268 2364
14268 4028
14269 2365
14269 4029
14270 2366
14270 4030
14271 2367
14271 4031
14272 2368
14272 4032
14273 2369
14273 4033
14274 2370
14274 4034
14275 2371
14275 4035
14276 2372
14276 4036
14277 2373
14277 4037
14278 2374
14278 4038
14279 2375
14279 4039
14280 2376
14280 4040
14281 2377
14281 4041
14282 2378
14282 4042
14283 2379
14283 4043
14284 2380
14284 4044
14285 2381
14285 4045
14286 2382
14286 4046
14287 2383
14287 4047
14288 2384
14288 4048
14289 2385
14289 4049
14290 2386
14290 4050
14291 2387
14291 4051
14292 2388
14292 4052
14293 2389
14293 4053
14294 2390
14294 4054
14295 2391
14295 4055
14296 2392
14296 4056
14297 2393
14297 4057
14298 2394
14298 4058
14299 2395
14299 4059
14300 2396
14300 4060
14301 2397
14301 4061
14302 2398
14302 4062
14303 2399
14303 4063
14304 2400
14304 4064
14305 2401
14305 4065
14306 2402
14306 4066
14307 2403
14307 4067
14308 2404
14308 4068
14309 2405
14309 4069
14310 2406
14310 4070
14311 2407
14311 4071
14312 2408
14312 4072
14313 2409
14313 4073
14314 2410
14314 4074
14315 2411
14315 4075
14316 2412
14316 4076
14317 2413
14317 4077
14318 2414
14318 4078
14319 2415
14319 4079
14320 2416
14320 4080
14321 2417
14321 4081
14322 2418
14322 4082
14323 2419
14323 4083
14324 2420
14324 4084
14325 2421
14325 4085
14326 2422
14326 4086
14327 2423
14327 4087
14328 2424
14328 4088
14329 2425
14329 4089
14330 2426
14330 4090
14331 2427
14331 4091
14332 2428
14332 4092
14333 2429
14333 4093
14334 2430
14334 4094
14335 2431
14335 4095
14336 2304
14336 4992
14337 2305
14337 4993
14338 2306
14338 4994
14339 2307
14339 4995
14340 2308
14340 4996
14341 2309
14341 4997
14342 2310
14342 4998
14343 2311
14343 4999
14344 2312
14344 5000
14345 2313
14345 5001
14346 2314
14346 5002
14347 2315
14347 5003
14348 2316
14348 5004
14349 2317
14349 5005
14350 2318
14350 5006
14351 2319
14351 5007
14352 2320
14352 5008
14353 2321
14353 5009
14354 2322
14354 5010
14355 2323
14355 5011
14356 2324
14356 5012
14357 2325
14357 5013
14358 2326
14358 5014
14359 2327
14359 5015
14360 2328
14360 5016
14361 2329
14361 5017
14362 2330
14362 5018
14363 2331
14363 5019
14364 2332
14364 5020
14365 2333
14365 5021
14366 2334
14366 5022
14367 2335
14367 5023
14368 2336
14368 5024
14369 2337
14369 5025
14370 2338
14370 5026
14371 2339
14371 5027
14372 2340
14372 5028
14373 2341
14373 5029
14374 2342
14374 5030
14375 2343
14375 5031
14376 2344
14376 5032
14377 2345
14377 5033
14378 2346
14378 5034
14379 2347
14379 5035
14380 2348
14380 5036
14381 2349
14381 5037
14382 2350
14382 5038
14383 2351
14383 5039
14384 2352
14384 5040
14385 2353
14385 5041
14386 2354
14386 5042
14387 2355
14387 5043
14388 2356
14388 5044
14389 2357
14389 5045
14390 2358
14390 5046
14391 2359
14391 5047
14392 2360
14392 5048
14393 2361
14393 5049
14394 2362
14394 5050
14395 2363
14395 5051
14396 2364
14396 5052
14397 2365
14397 5053
14398 2366
14398 5054
14399 2367
14399 5055
14400 2368
14400 5056
14401 2369
14401 5057
14402 2370
14402 5058
14403 2371
14403 5059
14404 2372
14404 5060
14405 2373
14405 5061
14406 2374
14406 5062
14407 2375
14407 5063
14408 2376
14408 5064
14409 2377
14409 5065
14410 2378
14410 5066
14411 2379
14411 5067
14412 2380
14412 5068
14413 2381
14413 5069
14414 2382
14414 5070
14415 2383
14415 5071
14416 2384
14416 5072
14417 2385
14417 5073
14418 2386
14418 5074
14419 2387
14419 5075
14420 2388
14420 5076
14421 2389
14421 5077
14422 2390
14422 5078
14423 2391
14423 5079
14424 2392
14424 5080
14425 2393
14425 5081
14426 2394
14426 5082
14427 2395
14427 5083
14428 2396
14428 5084
14429 2397
14429 5085
14430 2398
14430 5086
14431 2399
14431 5087
14432 2400
14432 5088
14433 2401
14433 5089
14434 2402
14434 5090
14435 2403
14435 5091
14436 2404
14436 5092
14437 2405
14437 5093
14438 2406
14438 5094
14439 2407
14439 5095
14440 2408
14440 5096
14441 2409
14441 5097
14442 2410
14442 5098
14443 2411
14443 5099
14444 2412
14444 5100
14445 2413
14445 5101
14446 2414
14446 5102
14447 2415
14447 5103
14448 2416
14448 5104
14449 2417
14449 5105
14450 2418
14450 5106
14451 2419
14451 5107
14452 2420
14452 5108
14453 2421
14453 5109
14454 2422
14454 5110
14455 2423
14455 5111
14456 2424
14456 5112
14457 2425
14457 5113
14458 2426
14458 5114
14459 2427
14459 5115
14460 2428
14460 5116
14461 2429
14461 5117
14462 2430
14462 5118
14463 2431
14463 5119
14464 2304
14464 5376
14465 2305
14465 5377
14466 2306
14466 5378
14467 2307
14467 5379
14468 2308
14468 5380
14469 2309
14469 5381
14470 2310
14470 5382
14471 2311
14471 5383
14472 2312
14472 5384
14473 2313
14473 5385
14474 2314
14474 5386
14475 2315
14475 5387
14476 2316
14476 5388
14477 2317
14477 5389
14478 2318
14478 5390
14479 2319
14479 5391
14480 2320
14480 5392
14481 2321
14481 5393
14482 2322
14482 5394
14483 2323
14483 5395
14484 2324
14484 5396
14485 2325
14485 5397
14486 2326
14486 5398
14487 2327
14487 5399
14488 2328
14488 5400
14489 2329
14489 5401
14490 2330
14490 5402
14491 2331
14491 5403
14492 2332
14492 5404
14493 2333
14493 5405
14494 2334
14494 5406
14495 2335
14495 5407
14496 2336
14496 5408
14497 2337
14497 5409
14498 2338
14498 5410
14499 2339
14499 5411
14500 2340
14500 5412
14501 2341
14501 5413
14502 2342
14502 5414
14503 2343
14503 5415
14504 2344
14504 5416
14505 2345
14505 5417
14506 2346
14506 5418
14507 2347
14507 5419
14508 2348
14508 5420
14509 2349
14509 5421
14510 2350
14510 5422
14511 2351
14511 5423
14512 2352
14512 5424
14513 2353
14513 5425
14514 2354
14514 5426
14515 2355
14515 5427
14516 2356
14516 5428
14517 2357
14517 5429
14518 2358
14518 5430
14519 2359
14519 5431
14520 2360
14520 5432
14521 2361
14521 5433
14522 2362
14522 5434
14523 2363
14523 5435
14524 2364
14524 5436
14525 2365
14525 5437
14526 2366
14526 5438
14527 2367
14527 5439
14528 2368
14528 5440
14529 2369
14529 5441
14530 2370
14530 5442
14531 2371
14531 5443
14532 2372
14532 5444
14533 2373
14533 5445
14534 2374
14534 5446
14535 2375
14535 5447
14536 2376
14536 5448
14537 2377
14537 5449
14538 2378
14538 5450
14539 2379
14539 5451
14540 2380
14540 5452
14541 2381
14541 5453
14542 2382
14542 5454
14543 2383
14543 5455
14544 2384
14544 5456
14545 2385
14545 5457
14546 2386
14546 5458
14547 2387
14547 5459
14548 2388
14548 5460
14549 2389
14549 5461
14550 2390
14550 5462
14551 2391
14551 5463
14552 2392
14552 5464
14553 2393
14553 5465
14554 2394
14554 5466
14555 2395
14555 5467
14556 2396
14556 5468
14557 2397
14557 5469
14558 2398
14558 5470
14559 2399
14559 5471
14560 2400
14560 5472
14561 2401
14561 5473
14562 2402
14562 5474
14563 2403
14563 5475
14564 2404
14564 5476
14565 2405
14565 5477
14566 2406
14566 5478
14567 2407
14567 5479
14568 2408
14568 5480
14569 2409
14569 5481
14570 2410
14570 5482
14571 2411
14571 5483
14572 2412
14572 5484
14573 2413
14573 5485
14574 2414
14574 5486
14575 2415
14575 5487
14576 2416
14576 5488
14577 2417
14577 5489
14578 2418
14578 5490
14579 2419
14579 5491
14580 2420
14580 5492
14581 2421
14581 5493
14582 2422
14582 5494
14583 2423
14583 5495
14584 2424
14584 5496
14585 2425
14585 5497
14586 2426
14586 5498
14587 2427
14587 5499
14588 2428
14588 5500
14589 2429
14589 5501
14590 2430
14590 5502
14591 2431
14591 5503
14592 2304
14592 5760
14593 2305
14593 5761
14594 2306
14594 5762
14595 2307
14595 5763
14596 2308
14596 5764
14597 2309
14597 5765
14598 2310
14598 5766
14599 2311
14599 5767
14600 2312
14600 5768
14601 2313
14601 5769
14602 2314
14602 5770
14603 2315
14603 5771
14604 2316
14604 5772
14605 2317
14605 5773
14606 2318
14606 5774
14607 2319
14607 5775
14608 2320
14608 5776
14609 2321
14609 5777
14610 2322
14610 5778
14611 2323
14611 5779
14612 2324
14612 5780
14613 2325
14613 5781
14614 2326
14614 5782
14615 2327
14615 5783
14616 2328
14616 5784
14617 2329
14617 5785
14618 2330
14618 5786
14619 2331
14619 5787
14620 2332
14620 5788
14621 2333
14621 5789
14622 2334
14622 5790
14623 2335
14623 5791
14624 2336
14624 5792
14625 2337
14625 5793
14626 2338
14626 5794
14627 2339
14627 5795
14628 2340
14628 5796
14629 2341
14629 5797
14630 2342
14630 5798
14631 2343
14631 5799
14632 2344
14632 5800
14633 2345
14633 5801
14634 2346
14634 5802
14635 2347
14635 5803
14636 2348
14636 5804
14637 2349
14637 5805
14638 2350
14638 5806
14639 2351
14639 5807
14640 2352
14640 5808
14641 2353
14641 5809
14642 2354
14642 5810
14643 2355
14643 5811
14644 2356
14644 5812
14645 2357
14645 5813
14646 2358
14646 5814
14647 2359
14647 5815
14648 2360
14648 5816
14649 2361
14649 5817
14650 2362
14650 5818
14651 2363
14651 5819
14652 2364
14652 5820
14653 2365
14653 5821
14654 2366
14654 5822
14655 2367
14655 5823
14656 2368
14656 5824
14657 2369
14657 5825
14658 2370
14658 5826
14659 2371
14659 5827
14660 2372
14660 5828
14661 2373
14661 5829
14662 2374
14662 5830
14663 2375
14663 5831
14664 2376
14664 5832
14665 2377
14665 5833
14666 2378
14666 5834
14667 2379
14667 5835
14668 2380
14668 5836
14669 2381
14669 5837
14670 2382
14670 5838
14671 2383
14671 5839
14672 2384
14672 5840
14673 2385
14673 5841
14674 2386
14674 5842
14675 2387
14675 5843
14676 2388
14676 5844
14677 2389
14677 5845
14678 2390
14678 5846
14679 2391
14679 5847
14680 2392
14680 5848
14681 2393
14681 5849
14682 2394
14682 5850
14683 2395
14683 5851
14684 2396
14684 5852
14685 2397
14685 5853
14686 2398
14686 5854
14687 2399
14687 5855
14688 2400
14688 5856
14689 2401
14689 5857
14690 2402
14690 5858
14691 2403
14691 5859
14692 2404
14692 5860
14693 2405
14693 5861
14694 2406
14694 5862
14695 2407
14695 5863
14696 2408
14696 5864
14697 2409
14697 5865
14698 2410
14698 5866
14699 2411
14699 5867
14700 2412
14700 5868
14701 2413
14701 5869
14702 2414
14702 5870
14703 2415
14703 5871
14704 2416
14704 5872
14705 2417
14705 5873
14706 2418
14706 5874
14707 2419
14707 5875
14708 2420
14708 5876
14709 2421
14709 5877
14710 2422
14710 5878
14711 2423
14711 5879
14712 2424
14712 5880
14713 2425
14713 5881
14714 2426
14714 5882
14715 2427
14715 5883
14716 2428
14716 5884
14717 2429
14717 5885
14718 2430
14718 5886
14719 2431
14719 5887
14720 2432
14720 3712
14721 2433
14721 3713
14722 2434
14722 3714
14723 2435
14723 3715
14724 2436
14724 3716
14725 2437
14725 3717
14726 2438
14726 3718
14727 2439
14727 3719
14728 2440
14728 3720
14729 2441
14729 3721
14730 2442
14730 3722
14731 2443
14731 3723
14732 2444
14732 3724
14733 2445
14733 3725
14734 2446
14734 3726
14735 2447
14735 3727
14736 2448
14736 3728
14737 2449
14737 3729
14738 2450
14738 3730
14739 2451
14739 3731
14740 2452
14740 3732
14741 2453
14741 3733
14742 2454
14742 3734
14743 2455
14743 3735
14744 2456
14744 3736
14745 2457
14745 3737
14746 2458
14746 3738
14747 2459
14747 3739
14748 2460
14748 3740
14749 2461
14749 3741
14750 2462
14750 3742
14751 2463
14751 3743
14752 2464
14752 3744
14753 2465
14753 3745
14754 2466
14754 3746
14755 2467
14755 3747
14756 2468
14756 3748
14757 2469
14757 3749
14758 2470
14758 3750
14759 2471
14759 3751
14760 2472
14760 3752
14761 2473
14761 3753
14762 2474
14762 3754
14763 2475
14763 3755
14764 2476
14764 3756
14765 2477
14765 3757
14766 2478
14766 3758
14767 2479
14767 3759
14768 2480
14768 3760
14769 2481
14769 3761
14770 2482
14770 3762
14771 2483
14771 3763
14772 2484
14772 3764
14773 2485
14773 3765
14774 2486
14774 3766
14775 2487
14775 3767
14776 2488
14776 3768
14777 2489
14777 3769
14778 2490
14778 3770
14779 2491
14779 3771
14780 2492
14780 3772
14781 2493
14781 3773
14782 2494
14782 3774
14783 2495
14783 3775
14784 2496
14784 3776
14785 2497
14785 3777
14786 2498
14786 3778
14787 2499
14787 3779
14788 2500
14788 3780
14789 2501
14789 3781
14790 2502
14790 3782
14791 2503
14791 3783
14792 2504
14792 3784
14793 2505
14793 3785
14794 2506
14794 3786
14795 2507
14795 3787
14796 2508
14796 3788
14797 2509
14797 3789
14798 2510
14798 3790
14799 2511
14799 3791
14800 2512
14800 3792
14801 2513
14801 3793
14802 2514
14802 3794
14803 2515
14803 3795
14804 2516
14804 3796
14805 2517
14805 3797
14806 2518
14806 3798
14807 2519
14807 3799
14808 2520
14808 3800
14809 2521
14809 3801
14810 2522
14810 3802
14811 2523
14811 3803
14812 2524
14812 3804
14813 2525
14813 3805
14814 2526
14814 3806
14815 2527
14815 3807
14816 2528
14816 3808
14817 2529
14817 3809
14818 2530
14818 3810
14819 2531
14819 3811
14820 2532
14820 3812
14821 2533
14821 3813
14822 2534
14822 3814
14823 2535
14823 3815
14824 2536
14824 3816
14825 2537
14825 3817
14826 2538
14826 3818
14827 2539
14827 3819
14828 2540
14828 3820
14829 2541
14829 3821
14830 2542
14830 3822
14831 2543
14831 3823
14832 2544
14832 3824
14833 2545
14833 3825
14834 2546
14834 3826
14835 2547
14835 3827
14836 2548
14836 3828
14837 2549
14837 3829
14838 2550
14838 3830
14839 2551
14839 3831
14840 2552
14840 3832
14841 2553
14841 3833
14842 2554
14842 3834
14843 2555
14843 3835
14844 2556
14844 3836
14845 2557
14845 3837
14846 2558
14846 3838
14847 2559
14847 3839
14848 2432
14848 4096
14849 2433
14849 4097
14850 2434
14850 4098
14851 2435
14851 4099
14852 2436
14852 4100
14853 2437
14853 4101
14854 2438
14854 4102
14855 2439
14855 4103
14856 2440
14856 4104
14857 2441
14857 4105
14858 2442
14858 4106
14859 2443
14859 4107
14860 2444
14860 4108
14861 2445
14861 4109
14862 2446
14862 4110
14863 2447
14863 4111
14864 2448
14864 4112
14865 2449
14865 4113
14866 2450
14866 4114
14867 2451
14867 4115
14868 2452
14868 4116
14869 2453
14869 4117
14870 2454
14870 4118
14871 2455
14871 4119
14872 2456
14872 4120
14873 2457
14873 4121
14874 2458
14874 4122
14875 2459
14875 4123
14876 2460
14876 4124
14877 2461
14877 4125
14878 2462
14878 4126
14879 2463
14879 4127
14880 2464
14880 4128
14881 2465
14881 4129
14882 2466
14882 4130
14883 2467
14883 4131
14884 2468
14884 4132
14885 2469
14885 4133
14886 2470
14886 4134
14887 2471
14887 4135
14888 2472
14888 4136
14889 2473
14889 4137
14890 2474
14890 4138
14891 2475
14891 4139
14892 2476
14892 4140
14893 2477
14893 4141
14894 2478
14894 4142
14895 2479
14895 4143
14896 2480
14896 4144
14897 2481
14897 4145
14898 2482
14898 4146
14899 2483
14899 4147
14900 2484
14900 4148
14901 2485
14901 4149
14902 2486
14902 4150
14903 2487
14903 4151
14904 2488
14904 4152
14905 2489
14905 4153
14906 2490
14906 4154
14907 2491
14907 4155
14908 2492
14908 4156
14909 2493
14909 4157
14910 2494
14910 4158
14911 2495
14911 4159
14912 2496
14912 4160
14913 2497
14913 4161
14914 2498
14914 4162
14915 2499
14915 4163
14916 2500
14916 4164
14917 2501
14917 4165
14918 2502
14918 4166
14919 2503
14919 4167
14920 2504
14920 4168
14921 2505
14921 4169
14922 2506
14922 4170
14923 2507
14923 4171
14924 2508
14924 4172
14925 2509
14925 4173
14926 2510
14926 4174
14927 2511
14927 4175
14928 2512
14928 4176
14929 2513
14929 4177
14930 2514
14930 4178
14931 2515
14931 4179
14932 2516
14932 4180
14933 2517
14933 4181
14934 2518
14934 4182
14935 2519
14935 4183
14936 2520
14936 4184
14937 2521
14937 4185
14938 2522
14938 4186
14939 2523
14939 4187
14940 2524
14940 4188
14941 2525
14941 4189
14942 2526
14942 4190
14943 2527
14943 4191
14944 2528
14944 4192
14945 2529
14945 4193
14946 2530
14946 4194
14947 2531
14947 4195
14948 2532
14948 4196
14949 2533
14949 4197
14950 2534
14950 4198
14951 2535
14951 4199
14952 2536
14952 4200
14953 2537
14953 4201
14954 2538
14954 4202
14955 2539
14955 4203
14956 2540
14956 4204
14957 2541
14957 4205
14958 2542
14958 4206
14959 2543
14959 4207
14960 2544
14960 4208
14961 2545
14961 4209
14962 2546
14962 4210
14963 2547
14963 4211
14964 2548
14964 4212
14965 2549
14965 4213
14966 2550
14966 4214
14967 2551
14967 4215
14968 2552
14968 4216
14969 2553
14969 4217
14970 2554
14970 4218
14971 2555
14971 4219
14972 2556
14972 4220
14973 2557
14973 4221
14974 2558
14974 4222
14975 2559
14975 4223
14976 2432
14976 4480
14977 2433
14977 4481
14978 2434
14978 4482
14979 2435
14979 4483
14980 2436
14980 4484
14981 2437
14981 4485
14982 2438
14982 4486
14983 2439
14983 4487
14984 2440
14984 4488
14985 2441
14985 4489
14986 2442
14986 4490
14987 2443
14987 4491
14988 2444
14988 4492
14989 2445
14989 4493
14990 2446
14990 4494
14991 2447
14991 4495
14992 2448
14992 4496
14993 2449
14993 4497
14994 2450
14994 4498
14995 2451
14995 4499
14996 2452
14996 4500
14997 2453
14997 4501
14998 2454
14998 4502
14999 2455
14999 4503
15000 2456
15000 4504
15001 2457
15001 4505
15002 2458
15002 4506
15003 2459
15003 4507
15004 2460
15004 4508
15005 2461
15005 4509
15006 2462
15006 4510
15007 2463
15007 4511
15008 2464
15008 4512
15009 2465
15009 4513
15010 2466
15010 4514
15011 2467
15011 4515
15012 2468
15012 4516
15013 2469
15013 4517
15014 2470
15014 4518
15015 2471
15015 4519
15016 2472
15016 4520
15017 2473
15017 4521
15018 2474
15018 4522
15019 2475
15019 4523
15020 2476
15020 4524
15021 2477
15021 4525
15022 2478
15022 4526
15023 2479
15023 4527
15024 2480
15024 4528
15025 2481
15025 4529
15026 2482
15026 4530
15027 2483
15027 4531
15028 2484
15028 4532
15029 2485
15029 4533
15030 2486
15030 4534
15031 2487
15031 4535
15032 2488
15032 4536
15033 2489
15033 4537
15034 2490
15034 4538
15035 2491
15035 4539
15036 2492
15036 4540
15037 2493
15037 4541
15038 2494
15038 4542
15039 2495
15039 4543
15040 2496
15040 4544
15041 2497
15041 4545
15042 2498
15042 4546
15043 2499
15043 4547
15044 2500
15044 4548
15045 2501
15045 4549
15046 2502
15046 4550
15047 2503
15047 4551
15048 2504
15048 4552
15049 2505
15049 4553
15050 2506
15050 4554
15051 2507
15051 4555
15052 2508
15052 4556
15053 2509
15053 4557
15054 2510
15054 4558
15055 2511
15055 4559
15056 2512
15056 4560
15057 2513
15057 4561
15058 2514
15058 4562
15059 2515
15059 4563
15060 2516
15060 4564
15061 2517
15061 4565
15062 2518
15062 4566
15063 2519
15063 4567
15064 2520
15064 4568
15065 2521
15065 4569
15066 2522
15066 4570
15067 2523
15067 4571
15068 2524
15068 4572
15069 2525
15069 4573
15070 2526
15070 4574
15071 2527
15071 4575
15072 2528
15072 4576
15073 2529
15073 4577
15074 2530
15074 4578
15075 2531
15075 4579
15076 2532
15076 4580
15077 2533
15077 4581
15078 2534
15078 4582
15079 2535
15079 4583
15080 2536
15080 4584
15081 2537
15081 4585
15082 2538
15082 4586
15083 2539
15083 4587
15084 2540
15084 4588
15085 2541
15085 4589
15086 2542
15086 4590
15087 2543
15087 4591
15088 2544
15088 4592
15089 2545
15089 4593
15090 2546
15090 4594
15091 2547
15091 4595
15092 2548
15092 4596
15093 2549
15093 4597
15094 2550
15094 4598
15095 2551
15095 4599
15096 2552
15096 4600
15097 2553
15097 4601
15098 2554
15098 4602
15099 2555
15099 4603
15100 2556
15100 4604
15101 2557
15101 4605
15102 2558
15102 4606
15103 2559
15103 4607
15104 2432
15104 5504
15105 2433
15105 5505
15106 2434
15106 5506
15107 2435
15107 5507
15108 2436
15108 5508
15109 2437
15109 5509
15110 2438
15110 5510
15111 2439
15111 5511
15112 2440
15112 5512
15113 2441
15113 5513
15114 2442
15114 5514
15115 2443
15115 5515
15116 2444
15116 5516
15117 2445
15117 5517
15118 2446
15118 5518
15119 2447
15119 5519
15120 2448
15120 5520
15121 2449
15121 5521
15122 2450
15122 5522
15123 2451
15123 5523
15124 2452
15124 5524
15125 2453
15125 5525
15126 2454
15126 5526
15127 2455
15127 5527
15128 2456
15128 5528
15129 2457
15129 5529
15130 2458
15130 5530
15131 2459
15131 5531
15132 2460
15132 5532
15133 2461
15133 5533
15134 2462
15134 5534
15135 2463
15135 5535
15136 2464
15136 5536
15137 2465
15137 5537
15138 2466
15138 5538
15139 2467
15139 5539
15140 2468
15140 5540
15141 2469
15141 5541
15142 2470
15142 5542
15143 2471
15143 5543
15144 2472
15144 5544
15145 2473
15145 5545
15146 2474
15146 5546
15147 2475
15147 5547
15148 2476
15148 5548
15149 2477
15149 5549
15150 2478
15150 5550
15151 2479
15151 5551
15152 2480
15152 5552
15153 2481
15153 5553
15154 2482
15154 5554
15155 2483
15155 5555
15156 2484
15156 5556
15157 2485
15157 5557
15158 2486
15158 5558
15159 2487
15159 5559
15160 2488
15160 5560
15161 2489
15161 5561
15162 2490
15162 5562
15163 2491
15163 5563
15164 2492
15164 5564
15165 2493
15165 5565
15166 2494
15166 5566
15167 2495
15167 5567
15168 2496
15168 5568
15169 2497
15169 5569
15170 2498
15170 5570
15171 2499
15171 5571
15172 2500
15172 5572
15173 2501
15173 5573
15174 2502
15174 5574
15175 2503
15175 5575
15176 2504
15176 5576
15177 2505
15177 5577
15178 2506
15178 5578
15179 2507
15179 5579
15180 2508
15180 5580
15181 2509
15181 5581
15182 2510
15182 5582
15183 2511
15183 5583
15184 2512
15184 5584
15185 2513
15185 5585
15186 2514
15186 5586
15187 2515
15187 5587
15188 2516
15188 5588
15189 2517
15189 5589
15190 2518
15190 5590
15191 2519
15191 5591
15192 2520
15192 5592
15193 2521
15193 5593
15194 2522
15194 5594
15195 2523
15195 5595
15196 2524
15196 5596
15197 2525
15197 5597
15198 2526
15198 5598
15199 2527
15199 5599
15200 2528
15200 5600
15201 2529
15201 5601
15202 2530
15202 5602
15203 2531
15203 5603
15204 2532
15204 5604
15205 2533
15205 5605
15206 2534
15206 5606
15207 2535
15207 5607
15208 2536
15208 5608
15209 2537
15209 5609
15210 2538
15210 5610
15211 2539
15211 5611
15212 2540
15212 5612
15213 2541
15213 5613
15214 2542
15214 5614
15215 2543
15215 5615
15216 2544
15216 5616
15217 2545
15217 5617
15218 2546
15218 5618
15219 2547
15219 5619
15220 2548
15220 5620
15221 2549
15221 5621
15222 2550
15222 5622
15223 2551
15223 5623
15224 2552
15224 5624
15225 2553
15225 5625
15226 2554
15226 5626
15227 2555
15227 5627
15228 2556
15228 5628
15229 2557
15229 5629
15230 2558
15230 5630
15231 2559
15231 5631
15232 2432
15232 5888
15233 2433
15233 5889
15234 2434
15234 5890
15235 2435
15235 5891
15236 2436
15236 5892
15237 2437
15237 5893
15238 2438
15238 5894
15239 2439
15239 5895
15240 2440
15240 5896
15241 2441
15241 5897
15242 2442
15242 5898
15243 2443
15243 5899
15244 2444
15244 5900
15245 2445
15245 5901
15246 2446
15246 5902
15247 2447
15247 5903
15248 2448
15248 5904
15249 2449
15249 5905
15250 2450
15250 5906
15251 2451
15251 5907
15252 2452
15252 5908
15253 2453
15253 5909
15254 2454
15254 5910
15255 2455
15255 5911
15256 2456
15256 5912
15257 2457
15257 5913
15258 2458
15258 5914
15259 2459
15259 5915
15260 2460
15260 5916
15261 2461
15261 5917
15262 2462
15262 5918
15263 2463
15263 5919
15264 2464
15264 5920
15265 2465
15265 5921
15266 2466
15266 5922
15267 2467
15267 5923
15268 2468
15268 5924
15269 2469
15269 5925
15270 2470
15270 5926
15271 2471
15271 5927
15272 2472
15272 5928
15273 2473
15273 5929
15274 2474
15274 5930
15275 2475
15275 5931
15276 2476
15276 5932
15277 2477
15277 5933
15278 2478
15278 5934
15279 2479
15279 5935
15280 2480
15280 5936
15281 2481
15281 5937
15282 2482
15282 5938
15283 2483
15283 5939
15284 2484
15284 5940
15285 2485
15285 5941
15286 2486
15286 5942
15287 2487
15287 5943
15288 2488
15288 5944
15289 2489
15289 5945
15290 2490
15290 5946
15291 2491
15291 5947
15292 2492
15292 5948
15293 2493
15293 5949
15294 2494
15294 5950
15295 2495
15295 5951
15296 2496
15296 5952
15297 2497
15297 5953
15298 2498
15298 5954
15299 2499
15299 5955
15300 2500
15300 5956
15301 2501
15301 5957
15302 2502
15302 5958
15303 2503
15303 5959
15304 2504
15304 5960
15305 2505
15305 5961
15306 2506
15306 5962
15307 2507
15307 5963
15308 2508
15308 5964
15309 2509
15309 5965
15310 2510
15310 5966
15311 2511
15311 5967
15312 2512
15312 5968
15313 2513
15313 5969
15314 2514
15314 5970
15315 2515
15315 5971
15316 2516
15316 5972
15317 2517
15317 5973
15318 2518
15318 5974
15319 2519
15319 5975
15320 2520
15320 5976
15321 2521
15321 5977
15322 2522
15322 5978
15323 2523
15323 5979
15324 2524
15324 5980
15325 2525
15325 5981
15326 2526
15326 5982
15327 2527
15327 5983
15328 2528
15328 5984
15329 2529
15329 5985
15330 2530
15330 5986
15331 2531
15331 5987
15332 2532
15332 5988
15333 2533
15333 5989
15334 2534
15334 5990
15335 2535
15335 5991
15336 2536
15336 5992
15337 2537
15337 5993
15338 2538
15338 5994
15339 2539
15339 5995
15340 2540
15340 5996
15341 2541
15341 5997
15342 2542
15342 5998
15343 2543
15343 5999
15344 2544
15344 6000
15345 2545
15345 6001
15346 2546
15346 6002
15347 2547
15347 6003
15348 2548
15348 6004
15349 2549
15349 6005
15350 2550
15350 6006
15351 2551
15351 6007
15352 2552
15352 6008
15353 2553
15353 6009
15354 2554
15354 6010
15355 2555
15355 6011
15356 2556
15356 6012
15357 2557
15357 6013
15358 2558
15358 6014
15359 2559
15359 6015
15360 2560
15360 2688
15361 2561
15361 2689
15362 2562
15362 2690
15363 2563
15363 2691
15364 2564
15364 2692
15365 2565
15365 2693
15366 2566
15366 2694
15367 2567
15367 2695
15368 2568
15368 2696
15369 2569
15369 2697
15370 2570
15370 2698
15371 2571
15371 2699
15372 2572
15372 2700
15373 2573
15373 2701
15374 2574
15374 2702
15375 2575
15375 2703
15376 2576
15376 2704
15377 2577
15377 2705
15378 2578
15378 2706
15379 2579
15379 2707
15380 2580
15380 2708
15381 2581
15381 2709
15382 2582
15382 2710
15383 2583
15383 2711
15384 2584
15384 2712
15385 2585
15385 2713
15386 2586
15386 2714
15387 2587
15387 2715
15388 2588
15388 2716
15389 2589
15389 2717
15390 2590
15390 2718
15391 2591
15391 2719
15392 2592
15392 2720
15393 2593
15393 2721
15394 2594
15394 2722
15395 2595
15395 2723
15396 2596
15396 2724
15397 2597
15397 2725
15398 2598
15398 2726
15399 2599
15399 2727
15400 2600
15400 2728
15401 2601
15401 2729
15402 2602
15402 2730
15403 2603
15403 2731
15404 2604
15404 2732
15405 2605
15405 2733
15406 2606
15406 2734
15407 2607
15407 2735
15408 2608
15408 2736
15409 2609
15409 2737
15410 2610
15410 2738
15411 2611
15411 2739
15412 2612
15412 2740
15413 2613
15413 2741
15414 2614
15414 2742
15415 2615
15415 2743
15416 2616
15416 2744
15417 2617
15417 2745
15418 2618
15418 2746
15419 2619
15419 2747
15420 2620
15420 2748
15421 2621
15421 2749
15422 2622
15422 2750
15423 2623
15423 2751
15424 2624
15424 2752
15425 2625
15425 2753
15426 2626
15426 2754
15427 2627
15427 2755
15428 2628
15428 2756
15429 2629
15429 2757
15430 2630
15430 2758
15431 2631
15431 2759
15432 2632
15432 2760
15433 2633
15433 2761
15434 2634
15434 2762
15435 2635
15435 2763
15436 2636
15436 2764
15437 2637
15437 2765
15438 2638
15438 2766
15439 2639
15439 2767
15440 2640
15440 2768
15441 2641
15441 2769
15442 2642
15442 2770
15443 2643
15443 2771
15444 2644
15444 2772
15445 2645
15445 2773
15446 2646
15446 2774
15447 2647
15447 2775
15448 2648
15448 2776
15449 2649
15449 2777
15450 2650
15450 2778
15451 2651
15451 2779
15452 2652
15452 2780
15453 2653
15453 2781
15454 2654
15454 2782
15455 2655
15455 2783
15456 2656
15456 2784
15457 2657
15457 2785
15458 2658
15458 2786
15459 2659
15459 2787
15460 2660
15460 2788
15461 2661
15461 2789
15462 2662
15462 2790
15463 2663
15463 2791
15464 2664
15464 2792
15465 2665
15465 2793
15466 2666
15466 2794
15467 2667
15467 2795
15468 2668
15468 2796
15469 2669
15469 2797
15470 2670
15470 2798
15471 2671
15471 2799
15472 2672
15472 2800
15473 2673
15473 2801
15474 2674
15474 2802
15475 2675
15475 2803
15476 2676
15476 2804
15477 2677
15477 2805
15478 2678
15478 2806
15479 2679
15479 2807
15480 2680
15480 2808
15481 2681
15481 2809
15482 2682
15482 2810
15483 2683
15483 2811
15484 2684
15484 2812
15485 2685
15485 2813
15486 2686
15486 2814
15487 2687
15487 2815
15488 2560
15488 3072
15489 2561
15489 3073
15490 2562
15490 3074
15491 2563
15491 3075
15492 2564
15492 3076
15493 2565
15493 3077
15494 2566
15494 3078
15495 2567
15495 3079
15496 2568
15496 3080
15497 2569
15497 3081
15498 2570
15498 3082
15499 2571
15499 3083
15500 2572
15500 3084
15501 2573
15501 3085
15502 2574
15502 3086
15503 2575
15503 3087
15504 2576
15504 3088
15505 2577
15505 3089
15506 2578
15506 3090
15507 2579
15507 3091
15508 2580
15508 3092
15509 2581
15509 3093
15510 2582
15510 3094
15511 2583
15511 3095
15512 2584
15512 3096
15513 2585
15513 3097
15514 2586
15514 3098
15515 2587
15515 3099
15516 2588
15516 3100
15517 2589
15517 3101
15518 2590
15518 3102
15519 2591
15519 3103
15520 2592
15520 3104
15521 2593
15521 3105
15522 2594
15522 3106
15523 2595
15523 3107
15524 2596
15524 3108
15525 2597
15525 3109
15526 2598
15526 3110
15527 2599
15527 3111
15528 2600
15528 3112
15529 2601
15529 3113
15530 2602
15530 3114
15531 2603
15531 3115
15532 2604
15532 3116
15533 2605
15533 3117
15534 2606
15534 3118
15535 2607
15535 3119
15536 2608
15536 3120
15537 2609
15537 3121
15538 2610
15538 3122
15539 2611
15539 3123
15540 2612
15540 3124
15541 2613
15541 3125
15542 2614
15542 3126
15543 2615
15543 3127
15544 2616
15544 3128
15545 2617
15545 3129
15546 2618
15546 3130
15547 2619
15547 3131
15548 2620
15548 3132
15549 2621
15549 3133
15550 2622
15550 3134
15551 2623
15551 3135
15552 2624
15552 3136
15553 2625
15553 3137
15554 2626
15554 3138
15555 2627
15555 3139
15556 2628
15556 3140
15557 2629
15557 3141
15558 2630
15558 3142
15559 2631
15559 3143
15560 2632
15560 3144
15561 2633
15561 3145
15562 2634
15562 3146
15563 2635
15563 3147
15564 2636
15564 3148
15565 2637
15565 3149
15566 2638
15566 3150
15567 2639
15567 3151
15568 2640
15568 3152
15569 2641
15569 3153
15570 2642
15570 3154
15571 2643
15571 3155
15572 2644
15572 3156
15573 2645
15573 3157
15574 2646
15574 3158
15575 2647
15575 3159
15576 2648
15576 3160
15577 2649
15577 3161
15578 2650
15578 3162
15579 2651
15579 3163
15580 2652
15580 3164
15581 2653
15581 3165
15582 2654
15582 3166
15583 2655
15583 3167
15584 2656
15584 3168
15585 2657
15585 3169
15586 2658
15586 3170
15587 2659
15587 3171
15588 2660
15588 3172
15589 2661
15589 3173
15590 2662
15590 3174
15591 2663
15591 3175
15592 2664
15592 3176
15593 2665
15593 3177
15594 2666
15594 3178
15595 2667
15595 3179
15596 2668
15596 3180
15597 2669
15597 3181
15598 2670
15598 3182
15599 2671
15599 3183
15600 2672
15600 3184
15601 2673
15601 3185
15602 2674
15602 3186
15603 2675
15603 3187
15604 2676
15604 3188
15605 2677
15605 3189
15606 2678
15606 3190
15607 2679
15607 3191
15608 2680
15608 3192
15609 2681
15609 3193
15610 2682
15610 3194
15611 2683
15611 3195
15612 2684
15612 3196
15613 2685
15613 3197
15614 2686
15614 3198
15615 2687
15615 3199
15616 2560
15616 3200
15617 2561
15617 3201
15618 2562
15618 3202
15619 2563
15619 3203
15620 2564
15620 3204
15621 2565
15621 3205
15622 2566
15622 3206
15623 2567
15623 3207
15624 2568
15624 3208
15625 2569
15625 3209
15626 2570
15626 3210
15627 2571
15627 3211
15628 2572
15628 3212
15629 2573
15629 3213
15630 2574
15630 3214
15631 2575
15631 3215
15632 2576
15632 3216
15633 2577
15633 3217
15634 2578
15634 3218
15635 2579
15635 3219
15636 2580
15636 3220
15637 2581
15637 3221
15638 2582
15638 3222
15639 2583
15639 3223
15640 2584
15640 3224
15641 2585
15641 3225
15642 2586
15642 3226
15643 2587
15643 3227
15644 2588
15644 3228
15645 2589
15645 3229
15646 2590
15646 3230
15647 2591
15647 3231
15648 2592
15648 3232
15649 2593
15649 3233
15650 2594
15650 3234
15651 2595
15651 3235
15652 2596
15652 3236
15653 2597
15653 3237
15654 2598
15654 3238
15655 2599
15655 3239
15656 2600
15656 3240
15657 2601
15657 3241
15658 2602
15658 3242
15659 2603
15659 3243
15660 2604
15660 3244
15661 2605
15661 3245
15662 2606
15662 3246
15663 2607
15663 3247
15664 2608
15664 3248
15665 2609
15665 3249
15666 2610
15666 3250
15667 2611
15667 3251
15668 2612
15668 3252
15669 2613
15669 3253
15670 2614
15670 3254
15671 2615
15671 3255
15672 2616
15672 3256
15673 2617
15673 3257
15674 2618
15674 3258
15675 2619
15675 3259
15676 2620
15676 3260
15677 2621
15677 3261
15678 2622
15678 3262
15679 2623
15679 3263
15680 2624
15680 3264
15681 2625
15681 3265
15682 2626
15682 3266
15683 2627
15683 3267
15684 2628
15684 3268
15685 2629
15685 3269
15686 2630
15686 3270
15687 2631
15687 3271
15688 2632
15688 3272
15689 2633
15689 3273
15690 2634
15690 3274
15691 2635
15691 3275
15692 2636
15692 3276
15693 2637
15693 3277
15694 2638
15694 3278
15695 2639
15695 3279
15696 2640
15696 3280
15697 2641
15697 3281
15698 2642
15698 3282
15699 2643
15699 3283
15700 2644
15700 3284
15701 2645
15701 3285
15702 2646
15702 3286
15703 2647
15703 3287
15704 2648
15704 3288
15705 2649
15705 3289
15706 2650
15706 3290
15707 2651
15707 3291
15708 2652
15708 3292
15709 2653
15709 3293
15710 2654
15710 3294
15711 2655
15711 3295
15712 2656
15712 3296
15713 2657
15713 3297
15714 2658
15714 3298
15715 2659
15715 3299
15716 2660
15716 3300
15717 2661
15717 3301
15718 2662
15718 3302
15719 2663
15719 3303
15720 2664
15720 3304
15721 2665
15721 3305
15722 2666
15722 3306
15723 2667
15723 3307
15724 2668
15724 3308
15725 2669
15725 3309
15726 2670
15726 3310
15727 2671
15727 3311
15728 2672
15728 3312
15729 2673
15729 3313
15730 2674
15730 3314
15731 2675
15731 3315
15732 2676
15732 3316
15733 2677
15733 3317
15734 2678
15734 3318
15735 2679
15735 3319
15736 2680
15736 3320
15737 2681
15737 3321
15738 2682
15738 3322
15739 2683
15739 3323
15740 2684
15740 3324
15741 2685
15741 3325
15742 2686
15742 3326
15743 2687
15743 3327
15744 2560
15744 4352
15745 2561
15745 4353
15746 2562
15746 4354
15747 2563
15747 4355
15748 2564
15748 4356
15749 2565
15749 4357
15750 2566
15750 4358
15751 2567
15751 4359
15752 2568
15752 4360
15753 2569
15753 4361
15754 2570
15754 4362
15755 2571
15755 4363
15756 2572
15756 4364
15757 2573
15757 4365
15758 2574
15758 4366
15759 2575
15759 4367
15760 2576
15760 4368
15761 2577
15761 4369
15762 2578
15762 4370
15763 2579
15763 4371
15764 2580
15764 4372
15765 2581
15765 4373
15766 2582
15766 4374
15767 2583
15767 4375
15768 2584
15768 4376
15769 2585
15769 4377
15770 2586
15770 4378
15771 2587
15771 4379
15772 2588
15772 4380
15773 2589
15773 4381
15774 2590
15774 4382
15775 2591
15775 4383
15776 2592
15776 4384
15777 2593
15777 4385
15778 2594
15778 4386
15779 2595
15779 4387
15780 2596
15780 4388
15781 2597
15781 4389
15782 2598
15782 4390
15783 2599
15783 4391
15784 2600
15784 4392
15785 2601
15785 4393
15786 2602
15786 4394
15787 2603
15787 4395
15788 2604
15788 4396
15789 2605
15789 4397
15790 2606
15790 4398
15791 2607
15791 4399
15792 2608
15792 4400
15793 2609
15793 4401
15794 2610
15794 4402
15795 2611
15795 4403
15796 2612
15796 4404
15797 2613
15797 4405
15798 2614
15798 4406
15799 2615
15799 4407
15800 2616
15800 4408
15801 2617
15801 4409
15802 2618
15802 4410
15803 2619
15803 4411
15804 2620
15804 4412
15805 2621
15805 4413
15806 2622
15806 4414
15807 2623
15807 4415
15808 2624
15808 4416
15809 2625
15809 4417
15810 2626
15810 4418
15811 2627
15811 4419
15812 2628
15812 4420
15813 2629
15813 4421
15814 2630
15814 4422
15815 2631
15815 4423
15816 2632
15816 4424
15817 2633
15817 4425
15818 2634
15818 4426
15819 2635
15819 4427
15820 2636
15820 4428
15821 2637
15821 4429
15822 2638
15822 4430
15823 2639
15823 4431
15824 2640
15824 4432
15825 2641
15825 4433
15826 2642
15826 4434
15827 2643
15827 4435
15828 2644
15828 4436
15829 2645
15829 4437
15830 2646
15830 4438
15831 2647
15831 4439
15832 2648
15832 4440
15833 2649
15833 4441
15834 2650
15834 4442
15835 2651
15835 4443
15836 2652
15836 4444
15837 2653
15837 4445
15838 2654
15838 4446
15839 2655
15839 4447
15840 2656
15840 4448
15841 2657
15841 4449
15842 2658
15842 4450
15843 2659
15843 4451
15844 2660
15844 4452
15845 2661
15845 4453
15846 2662
15846 4454
15847 2663
15847 4455
15848 2664
15848 4456
15849 2665
15849 4457
15850 2666
15850 4458
15851 2667
15851 4459
15852 2668
15852 4460
15853 2669
15853 4461
15854 2670
15854 4462
15855 2671
15855 4463
15856 2672
15856 4464
15857 2673
15857 4465
15858 2674
15858 4466
15859 2675
15859 4467
15860 2676
15860 4468
15861 2677
15861 4469
15862 2678
15862 4470
15863 2679
15863 4471
15864 2680
15864 4472
15865 2681
15865 4473
15866 2682
15866 4474
15867 2683
15867 4475
15868 2684
15868 4476
15869 2685
15869 4477
15870 2686
15870 4478
15871 2687
15871 4479
15872 2560
15872 4864
15873 2561
15873 4865
15874 2562
15874 4866
15875 2563
15875 4867
15876 2564
15876 4868
15877 2565
15877 4869
15878 2566
15878 4870
15879 2567
15879 4871
15880 2568
15880 4872
15881 2569
15881 4873
15882 2570
15882 4874
15883 2571
15883 4875
15884 2572
15884 4876
15885 2573
15885 4877
15886 2574
15886 4878
15887 2575
15887 4879
15888 2576
15888 4880
15889 2577
15889 4881
15890 2578
15890 4882
15891 2579
15891 4883
15892 2580
15892 4884
15893 2581
15893 4885
15894 2582
15894 4886
15895 2583
15895 4887
15896 2584
15896 4888
15897 2585
15897 4889
15898 2586
15898 4890
15899 2587
15899 4891
15900 2588
15900 4892
15901 2589
15901 4893
15902 2590
15902 4894
15903 2591
15903 4895
15904 2592
15904 4896
15905 2593
15905 4897
15906 2594
15906 4898
15907 2595
15907 4899
15908 2596
15908 4900
15909 2597
15909 4901
15910 2598
15910 4902
15911 2599
15911 4903
15912 2600
15912 4904
15913 2601
15913 4905
15914 2602
15914 4906
15915 2603
15915 4907
15916 2604
15916 4908
15917 2605
15917 4909
15918 2606
15918 4910
15919 2607
15919 4911
15920 2608
15920 4912
15921 2609
15921 4913
15922 2610
15922 4914
15923 2611
15923 4915
15924 2612
15924 4916
15925 2613
15925 4917
15926 2614
15926 4918
15927 2615
15927 4919
15928 2616
15928 4920
15929 2617
15929 4921
15930 2618
15930 4922
15931 2619
15931 4923
15932 2620
15932 4924
15933 2621
15933 4925
15934 2622
15934 4926
15935 2623
15935 4927
15936 2624
15936 4928
15937 2625
15937 4929
15938 2626
15938 4930
15939 2627
15939 4931
15940 2628
15940 4932
15941 2629
15941 4933
15942 2630
15942 4934
15943 2631
15943 4935
15944 2632
15944 4936
15945 2633
15945 4937
15946 2634
15946 4938
15947 2635
15947 4939
15948 2636
15948 4940
15949 2637
15949 4941
15950 2638
15950 4942
15951 2639
15951 4943
15952 2640
15952 4944
15953 2641
15953 4945
15954 2642
15954 4946
15955 2643
15955 4947
15956 2644
15956 4948
15957 2645
15957 4949
15958 2646
15958 4950
15959 2647
15959 4951
15960 2648
15960 4952
15961 2649
15961 4953
15962 2650
15962 4954
15963 2651
15963 4955
15964 2652
15964 4956
15965 2653
15965 4957
15966 2654
15966 4958
15967 2655
15967 4959
15968 2656
15968 4960
15969 2657
15969 4961
15970 2658
15970 4962
15971 2659
15971 4963
15972 2660
15972 4964
15973 2661
15973 4965
15974 2662
15974 4966
15975 2663
15975 4967
15976 2664
15976 4968
15977 2665
15977 4969
15978 2666
15978 4970
15979 2667
15979 4971
15980 2668
15980 4972
15981 2669
15981 4973
15982 2670
15982 4974
15983 2671
15983 4975
15984 2672
15984 4976
15985 2673
15985 4977
15986 2674
15986 4978
15987 2675
15987 4979
15988 2676
15988 4980
15989 2677
15989 4981
15990 2678
15990 4982
15991 2679
15991 4983
15992 2680
15992 4984
15993 2681
15993 4985
15994 2682
15994 4986
15995 2683
15995 4987
15996 2684
15996 4988
15997 2685
15997 4989
15998 2686
15998 4990
15999 2687
15999 4991
16000 2560
16000 5376
16001 2561
16001 5377
16002 2562
16002 5378
16003 2563
16003 5379
16004 2564
16004 5380
16005 2565
16005 5381
16006 2566
16006 5382
16007 2567
16007 5383
16008 2568
16008 5384
16009 2569
16009 5385
16010 2570
16010 5386
16011 2571
16011 5387
16012 2572
16012 5388
16013 2573
16013 5389
16014 2574
16014 5390
16015 2575
16015 5391
16016 2576
16016 5392
16017 2577
16017 5393
16018 2578
16018 5394
16019 2579
16019 5395
16020 2580
16020 5396
16021 2581
16021 5397
16022 2582
16022 5398
16023 2583
16023 5399
16024 2584
16024 5400
16025 2585
16025 5401
16026 2586
16026 5402
16027 2587
16027 5403
16028 2588
16028 5404
16029 2589
16029 5405
16030 2590
16030 5406
16031 2591
16031 5407
16032 2592
16032 5408
16033 2593
16033 5409
16034 2594
16034 5410
16035 2595
16035 5411
16036 2596
16036 5412
16037 2597
16037 5413
16038 2598
16038 5414
16039 2599
16039 5415
16040 2600
16040 5416
16041 2601
16041 5417
16042 2602
16042 5418
16043 2603
16043 5419
16044 2604
16044 5420
16045 2605
16045 5421
16046 2606
16046 5422
16047 2607
16047 5423
16048 2608
16048 5424
16049 2609
16049 5425
16050 2610
16050 5426
16051 2611
16051 5427
16052 2612
16052 5428
16053 2613
16053 5429
16054 2614
16054 5430
16055 2615
16055 5431
16056 2616
16056 5432
16057 2617
16057 5433
16058 2618
16058 5434
16059 2619
16059 5435
16060 2620
16060 5436
16061 2621
16061 5437
16062 2622
16062 5438
16063 2623
16063 5439
16064 2624
16064 5440
16065 2625
16065 5441
16066 2626
16066 5442
16067 2627
16067 5443
16068 2628
16068 5444
16069 2629
16069 5445
16070 2630
16070 5446
16071 2631
16071 5447
16072 2632
16072 5448
16073 2633
16073 5449
16074 2634
16074 5450
16075 2635
16075 5451
16076 2636
16076 5452
16077 2637
16077 5453
16078 2638
16078 5454
16079 2639
16079 5455
16080 2640
16080 5456
16081 2641
16081 5457
16082 2642
16082 5458
16083 2643
16083 5459
16084 2644
16084 5460
16085 2645
16085 5461
16086 2646
16086 5462
16087 2647
16087 5463
16088 2648
16088 5464
16089 2649
16089 5465
16090 2650
16090 5466
16091 2651
16091 5467
16092 2652
16092 5468
16093 2653
16093 5469
16094 2654
16094 5470
16095 2655
16095 5471
16096 2656
16096 5472
16097 2657
16097 5473
16098 2658
16098 5474
16099 2659
16099 5475
16100 2660
16100 5476
16101 2661
16101 5477
16102 2662
16102 5478
16103 2663
16103 5479
16104 2664
16104 5480
16105 2665
16105 5481
16106 2666
16106 5482
16107 2667
16107 5483
16108 2668
16108 5484
16109 2669
16109 5485
16110 2670
16110 5486
16111 2671
16111 5487
16112 2672
16112 5488
16113 2673
16113 5489
16114 2674
16114 5490
16115 2675
16115 5491
16116 2676
16116 5492
16117 2677
16117 5493
16118 2678
16118 5494
16119 2679
16119 5495
16120 2680
16120 5496
16121 2681
16121 5497
16122 2682
16122 5498
16123 2683
16123 5499
16124 2684
16124 5500
16125 2685
16125 5501
16126 2686
16126 5502
16127 2687
16127 5503
16128 2560
16128 5888
16129 2561
16129 5889
16130 2562
16130 5890
16131 2563
16131 5891
16132 2564
16132 5892
16133 2565
16133 5893
16134 2566
16134 5894
16135 2567
16135 5895
16136 2568
16136 5896
16137 2569
16137 5897
16138 2570
16138 5898
16139 2571
16139 5899
16140 2572
16140 5900
16141 2573
16141 5901
16142 2574
16142 5902
16143 2575
16143 5903
16144 2576
16144 5904
16145 2577
16145 5905
16146 2578
16146 5906
16147 2579
16147 5907
16148 2580
16148 5908
16149 2581
16149 5909
16150 2582
16150 5910
16151 2583
16151 5911
16152 2584
16152 5912
16153 2585
16153 5913
16154 2586
16154 5914
16155 2587
16155 5915
16156 2588
16156 5916
16157 2589
16157 5917
16158 2590
16158 5918
16159 2591
16159 5919
16160 2592
16160 5920
16161 2593
16161 5921
16162 2594
16162 5922
16163 2595
16163 5923
16164 2596
16164 5924
16165 2597
16165 5925
16166 2598
16166 5926
16167 2599
16167 5927
16168 2600
16168 5928
16169 2601
16169 5929
16170 2602
16170 5930
16171 2603
16171 5931
16172 2604
16172 5932
16173 2605
16173 5933
16174 2606
16174 5934
16175 2607
16175 5935
16176 2608
16176 5936
16177 2609
16177 5937
16178 2610
16178 5938
16179 2611
16179 5939
16180 2612
16180 5940
16181 2613
16181 5941
16182 2614
16182 5942
16183 2615
16183 5943
16184 2616
16184 5944
16185 2617
16185 5945
16186 2618
16186 5946
16187 2619
16187 5947
16188 2620
16188 5948
16189 2621
16189 5949
16190 2622
16190 5950
16191 2623
16191 5951
16192 2624
16192 5952
16193 2625
16193 5953
16194 2626
16194 5954
16195 2627
16195 5955
16196 2628
16196 5956
16197 2629
16197 5957
16198 2630
16198 5958
16199 2631
16199 5959
16200 2632
16200 5960
16201 2633
16201 5961
16202 2634
16202 5962
16203 2635
16203 5963
16204 2636
16204 5964
16205 2637
16205 5965
16206 2638
16206 5966
16207 2639
16207 5967
16208 2640
16208 5968
16209 2641
16209 5969
16210 2642
16210 5970
16211 2643
16211 5971
16212 2644
16212 5972
16213 2645
16213 5973
16214 2646
16214 5974
16215 2647
16215 5975
16216 2648
16216 5976
16217 2649
16217 5977
16218 2650
16218 5978
16219 2651
16219 5979
16220 2652
16220 5980
16221 2653
16221 5981
16222 2654
16222 5982
16223 2655
16223 5983
16224 2656
16224 5984
16225 2657
16225 5985
16226 2658
16226 5986
16227 2659
16227 5987
16228 2660
16228 5988
16229 2661
16229 5989
16230 2662
16230 5990
16231 2663
16231 5991
16232 2664
16232 5992
16233 2665
16233 5993
16234 2666
16234 5994
16235 2667
16235 5995
16236 2668
16236 5996
16237 2669
16237 5997
16238 2670
16238 5998
16239 2671
16239 5999
16240 2672
16240 6000
16241 2673
16241 6001
16242 2674
16242 6002
16243 2675
16243 6003
16244 2676
16244 6004
16245 2677
16245 6005
16246 2678
16246 6006
16247 2679
16247 6007
16248 2680
16248 6008
16249 2681
16249 6009
16250 2682
16250 6010
16251 2683
16251 6011
16252 2684
16252 6012
16253 2685
16253 6013
16254 2686
16254 6014
16255 2687
16255 6015
16256 2688
16256 2816
16257 2689
16257 2817
16258 2690
16258 2818
16259 2691
16259 2819
16260 2692
16260 2820
16261 2693
16261 2821
16262 2694
16262 2822
16263 2695
16263 2823
16264 2696
16264 2824
16265 2697
16265 2825
16266 2698
16266 2826
16267 2699
16267 2827
16268 2700
16268 2828
16269 2701
16269 2829
16270 2702
16270 2830
16271 2703
16271 2831
16272 2704
16272 2832
16273 2705
16273 2833
16274 2706
16274 2834
16275 2707
16275 2835
16276 2708
16276 2836
16277 2709
16277 2837
16278 2710
16278 2838
16279 2711
16279 2839
16280 2712
16280 2840
16281 2713
16281 2841
16282 2714
16282 2842
16283 2715
16283 2843
16284 2716
16284 2844
16285 2717
16285 2845
16286 2718
16286 2846
16287 2719
16287 2847
16288 2720
16288 2848
16289 2721
16289 2849
16290 2722
16290 2850
16291 2723
16291 2851
16292 2724
16292 2852
16293 2725
16293 2853
16294 2726
16294 2854
16295 2727
16295 2855
16296 2728
16296 2856
16297 2729
16297 2857
16298 2730
16298 2858
16299 2731
16299 2859
16300 2732
16300 2860
16301 2733
16301 2861
16302 2734
16302 2862
16303 2735
16303 2863
16304 2736
16304 2864
16305 2737
16305 2865
16306 2738
16306 2866
16307 2739
16307 2867
16308 2740
16308 2868
16309 2741
16309 2869
16310 2742
16310 2870
16311 2743
16311 2871
16312 2744
16312 2872
16313 2745
16313 2873
16314 2746
16314 2874
16315 2747
16315 2875
16316 2748
16316 2876
16317 2749
16317 2877
16318 2750
16318 2878
16319 2751
16319 2879
16320 2752
16320 2880
16321 2753
16321 2881
16322 2754
16322 2882
16323 2755
16323 2883
16324 2756
16324 2884
16325 2757
16325 2885
16326 2758
16326 2886
16327 2759
16327 2887
16328 2760
16328 2888
16329 2761
16329 2889
16330 2762
16330 2890
16331 2763
16331 2891
16332 2764
16332 2892
16333 2765
16333 2893
16334 2766
16334 2894
16335 2767
16335 2895
16336 2768
16336 2896
16337 2769
16337 2897
16338 2770
16338 2898
16339 2771
16339 2899
16340 2772
16340 2900
16341 2773
16341 2901
16342 2774
16342 2902
16343 2775
16343 2903
16344 2776
16344 2904
16345 2777
16345 2905
16346 2778
16346 2906
16347 2779
16347 2907
16348 2780
16348 2908
16349 2781
16349 2909
16350 2782
16350 2910
16351 2783
16351 2911
16352 2784
16352 2912
16353 2785
16353 2913
16354 2786
16354 2914
16355 2787
16355 2915
16356 2788
16356 2916
16357 2789
16357 2917
16358 2790
16358 2918
16359 2791
16359 2919
16360 2792
16360 2920
16361 2793
16361 2921
16362 2794
16362 2922
16363 2795
16363 2923
16364 2796
16364 2924
16365 2797
16365 2925
16366 2798
16366 2926
16367 2799
16367 2927
16368 2800
16368 2928
16369 2801
16369 2929
16370 2802
16370 2930
16371 2803
16371 2931
16372 2804
16372 2932
16373 2805
16373 2933
16374 2806
16374 2934
16375 2807
16375 2935
16376 2808
16376 2936
16377 2809
16377 2937
16378 2810
16378 2938
16379 2811
16379 2939
16380 2812
16380 2940
16381 2813
16381 2941
16382 2814
16382 2942
16383 2815
16383 2943
16384 2688
16384 3328
16385 2689
16385 3329
16386 2690
16386 3330
16387 2691
16387 3331
16388 2692
16388 3332
16389 2693
16389 3333
16390 2694
16390 3334
16391 2695
16391 3335
16392 2696
16392 3336
16393 2697
16393 3337
16394 2698
16394 3338
16395 2699
16395 3339
16396 2700
16396 3340
16397 2701
16397 3341
16398 2702
16398 3342
16399 2703
16399 3343
16400 2704
16400 3344
16401 2705
16401 3345
16402 2706
16402 3346
16403 2707
16403 3347
16404 2708
16404 3348
16405 2709
16405 3349
16406 2710
16406 3350
16407 2711
16407 3351
16408 2712
16408 3352
16409 2713
16409 3353
16410 2714
16410 3354
16411 2715
16411 3355
16412 2716
16412 3356
16413 2717
16413 3357
16414 2718
16414 3358
16415 2719
16415 3359
16416 2720
16416 3360
16417 2721
16417 3361
16418 2722
16418 3362
16419 2723
16419 3363
16420 2724
16420 3364
16421 2725
16421 3365
16422 2726
16422 3366
16423 2727
16423 3367
16424 2728
16424 3368
16425 2729
16425 3369
16426 2730
16426 3370
16427 2731
16427 3371
16428 2732
16428 3372
16429 2733
16429 3373
16430 2734
16430 3374
16431 2735
16431 3375
16432 2736
16432 3376
16433 2737
16433 3377
16434 2738
16434 3378
16435 2739
16435 3379
16436 2740
16436 3380
16437 2741
16437 3381
16438 2742
16438 3382
16439 2743
16439 3383
16440 2744
16440 3384
16441 2745
16441 3385
16442 2746
16442 3386
16443 2747
16443 3387
16444 2748
16444 3388
16445 2749
16445 3389
16446 2750
16446 3390
16447 2751
16447 3391
16448 2752
16448 3392
16449 2753
16449 3393
16450 2754
16450 3394
16451 2755
16451 3395
16452 2756
16452 3396
16453 2757
16453 3397
16454 2758
16454 3398
16455 2759
16455 3399
16456 2760
16456 3400
16457 2761
16457 3401
16458 2762
16458 3402
16459 2763
16459 3403
16460 2764
16460 3404
16461 2765
16461 3405
16462 2766
16462 3406
16463 2767
16463 3407
16464 2768
16464 3408
16465 2769
16465 3409
16466 2770
16466 3410
16467 2771
16467 3411
16468 2772
16468 3412
16469 2773
16469 3413
16470 2774
16470 3414
16471 2775
16471 3415
16472 2776
16472 3416
16473 2777
16473 3417
16474 2778
16474 3418
16475 2779
16475 3419
16476 2780
16476 3420
16477 2781
16477 3421
16478 2782
16478 3422
16479 2783
16479 3423
16480 2784
16480 3424
16481 2785
16481 3425
16482 2786
16482 3426
16483 2787
16483 3427
16484 2788
16484 3428
16485 2789
16485 3429
16486 2790
16486 3430
16487 2791
16487 3431
16488 2792
16488 3432
16489 2793
16489 3433
16490 2794
16490 3434
16491 2795
16491 3435
16492 2796
16492 3436
16493 2797
16493 3437
16494 2798
16494 3438
16495 2799
16495 3439
16496 2800
16496 3440
16497 2801
16497 3441
16498 2802
16498 3442
16499 2803
16499 3443
16500 2804
16500 3444
16501 2805
16501 3445
16502 2806
16502 3446
16503 2807
16503 3447
16504 2808
16504 3448
16505 2809
16505 3449
16506 2810
16506 3450
16507 2811
16507 3451
16508 2812
16508 3452
16509 2813
16509 3453
16510 2814
16510 3454
16511 2815
16511 3455
16512 2688
16512 3840
16513 2689
16513 3841
16514 2690
16514 3842
16515 2691
16515 3843
16516 2692
16516 3844
16517 2693
16517 3845
16518 2694
16518 3846
16519 2695
16519 3847
16520 2696
16520 3848
16521 2697
16521 3849
16522 2698
16522 3850
16523 2699
16523 3851
16524 2700
16524 3852
16525 2701
16525 3853
16526 2702
16526 3854
16527 2703
16527 3855
16528 2704
16528 3856
16529 2705
16529 3857
16530 2706
16530 3858
16531 2707
16531 3859
16532 2708
16532 3860
16533 2709
16533 3861
16534 2710
16534 3862
16535 2711
16535 3863
16536 2712
16536 3864
16537 2713
16537 3865
16538 2714
16538 3866
16539 2715
16539 3867
16540 2716
16540 3868
16541 2717
16541 3869
16542 2718
16542 3870
16543 2719
16543 3871
16544 2720
16544 3872
16545 2721
16545 3873
16546 2722
16546 3874
16547 2723
16547 3875
16548 2724
16548 3876
16549 2725
16549 3877
16550 2726
16550 3878
16551 2727
16551 3879
16552 2728
16552 3880
16553 2729
16553 3881
16554 2730
16554 3882
16555 2731
16555 3883
16556 2732
16556 3884
16557 2733
16557 3885
16558 2734
16558 3886
16559 2735
16559 3887
16560 2736
16560 3888
16561 2737
16561 3889
16562 2738
16562 3890
16563 2739
16563 3891
16564 2740
16564 3892
16565 2741
16565 3893
16566 2742
16566 3894
16567 2743
16567 3895
16568 2744
16568 3896
16569 2745
16569 3897
16570 2746
16570 3898
16571 2747
16571 3899
16572 2748
16572 3900
16573 2749
16573 3901
16574 2750
16574 3902
16575 2751
16575 3903
16576 2752
16576 3904
16577 2753
16577 3905
16578 2754
16578 3906
16579 2755
16579 3907
16580 2756
16580 3908
16581 2757
16581 3909
16582 2758
16582 3910
16583 2759
16583 3911
16584 2760
16584 3912
16585 2761
16585 3913
16586 2762
16586 3914
16587 2763
16587 3915
16588 2764
16588 3916
16589 2765
16589 3917
16590 2766
16590 3918
16591 2767
16591 3919
16592 2768
16592 3920
16593 2769
16593 3921
16594 2770
16594 3922
16595 2771
16595 3923
16596 2772
16596 3924
16597 2773
16597 3925
16598 2774
16598 3926
16599 2775
16599 3927
16600 2776
16600 3928
16601 2777
16601 3929
16602 2778
16602 3930
16603 2779
16603 3931
16604 2780
16604 3932
16605 2781
16605 3933
16606 2782
16606 3934
16607 2783
16607 3935
16608 2784
16608 3936
16609 2785
16609 3937
16610 2786
16610 3938
16611 2787
16611 3939
16612 2788
16612 3940
16613 2789
16613 3941
16614 2790
16614 3942
16615 2791
16615 3943
16616 2792
16616 3944
16617 2793
16617 3945
16618 2794
16618 3946
16619 2795
16619 3947
16620 2796
16620 3948
16621 2797
16621 3949
16622 2798
16622 3950
16623 2799
16623 3951
16624 2800
16624 3952
16625 2801
16625 3953
16626 2802
16626 3954
16627 2803
16627 3955
16628 2804
16628 3956
16629 2805
16629 3957
16630 2806
16630 3958
16631 2807
16631 3959
16632 2808
16632 3960
16633 2809
16633 3961
16634 2810
16634 3962
16635 2811
16635 3963
16636 2812
16636 3964
16637 2813
16637 3965
16638 2814
16638 3966
16639 2815
16639 3967
16640 2688
16640 4992
16641 2689
16641 4993
16642 2690
16642 4994
16643 2691
16643 4995
16644 2692
16644 4996
16645 2693
16645 4997
16646 2694
16646 4998
16647 2695
16647 4999
16648 2696
16648 5000
16649 2697
16649 5001
16650 2698
16650 5002
16651 2699
16651 5003
16652 2700
16652 5004
16653 2701
16653 5005
16654 2702
16654 5006
16655 2703
16655 5007
16656 2704
16656 5008
16657 2705
16657 5009
16658 2706
16658 5010
16659 2707
16659 5011
16660 2708
16660 5012
16661 2709
16661 5013
16662 2710
16662 5014
16663 2711
16663 5015
16664 2712
16664 5016
16665 2713
16665 5017
16666 2714
16666 5018
16667 2715
16667 5019
16668 2716
16668 5020
16669 2717
16669 5021
16670 2718
16670 5022
16671 2719
16671 5023
16672 2720
16672 5024
16673 2721
16673 5025
16674 2722
16674 5026
16675 2723
16675 5027
16676 2724
16676 5028
16677 2725
16677 5029
16678 2726
16678 5030
16679 2727
16679 5031
16680 2728
16680 5032
16681 2729
16681 5033
16682 2730
16682 5034
16683 2731
16683 5035
16684 2732
16684 5036
16685 2733
16685 5037
16686 2734
16686 5038
16687 2735
16687 5039
16688 2736
16688 5040
16689 2737
16689 5041
16690 2738
16690 5042
16691 2739
16691 5043
16692 2740
16692 5044
16693 2741
16693 5045
16694 2742
16694 5046
16695 2743
16695 5047
16696 2744
16696 5048
16697 2745
16697 5049
16698 2746
16698 5050
16699 2747
16699 5051
16700 2748
16700 5052
16701 2749
16701 5053
16702 2750
16702 5054
16703 2751
16703 5055
16704 2752
16704 5056
16705 2753
16705 5057
16706 2754
16706 5058
16707 2755
16707 5059
16708 2756
16708 5060
16709 2757
16709 5061
16710 2758
16710 5062
16711 2759
16711 5063
16712 2760
16712 5064
16713 2761
16713 5065
16714 2762
16714 5066
16715 2763
16715 5067
16716 2764
16716 5068
16717 2765
16717 5069
16718 2766
16718 5070
16719 2767
16719 5071
16720 2768
16720 5072
16721 2769
16721 5073
16722 2770
16722 5074
16723 2771
16723 5075
16724 2772
16724 5076
16725 2773
16725 5077
16726 2774
16726 5078
16727 2775
16727 5079
16728 2776
16728 5080
16729 2777
16729 5081
16730 2778
16730 5082
16731 2779
16731 5083
16732 2780
16732 5084
16733 2781
16733 5085
16734 2782
16734 5086
16735 2783
16735 5087
16736 2784
16736 5088
16737 2785
16737 5089
16738 2786
16738 5090
16739 2787
16739 5091
16740 2788
16740 5092
16741 2789
16741 5093
16742 2790
16742 5094
16743 2791
16743 5095
16744 2792
16744 5096
16745 2793
16745 5097
16746 2794
16746 5098
16747 2795
16747 5099
16748 2796
16748 5100
16749 2797
16749 5101
16750 2798
16750 5102
16751 2799
16751 5103
16752 2800
16752 5104
16753 2801
16753 5105
16754 2802
16754 5106
16755 2803
16755 5107
16756 2804
16756 5108
16757 2805
16757 5109
16758 2806
16758 5110
16759 2807
16759 5111
16760 2808
16760 5112
16761 2809
16761 5113
16762 2810
16762 5114
16763 2811
16763 5115
16764 2812
16764 5116
16765 2813
16765 5117
16766 2814
16766 5118
16767 2815
16767 5119
16768 2688
16768 5504
16769 2689
16769 5505
16770 2690
16770 5506
16771 2691
16771 5507
16772 2692
16772 5508
16773 2693
16773 5509
16774 2694
16774 5510
16775 2695
16775 5511
16776 2696
16776 5512
16777 2697
16777 5513
16778 2698
16778 5514
16779 2699
16779 5515
16780 2700
16780 5516
16781 2701
16781 5517
16782 2702
16782 5518
16783 2703
16783 5519
16784 2704
16784 5520
16785 2705
16785 5521
16786 2706
16786 5522
16787 2707
16787 5523
16788 2708
16788 5524
16789 2709
16789 5525
16790 2710
16790 5526
16791 2711
16791 5527
16792 2712
16792 5528
16793 2713
16793 5529
16794 2714
16794 5530
16795 2715
16795 5531
16796 2716
16796 5532
16797 2717
16797 5533
16798 2718
16798 5534
16799 2719
16799 5535
16800 2720
16800 5536
16801 2721
16801 5537
16802 2722
16802 5538
16803 2723
16803 5539
16804 2724
16804 5540
16805 2725
16805 5541
16806 2726
16806 5542
16807 2727
16807 5543
16808 2728
16808 5544
16809 2729
16809 5545
16810 2730
16810 5546
16811 2731
16811 5547
16812 2732
16812 5548
16813 2733
16813 5549
16814 2734
16814 5550
16815 2735
16815 5551
16816 2736
16816 5552
16817 2737
16817 5553
16818 2738
16818 5554
16819 2739
16819 5555
16820 2740
16820 5556
16821 2741
16821 5557
16822 2742
16822 5558
16823 2743
16823 5559
16824 2744
16824 5560
16825 2745
16825 5561
16826 2746
16826 5562
16827 2747
16827 5563
16828 2748
16828 5564
16829 2749
16829 5565
16830 2750
16830 5566
16831 2751
16831 5567
16832 2752
16832 5568
16833 2753
16833 5569
16834 2754
16834 5570
16835 2755
16835 5571
16836 2756
16836 5572
16837 2757
16837 5573
16838 2758
16838 5574
16839 2759
16839 5575
16840 2760
16840 5576
16841 2761
16841 5577
16842 2762
16842 5578
16843 2763
16843 5579
16844 2764
16844 5580
16845 2765
16845 5581
16846 2766
16846 5582
16847 2767
16847 5583
16848 2768
16848 5584
16849 2769
16849 5585
16850 2770
16850 5586
16851 2771
16851 5587
16852 2772
16852 5588
16853 2773
16853 5589
16854 2774
16854 5590
16855 2775
16855 5591
16856 2776
16856 5592
16857 2777
16857 5593
16858 2778
16858 5594
16859 2779
16859 5595
16860 2780
16860 5596
16861 2781
16861 5597
16862 2782
16862 5598
16863 2783
16863 5599
16864 2784
16864 5600
16865 2785
16865 5601
16866 2786
16866 5602
16867 2787
16867 5603
16868 2788
16868 5604
16869 2789
16869 5605
16870 2790
16870 5606
16871 2791
16871 5607
16872 2792
16872 5608
16873 2793
16873 5609
16874 2794
16874 5610
16875 2795
16875 5611
16876 2796
16876 5612
16877 2797
16877 5613
16878 2798
16878 5614
16879 2799
16879 5615
16880 2800
16880 5616
16881 2801
16881 5617
16882 2802
16882 5618
16883 2803
16883 5619
16884 2804
16884 5620
16885 2805
16885 5621
16886 2806
16886 5622
16887 2807
16887 5623
16888 2808
16888 5624
16889 2809
16889 5625
16890 2810
16890 5626
16891 2811
16891 5627
16892 2812
16892 5628
16893 2813
16893 5629
16894 2814
16894 5630
16895 2815
16895 5631
16896 2688
16896 6016
16897 2689
16897 6017
16898 2690
16898 6018
16899 2691
16899 6019
16900 2692
16900 6020
16901 2693
16901 6021
16902 2694
16902 6022
16903 2695
16903 6023
16904 2696
16904 6024
16905 2697
16905 6025
16906 2698
16906 6026
16907 2699
16907 6027
16908 2700
16908 6028
16909 2701
16909 6029
16910 2702
16910 6030
16911 2703
16911 6031
16912 2704
16912 6032
16913 2705
16913 6033
16914 2706
16914 6034
16915 2707
16915 6035
16916 2708
16916 6036
16917 2709
16917 6037
16918 2710
16918 6038
16919 2711
16919 6039
16920 2712
16920 6040
16921 2713
16921 6041
16922 2714
16922 6042
16923 2715
16923 6043
16924 2716
16924 6044
16925 2717
16925 6045
16926 2718
16926 6046
16927 2719
16927 6047
16928 2720
16928 6048
16929 2721
16929 6049
16930 2722
16930 6050
16931 2723
16931 6051
16932 2724
16932 6052
16933 2725
16933 6053
16934 2726
16934 6054
16935 2727
16935 6055
16936 2728
16936 6056
16937 2729
16937 6057
16938 2730
16938 6058
16939 2731
16939 6059
16940 2732
16940 6060
16941 2733
16941 6061
16942 2734
16942 6062
16943 2735
16943 6063
16944 2736
16944 6064
16945 2737
16945 6065
16946 2738
16946 6066
16947 2739
16947 6067
16948 2740
16948 6068
16949 2741
16949 6069
16950 2742
16950 6070
16951 2743
16951 6071
16952 2744
16952 6072
16953 2745
16953 6073
16954 2746
16954 6074
16955 2747
16955 6075
16956 2748
16956 6076
16957 2749
16957 6077
16958 2750
16958 6078
16959 2751
16959 6079
16960 2752
16960 6080
16961 2753
16961 6081
16962 2754
16962 6082
16963 2755
16963 6083
16964 2756
16964 6084
16965 2757
16965 6085
16966 2758
16966 6086
16967 2759
16967 6087
16968 2760
16968 6088
16969 2761
16969 6089
16970 2762
16970 6090
16971 2763
16971 6091
16972 2764
16972 6092
16973 2765
16973 6093
16974 2766
16974 6094
16975 2767
16975 6095
16976 2768
16976 6096
16977 2769
16977 6097
16978 2770
16978 6098
16979 2771
16979 6099
16980 2772
16980 6100
16981 2773
16981 6101
16982 2774
16982 6102
16983 2775
16983 6103
16984 2776
16984 6104
16985 2777
16985 6105
16986 2778
16986 6106
16987 2779
16987 6107
16988 2780
16988 6108
16989 2781
16989 6109
16990 2782
16990 6110
16991 2783
16991 6111
16992 2784
16992 6112
16993 2785
16993 6113
16994 2786
16994 6114
16995 2787
16995 6115
16996 2788
16996 6116
16997 2789
16997 6117
16998 2790
16998 6118
16999 2791
16999 6119
17000 2792
17000 6120
17001 2793
17001 6121
17002 2794
17002 6122
17003 2795
17003 6123
17004 2796
17004 6124
17005 2797
17005 6125
17006 2798
17006 6126
17007 2799
17007 6127
17008 2800
17008 6128
17009 2801
17009 6129
17010 2802
17010 6130
17011 2803
17011 6131
17012 2804
17012 6132
17013 2805
17013 6133
17014 2806
17014 6134
17015 2807
17015 6135
17016 2808
17016 6136
17017 2809
17017 6137
17018 2810
17018 6138
17019 2811
17019 6139
17020 2812
17020 6140
17021 2813
17021 6141
17022 2814
17022 6142
17023 2815
17023 6143
17024 2816
17024 2944
17025 2817
17025 2945
17026 2818
17026 2946
17027 2819
17027 2947
17028 2820
17028 2948
17029 2821
17029 2949
17030 2822
17030 2950
17031 2823
17031 2951
17032 2824
17032 2952
17033 2825
17033 2953
17034 2826
17034 2954
17035 2827
17035 2955
17036 2828
17036 2956
17037 2829
17037 2957
17038 2830
17038 2958
17039 2831
17039 2959
17040 2832
17040 2960
17041 2833
17041 2961
17042 2834
17042 2962
17043 2835
17043 2963
17044 2836
17044 2964
17045 2837
17045 2965
17046 2838
17046 2966
17047 2839
17047 2967
17048 2840
17048 2968
17049 2841
17049 2969
17050 2842
17050 2970
17051 2843
17051 2971
17052 2844
17052 2972
17053 2845
17053 2973
17054 2846
17054 2974
17055 2847
17055 2975
17056 2848
17056 2976
17057 2849
17057 2977
17058 2850
17058 2978
17059 2851
17059 2979
17060 2852
17060 2980
17061 2853
17061 2981
17062 2854
17062 2982
17063 2855
17063 2983
17064 2856
17064 2984
17065 2857
17065 2985
17066 2858
17066 2986
17067 2859
17067 2987
17068 2860
17068 2988
17069 2861
17069 2989
17070 2862
17070 2990
17071 2863
17071 2991
17072 2864
17072 2992
17073 2865
17073 2993
17074 2866
17074 2994
17075 2867
17075 2995
17076 2868
17076 2996
17077 2869
17077 2997
17078 2870
17078 2998
17079 2871
17079 2999
17080 2872
17080 3000
17081 2873
17081 3001
17082 2874
17082 3002
17083 2875
17083 3003
17084 2876
17084 3004
17085 2877
17085 3005
17086 2878
17086 3006
17087 2879
17087 3007
17088 2880
17088 3008
17089 2881
17089 3009
17090 2882
17090 3010
17091 2883
17091 3011
17092 2884
17092 3012
17093 2885
17093 3013
17094 2886
17094 3014
17095 2887
17095 3015
17096 2888
17096 3016
17097 2889
17097 3017
17098 2890
17098 3018
17099 2891
17099 3019
17100 2892
17100 3020
17101 2893
17101 3021
17102 2894
17102 3022
17103 2895
17103 3023
17104 2896
17104 3024
17105 2897
17105 3025
17106 2898
17106 3026
17107 2899
17107 3027
17108 2900
17108 3028
17109 2901
17109 3029
17110 2902
17110 3030
17111 2903
17111 3031
17112 2904
17112 3032
17113 2905
17113 3033
17114 2906
17114 3034
17115 2907
17115 3035
17116 2908
17116 3036
17117 2909
17117 3037
17118 2910
17118 3038
17119 2911
17119 3039
17120 2912
17120 3040
17121 2913
17121 3041
17122 2914
17122 3042
17123 2915
17123 3043
17124 2916
17124 3044
17125 2917
17125 3045
17126 2918
17126 3046
17127 2919
17127 3047
17128 2920
17128 3048
17129 2921
17129 3049
17130 2922
17130 3050
17131 2923
17131 3051
17132 2924
17132 3052
17133 2925
17133 3053
17134 2926
17134 3054
17135 2927
17135 3055
17136 2928
17136 3056
17137 2929
17137 3057
17138 2930
17138 3058
17139 2931
17139 3059
17140 2932
17140 3060
17141 2933
17141 3061
17142 2934
17142 3062
17143 2935
17143 3063
17144 2936
17144 3064
17145 2937
17145 3065
17146 2938
17146 3066
17147 2939
17147 3067
17148 2940
17148 3068
17149 2941
17149 3069
17150 2942
17150 3070
17151 2943
17151 3071
17152 2816
17152 3456
17153 2817
17153 3457
17154 2818
17154 3458
17155 2819
17155 3459
17156 2820
17156 3460
17157 2821
17157 3461
17158 2822
17158 3462
17159 2823
17159 3463
17160 2824
17160 3464
17161 2825
17161 3465
17162 2826
17162 3466
17163 2827
17163 3467
17164 2828
17164 3468
17165 2829
17165 3469
17166 2830
17166 3470
17167 2831
17167 3471
17168 2832
17168 3472
17169 2833
17169 3473
17170 2834
17170 3474
17171 2835
17171 3475
17172 2836
17172 3476
17173 2837
17173 3477
17174 2838
17174 3478
17175 2839
17175 3479
17176 2840
17176 3480
17177 2841
17177 3481
17178 2842
17178 3482
17179 2843
17179 3483
17180 2844
17180 3484
17181 2845
17181 3485
17182 2846
17182 3486
17183 2847
17183 3487
17184 2848
17184 3488
17185 2849
17185 3489
17186 2850
17186 3490
17187 2851
17187 3491
17188 2852
17188 3492
17189 2853
17189 3493
17190 2854
17190 3494
17191 2855
17191 3495
17192 2856
17192 3496
17193 2857
17193 3497
17194 2858
17194 3498
17195 2859
17195 3499
17196 2860
17196 3500
17197 2861
17197 3501
17198 2862
17198 3502
17199 2863
17199 3503
17200 2864
17200 3504
17201 2865
17201 3505
17202 2866
17202 3506
17203 2867
17203 3507
17204 2868
17204 3508
17205 2869
17205 3509
17206 2870
17206 3510
17207 2871
17207 3511
17208 2872
17208 3512
17209 2873
17209 3513
17210 2874
17210 3514
17211 2875
17211 3515
17212 2876
17212 3516
17213 2877
17213 3517
17214 2878
17214 3518
17215 2879
17215 3519
17216 2880
17216 3520
17217 2881
17217 3521
17218 2882
17218 3522
17219 2883
17219 3523
17220 2884
17220 3524
17221 2885
17221 3525
17222 2886
17222 3526
17223 2887
17223 3527
17224 2888
17224 3528
17225 2889
17225 3529
17226 2890
17226 3530
17227 2891
17227 3531
17228 2892
17228 3532
17229 2893
17229 3533
17230 2894
17230 3534
17231 2895
17231 3535
17232 2896
17232 3536
17233 2897
17233 3537
17234 2898
17234 3538
17235 2899
17235 3539
17236 2900
17236 3540
17237 2901
17237 3541
17238 2902
17238 3542
17239 2903
17239 3543
17240 2904
17240 3544
17241 2905
17241 3545
17242 2906
17242 3546
17243 2907
17243 3547
17244 2908
17244 3548
17245 2909
17245 3549
17246 2910
17246 3550
17247 2911
17247 3551
17248 2912
17248 3552
17249 2913
17249 3553
17250 2914
17250 3554
17251 2915
17251 3555
17252 2916
17252 3556
17253 2917
17253 3557
17254 2918
17254 3558
17255 2919
17255 3559
17256 2920
17256 3560
17257 2921
17257 3561
17258 2922
17258 3562
17259 2923
17259 3563
17260 2924
17260 3564
17261 2925
17261 3565
17262 2926
17262 3566
17263 2927
17263 3567
17264 2928
17264 3568
17265 2929
17265 3569
17266 2930
17266 3570
17267 2931
17267 3571
17268 2932
17268 3572
17269 2933
17269 3573
17270 2934
17270 3574
17271 2935
17271 3575
17272 2936
17272 3576
17273 2937
17273 3577
17274 2938
17274 3578
17275 2939
17275 3579
17276 2940
17276 3580
17277 2941
17277 3581
17278 2942
17278 3582
17279 2943
17279 3583
17280 2816
17280 3968
17281 2817
17281 3969
17282 2818
17282 3970
17283 2819
17283 3971
17284 2820
17284 3972
17285 2821
17285 3973
17286 2822
17286 3974
17287 2823
17287 3975
17288 2824
17288 3976
17289 2825
17289 3977
17290 2826
17290 3978
17291 2827
17291 3979
17292 2828
17292 3980
17293 2829
17293 3981
17294 2830
17294 3982
17295 2831
17295 3983
17296 2832
17296 3984
17297 2833
17297 3985
17298 2834
17298 3986
17299 2835
17299 3987
17300 2836
17300 3988
17301 2837
17301 3989
17302 2838
17302 3990
17303 2839
17303 3991
17304 2840
17304 3992
17305 2841
17305 3993
17306 2842
17306 3994
17307 2843
17307 3995
17308 2844
17308 3996
17309 2845
17309 3997
17310 2846
17310 3998
17311 2847
17311 3999
17312 2848
17312 4000
17313 2849
17313 4001
17314 2850
17314 4002
17315 2851
17315 4003
17316 2852
17316 4004
17317 2853
17317 4005
17318 2854
17318 4006
17319 2855
17319 4007
17320 2856
17320 4008
17321 2857
17321 4009
17322 2858
17322 4010
17323 2859
17323 4011
17324 2860
17324 4012
17325 2861
17325 4013
17326 2862
17326 4014
17327 2863
17327 4015
17328 2864
17328 4016
17329 2865
17329 4017
17330 2866
17330 4018
17331 2867
17331 4019
17332 2868
17332 4020
17333 2869
17333 4021
17334 2870
17334 4022
17335 2871
17335 4023
17336 2872
17336 4024
17337 2873
17337 4025
17338 2874
17338 4026
17339 2875
17339 4027
17340 2876
17340 4028
17341 2877
17341 4029
17342 2878
17342 4030
17343 2879
17343 4031
17344 2880
17344 4032
17345 2881
17345 4033
17346 2882
17346 4034
17347 2883
17347 4035
17348 2884
17348 4036
17349 2885
17349 4037
17350 2886
17350 4038
17351 2887
17351 4039
17352 2888
17352 4040
17353 2889
17353 4041
17354 2890
17354 4042
17355 2891
17355 4043
17356 2892
17356 4044
17357 2893
17357 4045
17358 2894
17358 4046
17359 2895
17359 4047
17360 2896
17360 4048
17361 2897
17361 4049
17362 2898
17362 4050
17363 2899
17363 4051
17364 2900
17364 4052
17365 2901
17365 4053
17366 2902
17366 4054
17367 2903
17367 4055
17368 2904
17368 4056
17369 2905
17369 4057
17370 2906
17370 4058
17371 2907
17371 4059
17372 2908
17372 4060
17373 2909
17373 4061
17374 2910
17374 4062
17375 2911
17375 4063
17376 2912
17376 4064
17377 2913
17377 4065
17378 2914
17378 4066
17379 2915
17379 4067
17380 2916
17380 4068
17381 2917
17381 4069
17382 2918
17382 4070
17383 2919
17383 4071
17384 2920
17384 4072
17385 2921
17385 4073
17386 2922
17386 4074
17387 2923
17387 4075
17388 2924
17388 4076
17389 2925
17389 4077
17390 2926
17390 4078
17391 2927
17391 4079
17392 2928
17392 4080
17393 2929
17393 4081
17394 2930
17394 4082
17395 2931
17395 4083
17396 2932
17396 4084
17397 2933
17397 4085
17398 2934
17398 4086
17399 2935
17399 4087
17400 2936
17400 4088
17401 2937
17401 4089
17402 2938
17402 4090
17403 2939
17403 4091
17404 2940
17404 4092
17405 2941
17405 4093
17406 2942
17406 4094
17407 2943
17407 4095
17408 2816
17408 4480
17409 2817
17409 4481
17410 2818
17410 4482
17411 2819
17411 4483
17412 2820
17412 4484
17413 2821
17413 4485
17414 2822
17414 4486
17415 2823
17415 4487
17416 2824
17416 4488
17417 2825
17417 4489
17418 2826
17418 4490
17419 2827
17419 4491
17420 2828
17420 4492
17421 2829
17421 4493
17422 2830
17422 4494
17423 2831
17423 4495
17424 2832
17424 4496
17425 2833
17425 4497
17426 2834
17426 4498
17427 2835
17427 4499
17428 2836
17428 4500
17429 2837
17429 4501
17430 2838
17430 4502
17431 2839
17431 4503
17432 2840
17432 4504
17433 2841
17433 4505
17434 2842
17434 4506
17435 2843
17435 4507
17436 2844
17436 4508
17437 2845
17437 4509
17438 2846
17438 4510
17439 2847
17439 4511
17440 2848
17440 4512
17441 2849
17441 4513
17442 2850
17442 4514
17443 2851
17443 4515
17444 2852
17444 4516
17445 2853
17445 4517
17446 2854
17446 4518
17447 2855
17447 4519
17448 2856
17448 4520
17449 2857
17449 4521
17450 2858
17450 4522
17451 2859
17451 4523
17452 2860
17452 4524
17453 2861
17453 4525
17454 2862
17454 4526
17455 2863
17455 4527
17456 2864
17456 4528
17457 2865
17457 4529
17458 2866
17458 4530
17459 2867
17459 4531
17460 2868
17460 4532
17461 2869
17461 4533
17462 2870
17462 4534
17463 2871
17463 4535
17464 2872
17464 4536
17465 2873
17465 4537
17466 2874
17466 4538
17467 2875
17467 4539
17468 2876
17468 4540
17469 2877
17469 4541
17470 2878
17470 4542
17471 2879
17471 4543
17472 2880
17472 4544
17473 2881
17473 4545
17474 2882
17474 4546
17475 2883
17475 4547
17476 2884
17476 4548
17477 2885
17477 4549
17478 2886
17478 4550
17479 2887
17479 4551
17480 2888
17480 4552
17481 2889
17481 4553
17482 2890
17482 4554
17483 2891
17483 4555
17484 2892
17484 4556
17485 2893
17485 4557
17486 2894
17486 4558
17487 2895
17487 4559
17488 2896
17488 4560
17489 2897
17489 4561
17490 2898
17490 4562
17491 2899
17491 4563
17492 2900
17492 4564
17493 2901
17493 4565
17494 2902
17494 4566
17495 2903
17495 4567
17496 2904
17496 4568
17497 2905
17497 4569
17498 2906
17498 4570
17499 2907
17499 4571
17500 2908
17500 4572
17501 2909
17501 4573
17502 2910
17502 4574
17503 2911
17503 4575
17504 2912
17504 4576
17505 2913
17505 4577
17506 2914
17506 4578
17507 2915
17507 4579
17508 2916
17508 4580
17509 2917
17509 4581
17510 2918
17510 4582
17511 2919
17511 4583
17512 2920
17512 4584
17513 2921
17513 4585
17514 2922
17514 4586
17515 2923
17515 4587
17516 2924
17516 4588
17517 2925
17517 4589
17518 2926
17518 4590
17519 2927
17519 4591
17520 2928
17520 4592
17521 2929
17521 4593
17522 2930
17522 4594
17523 2931
17523 4595
17524 2932
17524 4596
17525 2933
17525 4597
17526 2934
17526 4598
17527 2935
17527 4599
17528 2936
17528 4600
17529 2937
17529 4601
17530 2938
17530 4602
17531 2939
17531 4603
17532 2940
17532 4604
17533 2941
17533 4605
17534 2942
17534 4606
17535 2943
17535 4607
17536 2816
17536 5632
17537 2817
17537 5633
17538 2818
17538 5634
17539 2819
17539 5635
17540 2820
17540 5636
17541 2821
17541 5637
17542 2822
17542 5638
17543 2823
17543 5639
17544 2824
17544 5640
17545 2825
17545 5641
17546 2826
17546 5642
17547 2827
17547 5643
17548 2828
17548 5644
17549 2829
17549 5645
17550 2830
17550 5646
17551 2831
17551 5647
17552 2832
17552 5648
17553 2833
17553 5649
17554 2834
17554 5650
17555 2835
17555 5651
17556 2836
17556 5652
17557 2837
17557 5653
17558 2838
17558 5654
17559 2839
17559 5655
17560 2840
17560 5656
17561 2841
17561 5657
17562 2842
17562 5658
17563 2843
17563 5659
17564 2844
17564 5660
17565 2845
17565 5661
17566 2846
17566 5662
17567 2847
17567 5663
17568 2848
17568 5664
17569 2849
17569 5665
17570 2850
17570 5666
17571 2851
17571 5667
17572 2852
17572 5668
17573 2853
17573 5669
17574 2854
17574 5670
17575 2855
17575 5671
17576 2856
17576 5672
17577 2857
17577 5673
17578 2858
17578 5674
17579 2859
17579 5675
17580 2860
17580 5676
17581 2861
17581 5677
17582 2862
17582 5678
17583 2863
17583 5679
17584 2864
17584 5680
17585 2865
17585 5681
17586 2866
17586 5682
17587 2867
17587 5683
17588 2868
17588 5684
17589 2869
17589 5685
17590 2870
17590 5686
17591 2871
17591 5687
17592 2872
17592 5688
17593 2873
17593 5689
17594 2874
17594 5690
17595 2875
17595 5691
17596 2876
17596 5692
17597 2877
17597 5693
17598 2878
17598 5694
17599 2879
17599 5695
17600 2880
17600 5696
17601 2881
17601 5697
17602 2882
17602 5698
17603 2883
17603 5699
17604 2884
17604 5700
17605 2885
17605 5701
17606 2886
17606 5702
17607 2887
17607 5703
17608 2888
17608 5704
17609 2889
17609 5705
17610 2890
17610 5706
17611 2891
17611 5707
17612 2892
17612 5708
17613 2893
17613 5709
17614 2894
17614 5710
17615 2895
17615 5711
17616 2896
17616 5712
17617 2897
17617 5713
17618 2898
17618 5714
17619 2899
17619 5715
17620 2900
17620 5716
17621 2901
17621 5717
17622 2902
17622 5718
17623 2903
17623 5719
17624 2904
17624 5720
17625 2905
17625 5721
17626 2906
17626 5722
17627 2907
17627 5723
17628 2908
17628 5724
17629 2909
17629 5725
17630 2910
17630 5726
17631 2911
17631 5727
17632 2912
17632 5728
17633 2913
17633 5729
17634 2914
17634 5730
17635 2915
17635 5731
17636 2916
17636 5732
17637 2917
17637 5733
17638 2918
17638 5734
17639 2919
17639 5735
17640 2920
17640 5736
17641 2921
17641 5737
17642 2922
17642 5738
17643 2923
17643 5739
17644 2924
17644 5740
17645 2925
17645 5741
17646 2926
17646 5742
17647 2927
17647 5743
17648 2928
17648 5744
17649 2929
17649 5745
17650 2930
17650 5746
17651 2931
17651 5747
17652 2932
17652 5748
17653 2933
17653 5749
17654 2934
17654 5750
17655 2935
17655 5751
17656 2936
17656 5752
17657 2937
17657 5753
17658 2938
17658 5754
17659 2939
17659 5755
17660 2940
17660 5756
17661 2941
17661 5757
17662 2942
17662 5758
17663 2943
17663 5759
17664 2816
17664 6144
17665 2817
17665 6145
17666 2818
17666 6146
17667 2819
17667 6147
17668 2820
17668 6148
17669 2821
17669 6149
17670 2822
17670 6150
17671 2823
17671 6151
17672 2824
17672 6152
17673 2825
17673 6153
17674 2826
17674 6154
17675 2827
17675 6155
17676 2828
17676 6156
17677 2829
17677 6157
17678 2830
17678 6158
17679 2831
17679 6159
17680 2832
17680 6160
17681 2833
17681 6161
17682 2834
17682 6162
17683 2835
17683 6163
17684 2836
17684 6164
17685 2837
17685 6165
17686 2838
17686 6166
17687 2839
17687 6167
17688 2840
17688 6168
17689 2841
17689 6169
17690 2842
17690 6170
17691 2843
17691 6171
17692 2844
17692 6172
17693 2845
17693 6173
17694 2846
17694 6174
17695 2847
17695 6175
17696 2848
17696 6176
17697 2849
17697 6177
17698 2850
17698 6178
17699 2851
17699 6179
17700 2852
17700 6180
17701 2853
17701 6181
17702 2854
17702 6182
17703 2855
17703 6183
17704 2856
17704 6184
17705 2857
17705 6185
17706 2858
17706 6186
17707 2859
17707 6187
17708 2860
17708 6188
17709 2861
17709 6189
17710 2862
17710 6190
17711 2863
17711 6191
17712 2864
17712 6192
17713 2865
17713 6193
17714 2866
17714 6194
17715 2867
17715 6195
17716 2868
17716 6196
17717 2869
17717 6197
17718 2870
17718 6198
17719 2871
17719 6199
17720 2872
17720 6200
17721 2873
17721 6201
17722 2874
17722 6202
17723 2875
17723 6203
17724 2876
17724 6204
17725 2877
17725 6205
17726 2878
17726 6206
17727 2879
17727 6207
17728 2880
17728 6208
17729 2881
17729 6209
17730 2882
17730 6210
17731 2883
17731 6211
17732 2884
17732 6212
17733 2885
17733 6213
17734 2886
17734 6214
17735 2887
17735 6215
17736 2888
17736 6216
17737 2889
17737 6217
17738 2890
17738 6218
17739 2891
17739 6219
17740 2892
17740 6220
17741 2893
17741 6221
17742 2894
17742 6222
17743 2895
17743 6223
17744 2896
17744 6224
17745 2897
17745 6225
17746 2898
17746 6226
17747 2899
17747 6227
17748 2900
17748 6228
17749 2901
17749 6229
17750 2902
17750 6230
17751 2903
17751 6231
17752 2904
17752 6232
17753 2905
17753 6233
17754 2906
17754 6234
17755 2907
17755 6235
17756 2908
17756 6236
17757 2909
17757 6237
17758 2910
17758 6238
17759 2911
17759 6239
17760 2912
17760 6240
17761 2913
17761 6241
17762 2914
17762 6242
17763 2915
17763 6243
17764 2916
17764 6244
17765 2917
17765 6245
17766 2918
17766 6246
17767 2919
17767 6247
17768 2920
17768 6248
17769 2921
17769 6249
17770 2922
17770 6250
17771 2923
17771 6251
17772 2924
17772 6252
17773 2925
17773 6253
17774 2926
17774 6254
17775 2927
17775 6255
17776 2928
17776 6256
17777 2929
17777 6257
17778 2930
17778 6258
17779 2931
17779 6259
17780 2932
17780 6260
17781 2933
17781 6261
17782 2934
17782 6262
17783 2935
17783 6263
17784 2936
17784 6264
17785 2937
17785 6265
17786 2938
17786 6266
17787 2939
17787 6267
17788 2940
17788 6268
17789 2941
17789 6269
17790 2942
17790 6270
17791 2943
17791 6271
17792 2944
17792 3072
17793 2945
17793 3073
17794 2946
17794 3074
17795 2947
17795 3075
17796 2948
17796 3076
17797 2949
17797 3077
17798 2950
17798 3078
17799 2951
17799 3079
17800 2952
17800 3080
17801 2953
17801 3081
17802 2954
17802 3082
17803 2955
17803 3083
17804 2956
17804 3084
17805 2957
17805 3085
17806 2958
17806 3086
17807 2959
17807 3087
17808 2960
17808 3088
17809 2961
17809 3089
17810 2962
17810 3090
17811 2963
17811 3091
17812 2964
17812 3092
17813 2965
17813 3093
17814 2966
17814 3094
17815 2967
17815 3095
17816 2968
17816 3096
17817 2969
17817 3097
17818 2970
17818 3098
17819 2971
17819 3099
17820 2972
17820 3100
17821 2973
17821 3101
17822 2974
17822 3102
17823 2975
17823 3103
17824 2976
17824 3104
17825 2977
17825 3105
17826 2978
17826 3106
17827 2979
17827 3107
17828 2980
17828 3108
17829 2981
17829 3109
17830 2982
17830 3110
17831 2983
17831 3111
17832 2984
17832 3112
17833 2985
17833 3113
17834 2986
17834 3114
17835 2987
17835 3115
17836 2988
17836 3116
17837 2989
17837 3117
17838 2990
17838 3118
17839 2991
17839 3119
17840 2992
17840 3120
17841 2993
17841 3121
17842 2994
17842 3122
17843 2995
17843 3123
17844 2996
17844 3124
17845 2997
17845 3125
17846 2998
17846 3126
17847 2999
17847 3127
17848 3000
17848 3128
17849 3001
17849 3129
17850 3002
17850 3130
17851 3003
17851 3131
17852 3004
17852 3132
17853 3005
17853 3133
17854 3006
17854 3134
17855 3007
17855 3135
17856 3008
17856 3136
17857 3009
17857 3137
17858 3010
17858 3138
17859 3011
17859 3139
17860 3012
17860 3140
17861 3013
17861 3141
17862 3014
17862 3142
17863 3015
17863 3143
17864 3016
17864 3144
17865 3017
17865 3145
17866 3018
17866 3146
17867 3019
17867 3147
17868 3020
17868 3148
17869 3021
17869 3149
17870 3022
17870 3150
17871 3023
17871 3151
17872 3024
17872 3152
17873 3025
17873 3153
17874 3026
17874 3154
17875 3027
17875 3155
17876 3028
17876 3156
17877 3029
17877 3157
17878 3030
17878 3158
17879 3031
17879 3159
17880 3032
17880 3160
17881 3033
17881 3161
17882 3034
17882 3162
17883 3035
17883 3163
17884 3036
17884 3164
17885 3037
17885 3165
17886 3038
17886 3166
17887 3039
17887 3167
17888 3040
17888 3168
17889 3041
17889 3169
17890 3042
17890 3170
17891 3043
17891 3171
17892 3044
17892 3172
17893 3045
17893 3173
17894 3046
17894 3174
17895 3047
17895 3175
17896 3048
17896 3176
17897 3049
17897 3177
17898 3050
17898 3178
17899 3051
17899 3179
17900 3052
17900 3180
17901 3053
17901 3181
17902 3054
17902 3182
17903 3055
17903 3183
17904 3056
17904 3184
17905 3057
17905 3185
17906 3058
17906 3186
17907 3059
17907 3187
17908 3060
17908 3188
17909 3061
17909 3189
17910 3062
17910 3190
17911 3063
17911 3191
17912 3064
17912 3192
17913 3065
17913 3193
17914 3066
17914 3194
17915 3067
17915 3195
17916 3068
17916 3196
17917 3069
17917 3197
17918 3070
17918 3198
17919 3071
17919 3199
17920 2944
17920 3584
17921 2945
17921 3585
17922 2946
17922 3586
17923 2947
17923 3587
17924 2948
17924 3588
17925 2949
17925 3589
17926 2950
17926 3590
17927 2951
17927 3591
17928 2952
17928 3592
17929 2953
17929 3593
17930 2954
17930 3594
17931 2955
17931 3595
17932 2956
17932 3596
17933 2957
17933 3597
17934 2958
17934 3598
17935 2959
17935 3599
17936 2960
17936 3600
17937 2961
17937 3601
17938 2962
17938 3602
17939 2963
17939 3603
17940 2964
17940 3604
17941 2965
17941 3605
17942 2966
17942 3606
17943 2967
17943 3607
17944 2968
17944 3608
17945 2969
17945 3609
17946 2970
17946 3610
17947 2971
17947 3611
17948 2972
17948 3612
17949 2973
17949 3613
17950 2974
17950 3614
17951 2975
17951 3615
17952 2976
17952 3616
17953 2977
17953 3617
17954 2978
17954 3618
17955 2979
17955 3619
17956 2980
17956 3620
17957 2981
17957 3621
17958 2982
17958 3622
17959 2983
17959 3623
17960 2984
17960 3624
17961 2985
17961 3625
17962 2986
17962 3626
17963 2987
17963 3627
17964 2988
17964 3628
17965 2989
17965 3629
17966 2990
17966 3630
17967 2991
17967 3631
17968 2992
17968 3632
17969 2993
17969 3633
17970 2994
17970 3634
17971 2995
17971 3635
17972 2996
17972 3636
17973 2997
17973 3637
17974 2998
17974 3638
17975 2999
17975 3639
17976 3000
17976 3640
17977 3001
17977 3641
17978 3002
17978 3642
17979 3003
17979 3643
17980 3004
17980 3644
17981 3005
17981 3645
17982 3006
17982 3646
17983 3007
17983 3647
17984 3008
17984 3648
17985 3009
17985 3649
17986 3010
17986 3650
17987 3011
17987 3651
17988 3012
17988 3652
17989 3013
17989 3653
17990 3014
17990 3654
17991 3015
17991 3655
17992 3016
17992 3656
17993 3017
17993 3657
17994 3018
17994 3658
17995 3019
17995 3659
17996 3020
17996 3660
17997 3021
17997 3661
17998 3022
17998 3662
17999 3023
17999 3663
18000 3024
18000 3664
18001 3025
18001 3665
18002 3026
18002 3666
18003 3027
18003 3667
18004 3028
18004 3668
18005 3029
18005 3669
18006 3030
18006 3670
18007 3031
18007 3671
18008 3032
18008 3672
18009 3033
18009 3673
18010 3034
18010 3674
18011 3035
18011 3675
18012 3036
18012 3676
18013 3037
18013 3677
18014 3038
18014 3678
18015 3039
18015 3679
18016 3040
18016 3680
18017 3041
18017 3681
18018 3042
18018 3682
18019 3043
18019 3683
18020 3044
18020 3684
18021 3045
18021 3685
18022 3046
18022 3686
18023 3047
18023 3687
18024 3048
18024 3688
18025 3049
18025 3689
18026 3050
18026 3690
18027 3051
18027 3691
18028 3052
18028 3692
18029 3053
18029 3693
18030 3054
18030 3694
18031 3055
18031 3695
18032 3056
18032 3696
18033 3057
18033 3697
18034 3058
18034 3698
18035 3059
18035 3699
18036 3060
18036 3700
18037 3061
18037 3701
18038 3062
18038 3702
18039 3063
18039 3703
18040 3064
18040 3704
18041 3065
18041 3705
18042 3066
18042 3706
18043 3067
18043 3707
18044 3068
18044 3708
18045 3069
18045 3709
18046 3070
18046 3710
18047 3071
18047 3711
18048 2944
18048 4096
18049 2945
18049 4097
18050 2946
18050 4098
18051 2947
18051 4099
18052 2948
18052 4100
18053 2949
18053 4101
18054 2950
18054 4102
18055 2951
18055 4103
18056 2952
18056 4104
18057 2953
18057 4105
18058 2954
18058 4106
18059 2955
18059 4107
18060 2956
18060 4108
18061 2957
18061 4109
18062 2958
18062 4110
18063 2959
18063 4111
18064 2960
18064 4112
18065 2961
18065 4113
18066 2962
18066 4114
18067 2963
18067 4115
18068 2964
18068 4116
18069 2965
18069 4117
18070 2966
18070 4118
18071 2967
18071 4119
18072 2968
18072 4120
18073 2969
18073 4121
18074 2970
18074 4122
18075 2971
18075 4123
18076 2972
18076 4124
18077 2973
18077 4125
18078 2974
18078 4126
18079 2975
18079 4127
18080 2976
18080 4128
18081 2977
18081 4129
18082 2978
18082 4130
18083 2979
18083 4131
18084 2980
18084 4132
18085 2981
18085 4133
18086 2982
18086 4134
18087 2983
18087 4135
18088 2984
18088 4136
18089 2985
18089 4137
18090 2986
18090 4138
18091 2987
18091 4139
18092 2988
18092 4140
18093 2989
18093 4141
18094 2990
18094 4142
18095 2991
18095 4143
18096 2992
18096 4144
18097 2993
18097 4145
18098 2994
18098 4146
18099 2995
18099 4147
18100 2996
18100 4148
18101 2997
18101 4149
18102 2998
18102 4150
18103 2999
18103 4151
18104 3000
18104 4152
18105 3001
18105 4153
18106 3002
18106 4154
18107 3003
18107 4155
18108 3004
18108 4156
18109 3005
18109 4157
18110 3006
18110 4158
18111 3007
18111 4159
18112 3008
18112 4160
18113 3009
18113 4161
18114 3010
18114 4162
18115 3011
18115 4163
18116 3012
18116 4164
18117 3013
18117 4165
18118 3014
18118 4166
18119 3015
18119 4167
18120 3016
18120 4168
18121 3017
18121 4169
18122 3018
18122 4170
18123 3019
18123 4171
18124 3020
18124 4172
18125 3021
18125 4173
18126 3022
18126 4174
18127 3023
18127 4175
18128 3024
18128 4176
18129 3025
18129 4177
18130 3026
18130 4178
18131 3027
18131 4179
18132 3028
18132 4180
18133 3029
18133 4181
18134 3030
18134 4182
18135 3031
18135 4183
18136 3032
18136 4184
18137 3033
18137 4185
18138 3034
18138 4186
18139 3035
18139 4187
18140 3036
18140 4188
18141 3037
18141 4189
18142 3038
18142 4190
18143 3039
18143 4191
18144 3040
18144 4192
18145 3041
18145 4193
18146 3042
18146 4194
18147 3043
18147 4195
18148 3044
18148 4196
18149 3045
18149 4197
18150 3046
18150 4198
18151 3047
18151 4199
18152 3048
18152 4200
18153 3049
18153 4201
18154 3050
18154 4202
18155 3051
18155 4203
18156 3052
18156 4204
18157 3053
18157 4205
18158 3054
18158 4206
18159 3055
18159 4207
18160 3056
18160 4208
18161 3057
18161 4209
18162 3058
18162 4210
18163 3059
18163 4211
18164 3060
18164 4212
18165 3061
18165 4213
18166 3062
18166 4214
18167 3063
18167 4215
18168 3064
18168 4216
18169 3065
18169 4217
18170 3066
18170 4218
18171 3067
18171 4219
18172 3068
18172 4220
18173 3069
18173 4221
18174 3070
18174 4222
18175 3071
18175 4223
18176 2944
18176 4608
18177 2945
18177 4609
18178 2946
18178 4610
18179 2947
18179 4611
18180 2948
18180 4612
18181 2949
18181 4613
18182 2950
18182 4614
18183 2951
18183 4615
18184 2952
18184 4616
18185 2953
18185 4617
18186 2954
18186 4618
18187 2955
18187 4619
18188 2956
18188 4620
18189 2957
18189 4621
18190 2958
18190 4622
18191 2959
18191 4623
18192 2960
18192 4624
18193 2961
18193 4625
18194 2962
18194 4626
18195 2963
18195 4627
18196 2964
18196 4628
18197 2965
18197 4629
18198 2966
18198 4630
18199 2967
18199 4631
18200 2968
18200 4632
18201 2969
18201 4633
18202 2970
18202 4634
18203 2971
18203 4635
18204 2972
18204 4636
18205 2973
18205 4637
18206 2974
18206 4638
18207 2975
18207 4639
18208 2976
18208 4640
18209 2977
18209 4641
18210 2978
18210 4642
18211 2979
18211 4643
18212 2980
18212 4644
18213 2981
18213 4645
18214 2982
18214 4646
18215 2983
18215 4647
18216 2984
18216 4648
18217 2985
18217 4649
18218 2986
18218 4650
18219 2987
18219 4651
18220 2988
18220 4652
18221 2989
18221 4653
18222 2990
18222 4654
18223 2991
18223 4655
18224 2992
18224 4656
18225 2993
18225 4657
18226 2994
18226 4658
18227 2995
18227 4659
18228 2996
18228 4660
18229 2997
18229 4661
18230 2998
18230 4662
18231 2999
18231 4663
18232 3000
18232 4664
18233 3001
18233 4665
18234 3002
18234 4666
18235 3003
18235 4667
18236 3004
18236 4668
18237 3005
18237 4669
18238 3006
18238 4670
18239 3007
18239 4671
18240 3008
18240 4672
18241 3009
18241 4673
18242 3010
18242 4674
18243 3011
18243 4675
18244 3012
18244 4676
18245 3013
18245 4677
18246 3014
18246 4678
18247 3015
18247 4679
18248 3016
18248 4680
18249 3017
18249 4681
18250 3018
18250 4682
18251 3019
18251 4683
18252 3020
18252 4684
18253 3021
18253 4685
18254 3022
18254 4686
18255 3023
18255 4687
18256 3024
18256 4688
18257 3025
18257 4689
18258 3026
18258 4690
18259 3027
18259 4691
18260 3028
18260 4692
18261 3029
18261 4693
18262 3030
18262 4694
18263 3031
18263 4695
18264 3032
18264 4696
18265 3033
18265 4697
18266 3034
18266 4698
18267 3035
18267 4699
18268 3036
18268 4700
18269 3037
18269 4701
18270 3038
18270 4702
18271 3039
18271 4703
18272 3040
18272 4704
18273 3041
18273 4705
18274 3042
18274 4706
18275 3043
18275 4707
18276 3044
18276 4708
18277 3045
18277 4709
18278 3046
18278 4710
18279 3047
18279 4711
18280 3048
18280 4712
18281 3049
18281 4713
18282 3050
18282 4714
18283 3051
18283 4715
18284 3052
18284 4716
18285 3053
18285 4717
18286 3054
18286 4718
18287 3055
18287 4719
18288 3056
18288 4720
18289 3057
18289 4721
18290 3058
18290 4722
18291 3059
18291 4723
18292 3060
18292 4724
18293 3061
18293 4725
18294 3062
18294 4726
18295 3063
18295 4727
18296 3064
18296 4728
18297 3065
18297 4729
18298 3066
18298 4730
18299 3067
18299 4731
18300 3068
18300 4732
18301 3069
18301 4733
18302 3070
18302 4734
18303 3071
18303 4735
18304 2944
18304 5120
18305 2945
18305 5121
18306 2946
18306 5122
18307 2947
18307 5123
18308 2948
18308 5124
18309 2949
18309 5125
18310 2950
18310 5126
18311 2951
18311 5127
18312 2952
18312 5128
18313 2953
18313 5129
18314 2954
18314 5130
18315 2955
18315 5131
18316 2956
18316 5132
18317 2957
18317 5133
18318 2958
18318 5134
18319 2959
18319 5135
18320 2960
18320 5136
18321 2961
18321 5137
18322 2962
18322 5138
18323 2963
18323 5139
18324 2964
18324 5140
18325 2965
18325 5141
18326 2966
18326 5142
18327 2967
18327 5143
18328 2968
18328 5144
18329 2969
18329 5145
18330 2970
18330 5146
18331 2971
18331 5147
18332 2972
18332 5148
18333 2973
18333 5149
18334 2974
18334 5150
18335 2975
18335 5151
18336 2976
18336 5152
18337 2977
18337 5153
18338 2978
18338 5154
18339 2979
18339 5155
18340 2980
18340 5156
18341 2981
18341 5157
18342 2982
18342 5158
18343 2983
18343 5159
18344 2984
18344 5160
18345 2985
18345 5161
18346 2986
18346 5162
18347 2987
18347 5163
18348 2988
18348 5164
18349 2989
18349 5165
18350 2990
18350 5166
18351 2991
18351 5167
18352 2992
18352 5168
18353 2993
18353 5169
18354 2994
18354 5170
18355 2995
18355 5171
18356 2996
18356 5172
18357 2997
18357 5173
18358 2998
18358 5174
18359 2999
18359 5175
18360 3000
18360 5176
18361 3001
18361 5177
18362 3002
18362 5178
18363 3003
18363 5179
18364 3004
18364 5180
18365 3005
18365 5181
18366 3006
18366 5182
18367 3007
18367 5183
18368 3008
18368 5184
18369 3009
18369 5185
18370 3010
18370 5186
18371 3011
18371 5187
18372 3012
18372 5188
18373 3013
18373 5189
18374 3014
18374 5190
18375 3015
18375 5191
18376 3016
18376 5192
18377 3017
18377 5193
18378 3018
18378 5194
18379 3019
18379 5195
18380 3020
18380 5196
18381 3021
18381 5197
18382 3022
18382 5198
18383 3023
18383 5199
18384 3024
18384 5200
18385 3025
18385 5201
18386 3026
18386 5202
18387 3027
18387 5203
18388 3028
18388 5204
18389 3029
18389 5205
18390 3030
18390 5206
18391 3031
18391 5207
18392 3032
18392 5208
18393 3033
18393 5209
18394 3034
18394 5210
18395 3035
18395 5211
18396 3036
18396 5212
18397 3037
18397 5213
18398 3038
18398 5214
18399 3039
18399 5215
18400 3040
18400 5216
18401 3041
18401 5217
18402 3042
18402 5218
18403 3043
18403 5219
18404 3044
18404 5220
18405 3045
18405 5221
18406 3046
18406 5222
18407 3047
18407 5223
18408 3048
18408 5224
18409 3049
18409 5225
18410 3050
18410 5226
18411 3051
18411 5227
18412 3052
18412 5228
18413 3053
18413 5229
18414 3054
18414 5230
18415 3055
18415 5231
18416 3056
18416 5232
18417 3057
18417 5233
18418 3058
18418 5234
18419 3059
18419 5235
18420 3060
18420 5236
18421 3061
18421 5237
18422 3062
18422 5238
18423 3063
18423 5239
18424 3064
18424 5240
18425 3065
18425 5241
18426 3066
18426 5242
18427 3067
18427 5243
18428 3068
18428 5244
18429 3069
18429 5245
18430 3070
18430 5246
18431 3071
18431 5247
18432 2944
18432 6272
18433 2945
18433 6273
18434 2946
18434 6274
18435 2947
18435 6275
18436 2948
18436 6276
18437 2949
18437 6277
18438 2950
18438 6278
18439 2951
18439 6279
18440 2952
18440 6280
18441 2953
18441 6281
18442 2954
18442 6282
18443 2955
18443 6283
18444 2956
18444 6284
18445 2957
18445 6285
18446 2958
18446 6286
18447 2959
18447 6287
18448 2960
18448 6288
18449 2961
18449 6289
18450 2962
18450 6290
18451 2963
18451 6291
18452 2964
18452 6292
18453 2965
18453 6293
18454 2966
18454 6294
18455 2967
18455 6295
18456 2968
18456 6296
18457 2969
18457 6297
18458 2970
18458 6298
18459 2971
18459 6299
18460 2972
18460 6300
18461 2973
18461 6301
18462 2974
18462 6302
18463 2975
18463 6303
18464 2976
18464 6304
18465 2977
18465 6305
18466 2978
18466 6306
18467 2979
18467 6307
18468 2980
18468 6308
18469 2981
18469 6309
18470 2982
18470 6310
18471 2983
18471 6311
18472 2984
18472 6312
18473 2985
18473 6313
18474 2986
18474 6314
18475 2987
18475 6315
18476 2988
18476 6316
18477 2989
18477 6317
18478 2990
18478 6318
18479 2991
18479 6319
18480 2992
18480 6320
18481 2993
18481 6321
18482 2994
18482 6322
18483 2995
18483 6323
18484 2996
18484 6324
18485 2997
18485 6325
18486 2998
18486 6326
18487 2999
18487 6327
18488 3000
18488 6328
18489 3001
18489 6329
18490 3002
18490 6330
18491 3003
18491 6331
18492 3004
18492 6332
18493 3005
18493 6333
18494 3006
18494 6334
18495 3007
18495 6335
18496 3008
18496 6336
18497 3009
18497 6337
18498 3010
18498 6338
18499 3011
18499 6339
18500 3012
18500 6340
18501 3013
18501 6341
18502 3014
18502 6342
18503 3015
18503 6343
18504 3016
18504 6344
18505 3017
18505 6345
18506 3018
18506 6346
18507 3019
18507 6347
18508 3020
18508 6348
18509 3021
18509 6349
18510 3022
18510 6350
18511 3023
18511 6351
18512 3024
18512 6352
18513 3025
18513 6353
18514 3026
18514 6354
18515 3027
18515 6355
18516 3028
18516 6356
18517 3029
18517 6357
18518 3030
18518 6358
18519 3031
18519 6359
18520 3032
18520 6360
18521 3033
18521 6361
18522 3034
18522 6362
18523 3035
18523 6363
18524 3036
18524 6364
18525 3037
18525 6365
18526 3038
18526 6366
18527 3039
18527 6367
18528 3040
18528 6368
18529 3041
18529 6369
18530 3042
18530 6370
18531 3043
18531 6371
18532 3044
18532 6372
18533 3045
18533 6373
18534 3046
18534 6374
18535 3047
18535 6375
18536 3048
18536 6376
18537 3049
18537 6377
18538 3050
18538 6378
18539 3051
18539 6379
18540 3052
18540 6380
18541 3053
18541 6381
18542 3054
18542 6382
18543 3055
18543 6383
18544 3056
18544 6384
18545 3057
18545 6385
18546 3058
18546 6386
18547 3059
18547 6387
18548 3060
18548 6388
18549 3061
18549 6389
18550 3062
18550 6390
18551 3063
18551 6391
18552 3064
18552 6392
18553 3065
18553 6393
18554 3066
18554 6394
18555 3067
18555 6395
18556 3068
18556 6396
18557 3069
18557 6397
18558 3070
18558 6398
18559 3071
18559 6399
18560 3072
18560 3712
18561 3073
18561 3713
18562 3074
18562 3714
18563 3075
18563 3715
18564 3076
18564 3716
18565 3077
18565 3717
18566 3078
18566 3718
18567 3079
18567 3719
18568 3080
18568 3720
18569 3081
18569 3721
18570 3082
18570 3722
18571 3083
18571 3723
18572 3084
18572 3724
18573 3085
18573 3725
18574 3086
18574 3726
18575 3087
18575 3727
18576 3088
18576 3728
18577 3089
18577 3729
18578 3090
18578 3730
18579 3091
18579 3731
18580 3092
18580 3732
18581 3093
18581 3733
18582 3094
18582 3734
18583 3095
18583 3735
18584 3096
18584 3736
18585 3097
18585 3737
18586 3098
18586 3738
18587 3099
18587 3739
18588 3100
18588 3740
18589 3101
18589 3741
18590 3102
18590 3742
18591 3103
18591 3743
18592 3104
18592 3744
18593 3105
18593 3745
18594 3106
18594 3746
18595 3107
18595 3747
18596 3108
18596 3748
18597 3109
18597 3749
18598 3110
18598 3750
18599 3111
18599 3751
18600 3112
18600 3752
18601 3113
18601 3753
18602 3114
18602 3754
18603 3115
18603 3755
18604 3116
18604 3756
18605 3117
18605 3757
18606 3118
18606 3758
18607 3119
18607 3759
18608 3120
18608 3760
18609 3121
18609 3761
18610 3122
18610 3762
18611 3123
18611 3763
18612 3124
18612 3764
18613 3125
18613 3765
18614 3126
18614 3766
18615 3127
18615 3767
18616 3128
18616 3768
18617 3129
18617 3769
18618 3130
18618 3770
18619 3131
18619 3771
18620 3132
18620 3772
18621 3133
18621 3773
18622 3134
18622 3774
18623 3135
18623 3775
18624 3136
18624 3776
18625 3137
18625 3777
18626 3138
18626 3778
18627 3139
18627 3779
18628 3140
18628 3780
18629 3141
18629 3781
18630 3142
18630 3782
18631 3143
18631 3783
18632 3144
18632 3784
18633 3145
18633 3785
18634 3146
18634 3786
18635 3147
18635 3787
18636 3148
18636 3788
18637 3149
18637 3789
18638 3150
18638 3790
18639 3151
18639 3791
18640 3152
18640 3792
18641 3153
18641 3793
18642 3154
18642 3794
18643 3155
18643 3795
18644 3156
18644 3796
18645 3157
18645 3797
18646 3158
18646 3798
18647 3159
18647 3799
18648 3160
18648 3800
18649 3161
18649 3801
18650 3162
18650 3802
18651 3163
18651 3803
18652 3164
18652 3804
18653 3165
18653 3805
18654 3166
18654 3806
18655 3167
18655 3807
18656 3168
18656 3808
18657 3169
18657 3809
18658 3170
18658 3810
18659 3171
18659 3811
18660 3172
18660 3812
18661 3173
18661 3813
18662 3174
18662 3814
18663 3175
18663 3815
18664 3176
18664 3816
18665 3177
18665 3817
18666 3178
18666 3818
18667 3179
18667 3819
18668 3180
18668 3820
18669 3181
18669 3821
18670 3182
18670 3822
18671 3183
18671 3823
18672 3184
18672 3824
18673 3185
18673 3825
18674 3186
18674 3826
18675 3187
18675 3827
18676 3188
18676 3828
18677 3189
18677 3829
18678 3190
18678 3830
18679 3191
18679 3831
18680 3192
18680 3832
18681 3193
18681 3833
18682 3194
18682 3834
18683 3195
18683 3835
18684 3196
18684 3836
18685 3197
18685 3837
18686 3198
18686 3838
18687 3199
18687 3839
18688 3072
18688 4224
18689 3073
18689 4225
18690 3074
18690 4226
18691 3075
18691 4227
18692 3076
18692 4228
18693 3077
18693 4229
18694 3078
18694 4230
18695 3079
18695 4231
18696 3080
18696 4232
18697 3081
18697 4233
18698 3082
18698 4234
18699 3083
18699 4235
18700 3084
18700 4236
18701 3085
18701 4237
18702 3086
18702 4238
18703 3087
18703 4239
18704 3088
18704 4240
18705 3089
18705 4241
18706 3090
18706 4242
18707 3091
18707 4243
18708 3092
18708 4244
18709 3093
18709 4245
18710 3094
18710 4246
18711 3095
18711 4247
18712 3096
18712 4248
18713 3097
18713 4249
18714 3098
18714 4250
18715 3099
18715 4251
18716 3100
18716 4252
18717 3101
18717 4253
18718 3102
18718 4254
18719 3103
18719 4255
18720 3104
18720 4256
18721 3105
18721 4257
18722 3106
18722 4258
18723 3107
18723 4259
18724 3108
18724 4260
18725 3109
18725 4261
18726 3110
18726 4262
18727 3111
18727 4263
18728 3112
18728 4264
18729 3113
18729 4265
18730 3114
18730 4266
18731 3115
18731 4267
18732 3116
18732 4268
18733 3117
18733 4269
18734 3118
18734 4270
18735 3119
18735 4271
18736 3120
18736 4272
18737 3121
18737 4273
18738 3122
18738 4274
18739 3123
18739 4275
18740 3124
18740 4276
18741 3125
18741 4277
18742 3126
18742 4278
18743 3127
18743 4279
18744 3128
18744 4280
18745 3129
18745 4281
18746 3130
18746 4282
18747 3131
18747 4283
18748 3132
18748 4284
18749 3133
18749 4285
18750 3134
18750 4286
18751 3135
18751 4287
18752 3136
18752 4288
18753 3137
18753 4289
18754 3138
18754 4290
18755 3139
18755 4291
18756 3140
18756 4292
18757 3141
18757 4293
18758 3142
18758 4294
18759 3143
18759 4295
18760 3144
18760 4296
18761 3145
18761 4297
18762 3146
18762 4298
18763 3147
18763 4299
18764 3148
18764 4300
18765 3149
18765 4301
18766 3150
18766 4302
18767 3151
18767 4303
18768 3152
18768 4304
18769 3153
18769 4305
18770 3154
18770 4306
18771 3155
18771 4307
18772 3156
18772 4308
18773 3157
18773 4309
18774 3158
18774 4310
18775 3159
18775 4311
18776 3160
18776 4312
18777 3161
18777 4313
18778 3162
18778 4314
18779 3163
18779 4315
18780 3164
18780 4316
18781 3165
18781 4317
18782 3166
18782 4318
18783 3167
18783 4319
18784 3168
18784 4320
18785 3169
18785 4321
18786 3170
18786 4322
18787 3171
18787 4323
18788 3172
18788 4324
18789 3173
18789 4325
18790 3174
18790 4326
18791 3175
18791 4327
18792 3176
18792 4328
18793 3177
18793 4329
18794 3178
18794 4330
18795 3179
18795 4331
18796 3180
18796 4332
18797 3181
18797 4333
18798 3182
18798 4334
18799 3183
18799 4335
18800 3184
18800 4336
18801 3185
18801 4337
18802 3186
18802 4338
18803 3187
18803 4339
18804 3188
18804 4340
18805 3189
18805 4341
18806 3190
18806 4342
18807 3191
18807 4343
18808 3192
18808 4344
18809 3193
18809 4345
18810 3194
18810 4346
18811 3195
18811 4347
18812 3196
18812 4348
18813 3197
18813 4349
18814 3198
18814 4350
18815 3199
18815 4351
18816 3072
18816 4736
18817 3073
18817 4737
18818 3074
18818 4738
18819 3075
18819 4739
18820 3076
18820 4740
18821 3077
18821 4741
18822 3078
18822 4742
18823 3079
18823 4743
18824 3080
18824 4744
18825 3081
18825 4745
18826 3082
18826 4746
18827 3083
18827 4747
18828 3084
18828 4748
18829 3085
18829 4749
18830 3086
18830 4750
18831 3087
18831 4751
18832 3088
18832 4752
18833 3089
18833 4753
18834 3090
18834 4754
18835 3091
18835 4755
18836 3092
18836 4756
18837 3093
18837 4757
18838 3094
18838 4758
18839 3095
18839 4759
18840 3096
18840 4760
18841 3097
18841 4761
18842 3098
18842 4762
18843 3099
18843 4763
18844 3100
18844 4764
18845 3101
18845 4765
18846 3102
18846 4766
18847 3103
18847 4767
18848 3104
18848 4768
18849 3105
18849 4769
18850 3106
18850 4770
18851 3107
18851 4771
18852 3108
18852 4772
18853 3109
18853 4773
18854 3110
18854 4774
18855 3111
18855 4775
18856 3112
18856 4776
18857 3113
18857 4777
18858 3114
18858 4778
18859 3115
18859 4779
18860 3116
18860 4780
18861 3117
18861 4781
18862 3118
18862 4782
18863 3119
18863 4783
18864 3120
18864 4784
18865 3121
18865 4785
18866 3122
18866 4786
18867 3123
18867 4787
18868 3124
18868 4788
18869 3125
18869 4789
18870 3126
18870 4790
18871 3127
18871 4791
18872 3128
18872 4792
18873 3129
18873 4793
18874 3130
18874 4794
18875 3131
18875 4795
18876 3132
18876 4796
18877 3133
18877 4797
18878 3134
18878 4798
18879 3135
18879 4799
18880 3136
18880 4800
18881 3137
18881 4801
18882 3138
18882 4802
18883 3139
18883 4803
18884 3140
18884 4804
18885 3141
18885 4805
18886 3142
18886 4806
18887 3143
18887 4807
18888 3144
18888 4808
18889 3145
18889 4809
18890 3146
18890 4810
18891 3147
18891 4811
18892 3148
18892 4812
18893 3149
18893 4813
18894 3150
18894 4814
18895 3151
18895 4815
18896 3152
18896 4816
18897 3153
18897 4817
18898 3154
18898 4818
18899 3155
18899 4819
18900 3156
18900 4820
18901 3157
18901 4821
18902 3158
18902 4822
18903 3159
18903 4823
18904 3160
18904 4824
18905 3161
18905 4825
18906 3162
18906 4826
18907 3163
18907 4827
18908 3164
18908 4828
18909 3165
18909 4829
18910 3166
18910 4830
18911 3167
18911 4831
18912 3168
18912 4832
18913 3169
18913 4833
18914 3170
18914 4834
18915 3171
18915 4835
18916 3172
18916 4836
18917 3173
18917 4837
18918 3174
18918 4838
18919 3175
18919 4839
18920 3176
18920 4840
18921 3177
18921 4841
18922 3178
18922 4842
18923 3179
18923 4843
18924 3180
18924 4844
18925 3181
18925 4845
18926 3182
18926 4846
18927 3183
18927 4847
18928 3184
18928 4848
18929 3185
18929 4849
18930 3186
18930 4850
18931 3187
18931 4851
18932 3188
18932 4852
18933 3189
18933 4853
18934 3190
18934 4854
18935 3191
18935 4855
18936 3192
18936 4856
18937 3193
18937 4857
18938 3194
18938 4858
18939 3195
18939 4859
18940 3196
18940 4860
18941 3197
18941 4861
18942 3198
18942 4862
18943 3199
18943 4863
18944 3072
18944 5248
18945 3073
18945 5249
18946 3074
18946 5250
18947 3075
18947 5251
18948 3076
18948 5252
18949 3077
18949 5253
18950 3078
18950 5254
18951 3079
18951 5255
18952 3080
18952 5256
18953 3081
18953 5257
18954 3082
18954 5258
18955 3083
18955 5259
18956 3084
18956 5260
18957 3085
18957 5261
18958 3086
18958 5262
18959 3087
18959 5263
18960 3088
18960 5264
18961 3089
18961 5265
18962 3090
18962 5266
18963 3091
18963 5267
18964 3092
18964 5268
18965 3093
18965 5269
18966 3094
18966 5270
18967 3095
18967 5271
18968 3096
18968 5272
18969 3097
18969 5273
18970 3098
18970 5274
18971 3099
18971 5275
18972 3100
18972 5276
18973 3101
18973 5277
18974 3102
18974 5278
18975 3103
18975 5279
18976 3104
18976 5280
18977 3105
18977 5281
18978 3106
18978 5282
18979 3107
18979 5283
18980 3108
18980 5284
18981 3109
18981 5285
18982 3110
18982 5286
18983 3111
18983 5287
18984 3112
18984 5288
18985 3113
18985 5289
18986 3114
18986 5290
18987 3115
18987 5291
18988 3116
18988 5292
18989 3117
18989 5293
18990 3118
18990 5294
18991 3119
18991 5295
18992 3120
18992 5296
18993 3121
18993 5297
18994 3122
18994 5298
18995 3123
18995 5299
18996 3124
18996 5300
18997 3125
18997 5301
18998 3126
18998 5302
18999 3127
18999 5303
19000 3128
19000 5304
19001 3129
19001 5305
19002 3130
19002 5306
19003 3131
19003 5307
19004 3132
19004 5308
19005 3133
19005 5309
19006 3134
19006 5310
19007 3135
19007 5311
19008 3136
19008 5312
19009 3137
19009 5313
19010 3138
19010 5314
19011 3139
19011 5315
19012 3140
19012 5316
19013 3141
19013 5317
19014 3142
19014 5318
19015 3143
19015 5319
19016 3144
19016 5320
19017 3145
19017 5321
19018 3146
19018 5322
19019 3147
19019 5323
19020 3148
19020 5324
19021 3149
19021 5325
19022 3150
19022 5326
19023 3151
19023 5327
19024 3152
19024 5328
19025 3153
19025 5329
19026 3154
19026 5330
19027 3155
19027 5331
19028 3156
19028 5332
19029 3157
19029 5333
19030 3158
19030 5334
19031 3159
19031 5335
19032 3160
19032 5336
19033 3161
19033 5337
19034 3162
19034 5338
19035 3163
19035 5339
19036 3164
19036 5340
19037 3165
19037 5341
19038 3166
19038 5342
19039 3167
19039 5343
19040 3168
19040 5344
19041 3169
19041 5345
19042 3170
19042 5346
19043 3171
19043 5347
19044 3172
19044 5348
19045 3173
19045 5349
19046 3174
19046 5350
19047 3175
19047 5351
19048 3176
19048 5352
19049 3177
19049 5353
19050 3178
19050 5354
19051 3179
19051 5355
19052 3180
19052 5356
19053 3181
19053 5357
19054 3182
19054 5358
19055 3183
19055 5359
19056 3184
19056 5360
19057 3185
19057 5361
19058 3186
19058 5362
19059 3187
19059 5363
19060 3188
19060 5364
19061 3189
19061 5365
19062 3190
19062 5366
19063 3191
19063 5367
19064 3192
19064 5368
19065 3193
19065 5369
19066 3194
19066 5370
19067 3195
19067 5371
19068 3196
19068 5372
19069 3197
19069 5373
19070 3198
19070 5374
19071 3199
19071 5375
19072 3072
19072 5760
19073 3073
19073 5761
19074 3074
19074 5762
19075 3075
19075 5763
19076 3076
19076 5764
19077 3077
19077 5765
19078 3078
19078 5766
19079 3079
19079 5767
19080 3080
19080 5768
19081 3081
19081 5769
19082 3082
19082 5770
19083 3083
19083 5771
19084 3084
19084 5772
19085 3085
19085 5773
19086 3086
19086 5774
19087 3087
19087 5775
19088 3088
19088 5776
19089 3089
19089 5777
19090 3090
19090 5778
19091 3091
19091 5779
19092 3092
19092 5780
19093 3093
19093 5781
19094 3094
19094 5782
19095 3095
19095 5783
19096 3096
19096 5784
19097 3097
19097 5785
19098 3098
19098 5786
19099 3099
19099 5787
19100 3100
19100 5788
19101 3101
19101 5789
19102 3102
19102 5790
19103 3103
19103 5791
19104 3104
19104 5792
19105 3105
19105 5793
19106 3106
19106 5794
19107 3107
19107 5795
19108 3108
19108 5796
19109 3109
19109 5797
19110 3110
19110 5798
19111 3111
19111 5799
19112 3112
19112 5800
19113 3113
19113 5801
19114 3114
19114 5802
19115 3115
19115 5803
19116 3116
19116 5804
19117 3117
19117 5805
19118 3118
19118 5806
19119 3119
19119 5807
19120 3120
19120 5808
19121 3121
19121 5809
19122 3122
19122 5810
19123 3123
19123 5811
19124 3124
19124 5812
19125 3125
19125 5813
19126 3126
19126 5814
19127 3127
19127 5815
19128 3128
19128 5816
19129 3129
19129 5817
19130 3130
19130 5818
19131 3131
19131 5819
19132 3132
19132 5820
19133 3133
19133 5821
19134 3134
19134 5822
19135 3135
19135 5823
19136 3136
19136 5824
19137 3137
19137 5825
19138 3138
19138 5826
19139 3139
19139 5827
19140 3140
19140 5828
19141 3141
19141 5829
19142 3142
19142 5830
19143 3143
19143 5831
19144 3144
19144 5832
19145 3145
19145 5833
19146 3146
19146 5834
19147 3147
19147 5835
19148 3148
19148 5836
19149 3149
19149 5837
19150 3150
19150 5838
19151 3151
19151 5839
19152 3152
19152 5840
19153 3153
19153 5841
19154 3154
19154 5842
19155 3155
19155 5843
19156 3156
19156 5844
19157 3157
19157 5845
19158 3158
19158 5846
19159 3159
19159 5847
19160 3160
19160 5848
19161 3161
19161 5849
19162 3162
19162 5850
19163 3163
19163 5851
19164 3164
19164 5852
19165 3165
19165 5853
19166 3166
19166 5854
19167 3167
19167 5855
19168 3168
19168 5856
19169 3169
19169 5857
19170 3170
19170 5858
19171 3171
19171 5859
19172 3172
19172 5860
19173 3173
19173 5861
19174 3174
19174 5862
19175 3175
19175 5863
19176 3176
19176 5864
19177 3177
19177 5865
19178 3178
19178 5866
19179 3179
19179 5867
19180 3180
19180 5868
19181 3181
19181 5869
19182 3182
19182 5870
19183 3183
19183 5871
19184 3184
19184 5872
19185 3185
19185 5873
19186 3186
19186 5874
19187 3187
19187 5875
19188 3188
19188 5876
19189 3189
19189 5877
19190 3190
19190 5878
19191 3191
19191 5879
19192 3192
19192 5880
19193 3193
19193 5881
19194 3194
19194 5882
19195 3195
19195 5883
19196 3196
19196 5884
19197 3197
19197 5885
19198 3198
19198 5886
19199 3199
19199 5887
19200 3200
19200 3456
19201 3201
19201 3457
19202 3202
19202 3458
19203 3203
19203 3459
19204 3204
19204 3460
19205 3205
19205 3461
19206 3206
19206 3462
19207 3207
19207 3463
19208 3208
19208 3464
19209 3209
19209 3465
19210 3210
19210 3466
19211 3211
19211 3467
19212 3212
19212 3468
19213 3213
19213 3469
19214 3214
19214 3470
19215 3215
19215 3471
19216 3216
19216 3472
19217 3217
19217 3473
19218 3218
19218 3474
19219 3219
19219 3475
19220 3220
19220 3476
19221 3221
19221 3477
19222 3222
19222 3478
19223 3223
19223 3479
19224 3224
19224 3480
19225 3225
19225 3481
19226 3226
19226 3482
19227 3227
19227 3483
19228 3228
19228 3484
19229 3229
19229 3485
19230 3230
19230 3486
19231 3231
19231 3487
19232 3232
19232 3488
19233 3233
19233 3489
19234 3234
19234 3490
19235 3235
19235 3491
19236 3236
19236 3492
19237 3237
19237 3493
19238 3238
19238 3494
19239 3239
19239 3495
19240 3240
19240 3496
19241 3241
19241 3497
19242 3242
19242 3498
19243 3243
19243 3499
19244 3244
19244 3500
19245 3245
19245 3501
19246 3246
19246 3502
19247 3247
19247 3503
19248 3248
19248 3504
19249 3249
19249 3505
19250 3250
19250 3506
19251 3251
19251 3507
19252 3252
19252 3508
19253 3253
19253 3509
19254 3254
19254 3510
19255 3255
19255 3511
19256 3256
19256 3512
19257 3257
19257 3513
19258 3258
19258 3514
19259 3259
19259 3515
19260 3260
19260 3516
19261 3261
19261 3517
19262 3262
19262 3518
19263 3263
19263 3519
19264 3264
19264 3520
19265 3265
19265 3521
19266 3266
19266 3522
19267 3267
19267 3523
19268 3268
19268 3524
19269 3269
19269 3525
19270 3270
19270 3526
19271 3271
19271 3527
19272 3272
19272 3528
19273 3273
19273 3529
19274 3274
19274 3530
19275 3275
19275 3531
19276 3276
19276 3532
19277 3277
19277 3533
19278 3278
19278 3534
19279 3279
19279 3535
19280 3280
19280 3536
19281 3281
19281 3537
19282 3282
19282 3538
19283 3283
19283 3539
19284 3284
19284 3540
19285 3285
19285 3541
19286 3286
19286 3542
19287 3287
19287 3543
19288 3288
19288 3544
19289 3289
19289 3545
19290 3290
19290 3546
19291 3291
19291 3547
19292 3292
19292 3548
19293 3293
19293 3549
19294 3294
19294 3550
19295 3295
19295 3551
19296 3296
19296 3552
19297 3297
19297 3553
19298 3298
19298 3554
19299 3299
19299 3555
19300 3300
19300 3556
19301 3301
19301 3557
19302 3302
19302 3558
19303 3303
19303 3559
19304 3304
19304 3560
19305 3305
19305 3561
19306 3306
19306 3562
19307 3307
19307 3563
19308 3308
19308 3564
19309 3309
19309 3565
19310 3310
19310 3566
19311 3311
19311 3567
19312 3312
19312 3568
19313 3313
19313 3569
19314 3314
19314 3570
19315 3315
19315 3571
19316 3316
19316 3572
19317 3317
19317 3573
19318 3318
19318 3574
19319 3319
19319 3575
19320 3320
19320 3576
19321 3321
19321 3577
19322 3322
19322 3578
19323 3323
19323 3579
19324 3324
19324 3580
19325 3325
19325 3581
19326 3326
19326 3582
19327 3327
19327 3583
19328 3200
19328 3584
19329 3201
19329 3585
19330 3202
19330 3586
19331 3203
19331 3587
19332 3204
19332 3588
19333 3205
19333 3589
19334 3206
19334 3590
19335 3207
19335 3591
19336 3208
19336 3592
19337 3209
19337 3593
19338 3210
19338 3594
19339 3211
19339 3595
19340 3212
19340 3596
19341 3213
19341 3597
19342 3214
19342 3598
19343 3215
19343 3599
19344 3216
19344 3600
19345 3217
19345 3601
19346 3218
19346 3602
19347 3219
19347 3603
19348 3220
19348 3604
19349 3221
19349 3605
19350 3222
19350 3606
19351 3223
19351 3607
19352 3224
19352 3608
19353 3225
19353 3609
19354 3226
19354 3610
19355 3227
19355 3611
19356 3228
19356 3612
19357 3229
19357 3613
19358 3230
19358 3614
19359 3231
19359 3615
19360 3232
19360 3616
19361 3233
19361 3617
19362 3234
19362 3618
19363 3235
19363 3619
19364 3236
19364 3620
19365 3237
19365 3621
19366 3238
19366 3622
19367 3239
19367 3623
19368 3240
19368 3624
19369 3241
19369 3625
19370 3242
19370 3626
19371 3243
19371 3627
19372 3244
19372 3628
19373 3245
19373 3629
19374 3246
19374 3630
19375 3247
19375 3631
19376 3248
19376 3632
19377 3249
19377 3633
19378 3250
19378 3634
19379 3251
19379 3635
19380 3252
19380 3636
19381 3253
19381 3637
19382 3254
19382 3638
19383 3255
19383 3639
19384 3256
19384 3640
19385 3257
19385 3641
19386 3258
19386 3642
19387 3259
19387 3643
19388 3260
19388 3644
19389 3261
19389 3645
19390 3262
19390 3646
19391 3263
19391 3647
19392 3264
19392 3648
19393 3265
19393 3649
19394 3266
19394 3650
19395 3267
19395 3651
19396 3268
19396 3652
19397 3269
19397 3653
19398 3270
19398 3654
19399 3271
19399 3655
19400 3272
19400 3656
19401 3273
19401 3657
19402 3274
19402 3658
19403 3275
19403 3659
19404 3276
19404 3660
19405 3277
19405 3661
19406 3278
19406 3662
19407 3279
19407 3663
19408 3280
19408 3664
19409 3281
19409 3665
19410 3282
19410 3666
19411 3283
19411 3667
19412 3284
19412 3668
19413 3285
19413 3669
19414 3286
19414 3670
19415 3287
19415 3671
19416 3288
19416 3672
19417 3289
19417 3673
19418 3290
19418 3674
19419 3291
19419 3675
19420 3292
19420 3676
19421 3293
19421 3677
19422 3294
19422 3678
19423 3295
19423 3679
19424 3296
19424 3680
19425 3297
19425 3681
19426 3298
19426 3682
19427 3299
19427 3683
19428 3300
19428 3684
19429 3301
19429 3685
19430 3302
19430 3686
19431 3303
19431 3687
19432 3304
19432 3688
19433 3305
19433 3689
19434 3306
19434 3690
19435 3307
19435 3691
19436 3308
19436 3692
19437 3309
19437 3693
19438 3310
19438 3694
19439 3311
19439 3695
19440 3312
19440 3696
19441 3313
19441 3697
19442 3314
19442 3698
19443 3315
19443 3699
19444 3316
19444 3700
19445 3317
19445 3701
19446 3318
19446 3702
19447 3319
19447 3703
19448 3320
19448 3704
19449 3321
19449 3705
19450 3322
19450 3706
19451 3323
19451 3707
19452 3324
19452 3708
19453 3325
19453 3709
19454 3326
19454 3710
19455 3327
19455 3711
19456 3328
19456 3584
19457 3329
19457 3585
19458 3330
19458 3586
19459 3331
19459 3587
19460 3332
19460 3588
19461 3333
19461 3589
19462 3334
19462 3590
19463 3335
19463 3591
19464 3336
19464 3592
19465 3337
19465 3593
19466 3338
19466 3594
19467 3339
19467 3595
19468 3340
19468 3596
19469 3341
19469 3597
19470 3342
19470 3598
19471 3343
19471 3599
19472 3344
19472 3600
19473 3345
19473 3601
19474 3346
19474 3602
19475 3347
19475 3603
19476 3348
19476 3604
19477 3349
19477 3605
19478 3350
19478 3606
19479 3351
19479 3607
19480 3352
19480 3608
19481 3353
19481 3609
19482 3354
19482 3610
19483 3355
19483 3611
19484 3356
19484 3612
19485 3357
19485 3613
19486 3358
19486 3614
19487 3359
19487 3615
19488 3360
19488 3616
19489 3361
19489 3617
19490 3362
19490 3618
19491 3363
19491 3619
19492 3364
19492 3620
19493 3365
19493 3621
19494 3366
19494 3622
19495 3367
19495 3623
19496 3368
19496 3624
19497 3369
19497 3625
19498 3370
19498 3626
19499 3371
19499 3627
19500 3372
19500 3628
19501 3373
19501 3629
19502 3374
19502 3630
19503 3375
19503 3631
19504 3376
19504 3632
19505 3377
19505 3633
19506 3378
19506 3634
19507 3379
19507 3635
19508 3380
19508 3636
19509 3381
19509 3637
19510 3382
19510 3638
19511 3383
19511 3639
19512 3384
19512 3640
19513 3385
19513 3641
19514 3386
19514 3642
19515 3387
19515 3643
19516 3388
19516 3644
19517 3389
19517 3645
19518 3390
19518 3646
19519 3391
19519 3647
19520 3392
19520 3648
19521 3393
19521 3649
19522 3394
19522 3650
19523 3395
19523 3651
19524 3396
19524 3652
19525 3397
19525 3653
19526 3398
19526 3654
19527 3399
19527 3655
19528 3400
19528 3656
19529 3401
19529 3657
19530 3402
19530 3658
19531 3403
19531 3659
19532 3404
19532 3660
19533 3405
19533 3661
19534 3406
19534 3662
19535 3407
19535 3663
19536 3408
19536 3664
19537 3409
19537 3665
19538 3410
19538 3666
19539 3411
19539 3667
19540 3412
19540 3668
19541 3413
19541 3669
19542 3414
19542 3670
19543 3415
19543 3671
19544 3416
19544 3672
19545 3417
19545 3673
19546 3418
19546 3674
19547 3419
19547 3675
19548 3420
19548 3676
19549 3421
19549 3677
19550 3422
19550 3678
19551 3423
19551 3679
19552 3424
19552 3680
19553 3425
19553 3681
19554 3426
19554 3682
19555 3427
19555 3683
19556 3428
19556 3684
19557 3429
19557 3685
19558 3430
19558 3686
19559 3431
19559 3687
19560 3432
19560 3688
19561 3433
19561 3689
19562 3434
19562 3690
19563 3435
19563 3691
19564 3436
19564 3692
19565 3437
19565 3693
19566 3438
19566 3694
19567 3439
19567 3695
19568 3440
19568 3696
19569 3441
19569 3697
19570 3442
19570 3698
19571 3443
19571 3699
19572 3444
19572 3700
19573 3445
19573 3701
19574 3446
19574 3702
19575 3447
19575 3703
19576 3448
19576 3704
19577 3449
19577 3705
19578 3450
19578 3706
19579 3451
19579 3707
19580 3452
19580 3708
19581 3453
19581 3709
19582 3454
19582 3710
19583 3455
19583 3711
19584 3328
19584 3712
19585 3329
19585 3713
19586 3330
19586 3714
19587 3331
19587 3715
19588 3332
19588 3716
19589 3333
19589 3717
19590 3334
19590 3718
19591 3335
19591 3719
19592 3336
19592 3720
19593 3337
19593 3721
19594 3338
19594 3722
19595 3339
19595 3723
19596 3340
19596 3724
19597 3341
19597 3725
19598 3342
19598 3726
19599 3343
19599 3727
19600 3344
19600 3728
19601 3345
19601 3729
19602 3346
19602 3730
19603 3347
19603 3731
19604 3348
19604 3732
19605 3349
19605 3733
19606 3350
19606 3734
19607 3351
19607 3735
19608 3352
19608 3736
19609 3353
19609 3737
19610 3354
19610 3738
19611 3355
19611 3739
19612 3356
19612 3740
19613 3357
19613 3741
19614 3358
19614 3742
19615 3359
19615 3743
19616 3360
19616 3744
19617 3361
19617 3745
19618 3362
19618 3746
19619 3363
19619 3747
19620 3364
19620 3748
19621 3365
19621 3749
19622 3366
19622 3750
19623 3367
19623 3751
19624 3368
19624 3752
19625 3369
19625 3753
19626 3370
19626 3754
19627 3371
19627 3755
19628 3372
19628 3756
19629 3373
19629 3757
19630 3374
19630 3758
19631 3375
19631 3759
19632 3376
19632 3760
19633 3377
19633 3761
19634 3378
19634 3762
19635 3379
19635 3763
19636 3380
19636 3764
19637 3381
19637 3765
19638 3382
19638 3766
19639 3383
19639 3767
19640 3384
19640 3768
19641 3385
19641 3769
19642 3386
19642 3770
19643 3387
19643 3771
19644 3388
19644 3772
19645 3389
19645 3773
19646 3390
19646 3774
19647 3391
19647 3775
19648 3392
19648 3776
19649 3393
19649 3777
19650 3394
19650 3778
19651 3395
19651 3779
19652 3396
19652 3780
19653 3397
19653 3781
19654 3398
19654 3782
19655 3399
19655 3783
19656 3400
19656 3784
19657 3401
19657 3785
19658 3402
19658 3786
19659 3403
19659 3787
19660 3404
19660 3788
19661 3405
19661 3789
19662 3406
19662 3790
19663 3407
19663 3791
19664 3408
19664 3792
19665 3409
19665 3793
19666 3410
19666 3794
19667 3411
19667 3795
19668 3412
19668 3796
19669 3413
19669 3797
19670 3414
19670 3798
19671 3415
19671 3799
19672 3416
19672 3800
19673 3417
19673 3801
19674 3418
19674 3802
19675 3419
19675 3803
19676 3420
19676 3804
19677 3421
19677 3805
19678 3422
19678 3806
19679 3423
19679 3807
19680 3424
19680 3808
19681 3425
19681 3809
19682 3426
19682 3810
19683 3427
19683 3811
19684 3428
19684 3812
19685 3429
19685 3813
19686 3430
19686 3814
19687 3431
19687 3815
19688 3432
19688 3816
19689 3433
19689 3817
19690 3434
19690 3818
19691 3435
19691 3819
19692 3436
19692 3820
19693 3437
19693 3821
19694 3438
19694 3822
19695 3439
19695 3823
19696 3440
19696 3824
19697 3441
19697 3825
19698 3442
19698 3826
19699 3443
19699 3827
19700 3444
19700 3828
19701 3445
19701 3829
19702 3446
19702 3830
19703 3447
19703 3831
19704 3448
19704 3832
19705 3449
19705 3833
19706 3450
19706 3834
19707 3451
19707 3835
19708 3452
19708 3836
19709 3453
19709 3837
19710 3454
19710 3838
19711 3455
19711 3839
19712 3456
19712 3712
19713 3457
19713 3713
19714 3458
19714 3714
19715 3459
19715 3715
19716 3460
19716 3716
19717 3461
19717 3717
19718 3462
19718 3718
19719 3463
19719 3719
19720 3464
19720 3720
19721 3465
19721 3721
19722 3466
19722 3722
19723 3467
19723 3723
19724 3468
19724 3724
19725 3469
19725 3725
19726 3470
19726 3726
19727 3471
19727 3727
19728 3472
19728 3728
19729 3473
19729 3729
19730 3474
19730 3730
19731 3475
19731 3731
19732 3476
19732 3732
19733 3477
19733 3733
19734 3478
19734 3734
19735 3479
19735 3735
19736 3480
19736 3736
19737 3481
19737 3737
19738 3482
19738 3738
19739 3483
19739 3739
19740 3484
19740 3740
19741 3485
19741 3741
19742 3486
19742 3742
19743 3487
19743 3743
19744 3488
19744 3744
19745 3489
19745 3745
19746 3490
19746 3746
19747 3491
19747 3747
19748 3492
19748 3748
19749 3493
19749 3749
19750 3494
19750 3750
19751 3495
19751 3751
19752 3496
19752 3752
19753 3497
19753 3753
19754 3498
19754 3754
19755 3499
19755 3755
19756 3500
19756 3756
19757 3501
19757 3757
19758 3502
19758 3758
19759 3503
19759 3759
19760 3504
19760 3760
19761 3505
19761 3761
19762 3506
19762 3762
19763 3507
19763 3763
19764 3508
19764 3764
19765 3509
19765 3765
19766 3510
19766 3766
19767 3511
19767 3767
19768 3512
19768 3768
19769 3513
19769 3769
19770 3514
19770 3770
19771 3515
19771 3771
19772 3516
19772 3772
19773 3517
19773 3773
19774 3518
19774 3774
19775 3519
19775 3775
19776 3520
19776 3776
19777 3521
19777 3777
19778 3522
19778 3778
19779 3523
19779 3779
19780 3524
19780 3780
19781 3525
19781 3781
19782 3526
19782 3782
19783 3527
19783 3783
19784 3528
19784 3784
19785 3529
19785 3785
19786 3530
19786 3786
19787 3531
19787 3787
19788 3532
19788 3788
19789 3533
19789 3789
19790 3534
19790 3790
19791 3535
19791 3791
19792 3536
19792 3792
19793 3537
19793 3793
19794 3538
19794 3794
19795 3539
19795 3795
19796 3540
19796 3796
19797 3541
19797 3797
19798 3542
19798 3798
19799 3543
19799 3799
19800 3544
19800 3800
19801 3545
19801 3801
19802 3546
19802 3802
19803 3547
19803 3803
19804 3548
19804 3804
19805 3549
19805 3805
19806 3550
19806 3806
19807 3551
19807 3807
19808 3552
19808 3808
19809 3553
19809 3809
19810 3554
19810 3810
19811 3555
19811 3811
19812 3556
19812 3812
19813 3557
19813 3813
19814 3558
19814 3814
19815 3559
19815 3815
19816 3560
19816 3816
19817 3561
19817 3817
19818 3562
19818 3818
19819 3563
19819 3819
19820 3564
19820 3820
19821 3565
19821 3821
19822 3566
19822 3822
19823 3567
19823 3823
19824 3568
19824 3824
19825 3569
19825 3825
19826 3570
19826 3826
19827 3571
19827 3827
19828 3572
19828 3828
19829 3573
19829 3829
19830 3574
19830 3830
19831 3575
19831 3831
19832 3576
19832 3832
19833 3577
19833 3833
19834 3578
19834 3834
19835 3579
19835 3835
19836 3580
19836 3836
19837 3581
19837 3837
19838 3582
19838 3838
19839 3583
19839 3839
19840 3840
19840 4096
19841 3841
19841 4097
19842 3842
19842 4098
19843 3843
19843 4099
19844 3844
19844 4100
19845 3845
19845 4101
19846 3846
19846 4102
19847 3847
19847 4103
19848 3848
19848 4104
19849 3849
19849 4105
19850 3850
19850 4106
19851 3851
19851 4107
19852 3852
19852 4108
19853 3853
19853 4109
19854 3854
19854 4110
19855 3855
19855 4111
19856 3856
19856 4112
19857 3857
19857 4113
19858 3858
19858 4114
19859 3859
19859 4115
19860 3860
19860 4116
19861 3861
19861 4117
19862 3862
19862 4118
19863 3863
19863 4119
19864 3864
19864 4120
19865 3865
19865 4121
19866 3866
19866 4122
19867 3867
19867 4123
19868 3868
19868 4124
19869 3869
19869 4125
19870 3870
19870 4126
19871 3871
19871 4127
19872 3872
19872 4128
19873 3873
19873 4129
19874 3874
19874 4130
19875 3875
19875 4131
19876 3876
19876 4132
19877 3877
19877 4133
19878 3878
19878 4134
19879 3879
19879 4135
19880 3880
19880 4136
19881 3881
19881 4137
19882 3882
19882 4138
19883 3883
19883 4139
19884 3884
19884 4140
19885 3885
19885 4141
19886 3886
19886 4142
19887 3887
19887 4143
19888 3888
19888 4144
19889 3889
19889 4145
19890 3890
19890 4146
19891 3891
19891 4147
19892 3892
19892 4148
19893 3893
19893 4149
19894 3894
19894 4150
19895 3895
19895 4151
19896 3896
19896 4152
19897 3897
19897 4153
19898 3898
19898 4154
19899 3899
19899 4155
19900 3900
19900 4156
19901 3901
19901 4157
19902 3902
19902 4158
19903 3903
19903 4159
19904 3904
19904 4160
19905 3905
19905 4161
19906 3906
19906 4162
19907 3907
19907 4163
19908 3908
19908 4164
19909 3909
19909 4165
19910 3910
19910 4166
19911 3911
19911 4167
19912 3912
19912 4168
19913 3913
19913 4169
19914 3914
19914 4170
19915 3915
19915 4171
19916 3916
19916 4172
19917 3917
19917 4173
19918 3918
19918 4174
19919 3919
19919 4175
19920 3920
19920 4176
19921 3921
19921 4177
19922 3922
19922 4178
19923 3923
19923 4179
19924 3924
19924 4180
19925 3925
19925 4181
19926 3926
19926 4182
19927 3927
19927 4183
19928 3928
19928 4184
19929 3929
19929 4185
19930 3930
19930 4186
19931 3931
19931 4187
19932 3932
19932 4188
19933 3933
19933 4189
19934 3934
19934 4190
19935 3935
19935 4191
19936 3936
19936 4192
19937 3937
19937 4193
19938 3938
19938 4194
19939 3939
19939 4195
19940 3940
19940 4196
19941 3941
19941 4197
19942 3942
19942 4198
19943 3943
19943 4199
19944 3944
19944 4200
19945 3945
19945 4201
19946 3946
19946 4202
19947 3947
19947 4203
19948 3948
19948 4204
19949 3949
19949 4205
19950 3950
19950 4206
19951 3951
19951 4207
19952 3952
19952 4208
19953 3953
19953 4209
19954 3954
19954 4210
19955 3955
19955 4211
19956 3956
19956 4212
19957 3957
19957 4213
19958 3958
19958 4214
19959 3959
19959 4215
19960 3960
19960 4216
19961 3961
19961 4217
19962 3962
19962 4218
19963 3963
19963 4219
19964 3964
19964 4220
19965 3965
19965 4221
19966 3966
19966 4222
19967 3967
19967 4223
19968 3840
19968 4224
19969 3841
19969 4225
19970 3842
19970 4226
19971 3843
19971 4227
19972 3844
19972 4228
19973 3845
19973 4229
19974 3846
19974 4230
19975 3847
19975 4231
19976 3848
19976 4232
19977 3849
19977 4233
19978 3850
19978 4234
19979 3851
19979 4235
19980 3852
19980 4236
19981 3853
19981 4237
19982 3854
19982 4238
19983 3855
19983 4239
19984 3856
19984 4240
19985 3857
19985 4241
19986 3858
19986 4242
19987 3859
19987 4243
19988 3860
19988 4244
19989 3861
19989 4245
19990 3862
19990 4246
19991 3863
19991 4247
19992 3864
19992 4248
19993 3865
19993 4249
19994 3866
19994 4250
19995 3867
19995 4251
19996 3868
19996 4252
19997 3869
19997 4253
19998 3870
19998 4254
19999 3871
19999 4255
20000 3872
20000 4256
20001 3873
20001 4257
20002 3874
20002 4258
20003 3875
20003 4259
20004 3876
20004 4260
20005 3877
20005 4261
20006 3878
20006 4262
20007 3879
20007 4263
20008 3880
20008 4264
20009 3881
20009 4265
20010 3882
20010 4266
20011 3883
20011 4267
20012 3884
20012 4268
20013 3885
20013 4269
20014 3886
20014 4270
20015 3887
20015 4271
20016 3888
20016 4272
20017 3889
20017 4273
20018 3890
20018 4274
20019 3891
20019 4275
20020 3892
20020 4276
20021 3893
20021 4277
20022 3894
20022 4278
20023 3895
20023 4279
20024 3896
20024 4280
20025 3897
20025 4281
20026 3898
20026 4282
20027 3899
20027 4283
20028 3900
20028 4284
20029 3901
20029 4285
20030 3902
20030 4286
20031 3903
20031 4287
20032 3904
20032 4288
20033 3905
20033 4289
20034 3906
20034 4290
20035 3907
20035 4291
20036 3908
20036 4292
20037 3909
20037 4293
20038 3910
20038 4294
20039 3911
20039 4295
20040 3912
20040 4296
20041 3913
20041 4297
20042 3914
20042 4298
20043 3915
20043 4299
20044 3916
20044 4300
20045 3917
20045 4301
20046 3918
20046 4302
20047 3919
20047 4303
20048 3920
20048 4304
20049 3921
20049 4305
20050 3922
20050 4306
20051 3923
20051 4307
20052 3924
20052 4308
20053 3925
20053 4309
20054 3926
20054 4310
20055 3927
20055 4311
20056 3928
20056 4312
20057 3929
20057 4313
20058 3930
20058 4314
20059 3931
20059 4315
20060 3932
20060 4316
20061 3933
20061 4317
20062 3934
20062 4318
20063 3935
20063 4319
20064 3936
20064 4320
20065 3937
20065 4321
20066 3938
20066 4322
20067 3939
20067 4323
20068 3940
20068 4324
20069 3941
20069 4325
20070 3942
20070 4326
20071 3943
20071 4327
20072 3944
20072 4328
20073 3945
20073 4329
20074 3946
20074 4330
20075 3947
20075 4331
20076 3948
20076 4332
20077 3949
20077 4333
20078 3950
20078 4334
20079 3951
20079 4335
20080 3952
20080 4336
20081 3953
20081 4337
20082 3954
20082 4338
20083 3955
20083 4339
20084 3956
20084 4340
20085 3957
20085 4341
20086 3958
20086 4342
20087 3959
20087 4343
20088 3960
20088 4344
20089 3961
20089 4345
20090 3962
20090 4346
20091 3963
20091 4347
20092 3964
20092 4348
20093 3965
20093 4349
20094 3966
20094 4350
20095 3967
20095 4351
20096 3968
20096 4224
20097 3969
20097 4225
20098 3970
20098 4226
20099 3971
20099 4227
20100 3972
20100 4228
20101 3973
20101 4229
20102 3974
20102 4230
20103 3975
20103 4231
20104 3976
20104 4232
20105 3977
20105 4233
20106 3978
20106 4234
20107 3979
20107 4235
20108 3980
20108 4236
20109 3981
20109 4237
20110 3982
20110 4238
20111 3983
20111 4239
20112 3984
20112 4240
20113 3985
20113 4241
20114 3986
20114 4242
20115 3987
20115 4243
20116 3988
20116 4244
20117 3989
20117 4245
20118 3990
20118 4246
20119 3991
20119 4247
20120 3992
20120 4248
20121 3993
20121 4249
20122 3994
20122 4250
20123 3995
20123 4251
20124 3996
20124 4252
20125 3997
20125 4253
20126 3998
20126 4254
20127 3999
20127 4255
20128 4000
20128 4256
20129 4001
20129 4257
20130 4002
20130 4258
20131 4003
20131 4259
20132 4004
20132 4260
20133 4005
20133 4261
20134 4006
20134 4262
20135 4007
20135 4263
20136 4008
20136 4264
20137 4009
20137 4265
20138 4010
20138 4266
20139 4011
20139 4267
20140 4012
20140 4268
20141 4013
20141 4269
20142 4014
20142 4270
20143 4015
20143 4271
20144 4016
20144 4272
20145 4017
20145 4273
20146 4018
20146 4274
20147 4019
20147 4275
20148 4020
20148 4276
20149 4021
20149 4277
20150 4022
20150 4278
20151 4023
20151 4279
20152 4024
20152 4280
20153 4025
20153 4281
20154 4026
20154 4282
20155 4027
20155 4283
20156 4028
20156 4284
20157 4029
20157 4285
20158 4030
20158 4286
20159 4031
20159 4287
20160 4032
20160 4288
20161 4033
20161 4289
20162 4034
20162 4290
20163 4035
20163 4291
20164 4036
20164 4292
20165 4037
20165 4293
20166 4038
20166 4294
20167 4039
20167 4295
20168 4040
20168 4296
20169 4041
20169 4297
20170 4042
20170 4298
20171 4043
20171 4299
20172 4044
20172 4300
20173 4045
20173 4301
20174 4046
20174 4302
20175 4047
20175 4303
20176 4048
20176 4304
20177 4049
20177 4305
20178 4050
20178 4306
20179 4051
20179 4307
20180 4052
20180 4308
20181 4053
20181 4309
20182 4054
20182 4310
20183 4055
20183 4311
20184 4056
20184 4312
20185 4057
20185 4313
20186 4058
20186 4314
20187 4059
20187 4315
20188 4060
20188 4316
20189 4061
20189 4317
20190 4062
20190 4318
20191 4063
20191 4319
20192 4064
20192 4320
20193 4065
20193 4321
20194 4066
20194 4322
20195 4067
20195 4323
20196 4068
20196 4324
20197 4069
20197 4325
20198 4070
20198 4326
20199 4071
20199 4327
20200 4072
20200 4328
20201 4073
20201 4329
20202 4074
20202 4330
20203 4075
20203 4331
20204 4076
20204 4332
20205 4077
20205 4333
20206 4078
20206 4334
20207 4079
20207 4335
20208 4080
20208 4336
20209 4081
20209 4337
20210 4082
20210 4338
20211 4083
20211 4339
20212 4084
20212 4340
20213 4085
20213 4341
20214 4086
20214 4342
20215 4087
20215 4343
20216 4088
20216 4344
20217 4089
20217 4345
20218 4090
20218 4346
20219 4091
20219 4347
20220 4092
20220 4348
20221 4093
20221 4349
20222 4094
20222 4350
20223 4095
20223 4351
20224 3968
20224 4352
20225 3969
20225 4353
20226 3970
20226 4354
20227 3971
20227 4355
20228 3972
20228 4356
20229 3973
20229 4357
20230 3974
20230 4358
20231 3975
20231 4359
20232 3976
20232 4360
20233 3977
20233 4361
20234 3978
20234 4362
20235 3979
20235 4363
20236 3980
20236 4364
20237 3981
20237 4365
20238 3982
20238 4366
20239 3983
20239 4367
20240 3984
20240 4368
20241 3985
20241 4369
20242 3986
20242 4370
20243 3987
20243 4371
20244 3988
20244 4372
20245 3989
20245 4373
20246 3990
20246 4374
20247 3991
20247 4375
20248 3992
20248 4376
20249 3993
20249 4377
20250 3994
20250 4378
20251 3995
20251 4379
20252 3996
20252 4380
20253 3997
20253 4381
20254 3998
20254 4382
20255 3999
20255 4383
20256 4000
20256 4384
20257 4001
20257 4385
20258 4002
20258 4386
20259 4003
20259 4387
20260 4004
20260 4388
20261 4005
20261 4389
20262 4006
20262 4390
20263 4007
20263 4391
20264 4008
20264 4392
20265 4009
20265 4393
20266 4010
20266 4394
20267 4011
20267 4395
20268 4012
20268 4396
20269 4013
20269 4397
20270 4014
20270 4398
20271 4015
20271 4399
20272 4016
20272 4400
20273 4017
20273 4401
20274 4018
20274 4402
20275 4019
20275 4403
20276 4020
20276 4404
20277 4021
20277 4405
20278 4022
20278 4406
20279 4023
20279 4407
20280 4024
20280 4408
20281 4025
20281 4409
20282 4026
20282 4410
20283 4027
20283 4411
20284 4028
20284 4412
20285 4029
20285 4413
20286 4030
20286 4414
20287 4031
20287 4415
20288 4032
20288 4416
20289 4033
20289 4417
20290 4034
20290 4418
20291 4035
20291 4419
20292 4036
20292 4420
20293 4037
20293 4421
20294 4038
20294 4422
20295 4039
20295 4423
20296 4040
20296 4424
20297 4041
20297 4425
20298 4042
20298 4426
20299 4043
20299 4427
20300 4044
20300 4428
20301 4045
20301 4429
20302 4046
20302 4430
20303 4047
20303 4431
20304 4048
20304 4432
20305 4049
20305 4433
20306 4050
20306 4434
20307 4051
20307 4435
20308 4052
20308 4436
20309 4053
20309 4437
20310 4054
20310 4438
20311 4055
20311 4439
20312 4056
20312 4440
20313 4057
20313 4441
20314 4058
20314 4442
20315 4059
20315 4443
20316 4060
20316 4444
20317 4061
20317 4445
20318 4062
20318 4446
20319 4063
20319 4447
20320 4064
20320 4448
20321 4065
20321 4449
20322 4066
20322 4450
20323 4067
20323 4451
20324 4068
20324 4452
20325 4069
20325 4453
20326 4070
20326 4454
20327 4071
20327 4455
20328 4072
20328 4456
20329 4073
20329 4457
20330 4074
20330 4458
20331 4075
20331 4459
20332 4076
20332 4460
20333 4077
20333 4461
20334 4078
20334 4462
20335 4079
20335 4463
20336 4080
20336 4464
20337 4081
20337 4465
20338 4082
20338 4466
20339 4083
20339 4467
20340 4084
20340 4468
20341 4085
20341 4469
20342 4086
20342 4470
20343 4087
20343 4471
20344 4088
20344 4472
20345 4089
20345 4473
20346 4090
20346 4474
20347 4091
20347 4475
20348 4092
20348 4476
20349 4093
20349 4477
20350 4094
20350 4478
20351 4095
20351 4479
20352 4096
20352 4352
20353 4097
20353 4353
20354 4098
20354 4354
20355 4099
20355 4355
20356 4100
20356 4356
20357 4101
20357 4357
20358 4102
20358 4358
20359 4103
20359 4359
20360 4104
20360 4360
20361 4105
20361 4361
20362 4106
20362 4362
20363 4107
20363 4363
20364 4108
20364 4364
20365 4109
20365 4365
20366 4110
20366 4366
20367 4111
20367 4367
20368 4112
20368 4368
20369 4113
20369 4369
20370 4114
20370 4370
20371 4115
20371 4371
20372 4116
20372 4372
20373 4117
20373 4373
20374 4118
20374 4374
20375 4119
20375 4375
20376 4120
20376 4376
20377 4121
20377 4377
20378 4122
20378 4378
20379 4123
20379 4379
20380 4124
20380 4380
20381 4125
20381 4381
20382 4126
20382 4382
20383 4127
20383 4383
20384 4128
20384 4384
20385 4129
20385 4385
20386 4130
20386 4386
20387 4131
20387 4387
20388 4132
20388 4388
20389 4133
20389 4389
20390 4134
20390 4390
20391 4135
20391 4391
20392 4136
20392 4392
20393 4137
20393 4393
20394 4138
20394 4394
20395 4139
20395 4395
20396 4140
20396 4396
20397 4141
20397 4397
20398 4142
20398 4398
20399 4143
20399 4399
20400 4144
20400 4400
20401 4145
20401 4401
20402 4146
20402 4402
20403 4147
20403 4403
20404 4148
20404 4404
20405 4149
20405 4405
20406 4150
20406 4406
20407 4151
20407 4407
20408 4152
20408 4408
20409 4153
20409 4409
20410 4154
20410 4410
20411 4155
20411 4411
20412 4156
20412 4412
20413 4157
20413 4413
20414 4158
20414 4414
20415 4159
20415 4415
20416 4160
20416 4416
20417 4161
20417 4417
20418 4162
20418 4418
20419 4163
20419 4419
20420 4164
20420 4420
20421 4165
20421 4421
20422 4166
20422 4422
20423 4167
20423 4423
20424 4168
20424 4424
20425 4169
20425 4425
20426 4170
20426 4426
20427 4171
20427 4427
20428 4172
20428 4428
20429 4173
20429 4429
20430 4174
20430 4430
20431 4175
20431 4431
20432 4176
20432 4432
20433 4177
20433 4433
20434 4178
20434 4434
20435 4179
20435 4435
20436 4180
20436 4436
20437 4181
20437 4437
20438 4182
20438 4438
20439 4183
20439 4439
20440 4184
20440 4440
20441 4185
20441 4441
20442 4186
20442 4442
20443 4187
20443 4443
20444 4188
20444 4444
20445 4189
20445 4445
20446 4190
20446 4446
20447 4191
20447 4447
20448 4192
20448 4448
20449 4193
20449 4449
20450 4194
20450 4450
20451 4195
20451 4451
20452 4196
20452 4452
20453 4197
20453 4453
20454 4198
20454 4454
20455 4199
20455 4455
20456 4200
20456 4456
20457 4201
20457 4457
20458 4202
20458 4458
20459 4203
20459 4459
20460 4204
20460 4460
20461 4205
20461 4461
20462 4206
20462 4462
20463 4207
20463 4463
20464 4208
20464 4464
20465 4209
20465 4465
20466 4210
20466 4466
20467 4211
20467 4467
20468 4212
20468 4468
20469 4213
20469 4469
20470 4214
20470 4470
20471 4215
20471 4471
20472 4216
20472 4472
20473 4217
20473 4473
20474 4218
20474 4474
20475 4219
20475 4475
20476 4220
20476 4476
20477 4221
20477 4477
20478 4222
20478 4478
20479 4223
20479 4479
20480 4480
20480 4736
20481 4481
20481 4737
20482 4482
20482 4738
20483 4483
20483 4739
20484 4484
20484 4740
20485 4485
20485 4741
20486 4486
20486 4742
20487 4487
20487 4743
20488 4488
20488 4744
20489 4489
20489 4745
20490 4490
20490 4746
20491 4491
20491 4747
20492 4492
20492 4748
20493 4493
20493 4749
20494 4494
20494 4750
20495 4495
20495 4751
20496 4496
20496 4752
20497 4497
20497 4753
20498 4498
20498 4754
20499 4499
20499 4755
20500 4500
20500 4756
20501 4501
20501 4757
20502 4502
20502 4758
20503 4503
20503 4759
20504 4504
20504 4760
20505 4505
20505 4761
20506 4506
20506 4762
20507 4507
20507 4763
20508 4508
20508 4764
20509 4509
20509 4765
20510 4510
20510 4766
20511 4511
20511 4767
20512 4512
20512 4768
20513 4513
20513 4769
20514 4514
20514 4770
20515 4515
20515 4771
20516 4516
20516 4772
20517 4517
20517 4773
20518 4518
20518 4774
20519 4519
20519 4775
20520 4520
20520 4776
20521 4521
20521 4777
20522 4522
20522 4778
20523 4523
20523 4779
20524 4524
20524 4780
20525 4525
20525 4781
20526 4526
20526 4782
20527 4527
20527 4783
20528 4528
20528 4784
20529 4529
20529 4785
20530 4530
20530 4786
20531 4531
20531 4787
20532 4532
20532 4788
20533 4533
20533 4789
20534 4534
20534 4790
20535 4535
20535 4791
20536 4536
20536 4792
20537 4537
20537 4793
20538 4538
20538 4794
20539 4539
20539 4795
20540 4540
20540 4796
20541 4541
20541 4797
20542 4542
20542 4798
20543 4543
20543 4799
20544 4544
20544 4800
20545 4545
20545 4801
20546 4546
20546 4802
20547 4547
20547 4803
20548 4548
20548 4804
20549 4549
20549 4805
20550 4550
20550 4806
20551 4551
20551 4807
20552 4552
20552 4808
20553 4553
20553 4809
20554 4554
20554 4810
20555 4555
20555 4811
20556 4556
20556 4812
20557 4557
20557 4813
20558 4558
20558 4814
20559 4559
20559 4815
20560 4560
20560 4816
20561 4561
20561 4817
20562 4562
20562 4818
20563 4563
20563 4819
20564 4564
20564 4820
20565 4565
20565 4821
20566 4566
20566 4822
20567 4567
20567 4823
20568 4568
20568 4824
20569 4569
20569 4825
20570 4570
20570 4826
20571 4571
20571 4827
20572 4572
20572 4828
20573 4573
20573 4829
20574 4574
20574 4830
20575 4575
20575 4831
20576 4576
20576 4832
20577 4577
20577 4833
20578 4578
20578 4834
20579 4579
20579 4835
20580 4580
20580 4836
20581 4581
20581 4837
20582 4582
20582 4838
20583 4583
20583 4839
20584 4584
20584 4840
20585 4585
20585 4841
20586 4586
20586 4842
20587 4587
20587 4843
20588 4588
20588 4844
20589 4589
20589 4845
20590 4590
20590 4846
20591 4591
20591 4847
20592 4592
20592 4848
20593 4593
20593 4849
20594 4594
20594 4850
20595 4595
20595 4851
20596 4596
20596 4852
20597 4597
20597 4853
20598 4598
20598 4854
20599 4599
20599 4855
20600 4600
20600 4856
20601 4601
20601 4857
20602 4602
20602 4858
20603 4603
20603 4859
20604 4604
20604 4860
20605 4605
20605 4861
20606 4606
20606 4862
20607 4607
20607 4863
20608 4480
20608 4864
20609 4481
20609 4865
20610 4482
20610 4866
20611 4483
20611 4867
20612 4484
20612 4868
20613 4485
20613 4869
20614 4486
20614 4870
20615 4487
20615 4871
20616 4488
20616 4872
20617 4489
20617 4873
20618 4490
20618 4874
20619 4491
20619 4875
20620 4492
20620 4876
20621 4493
20621 4877
20622 4494
20622 4878
20623 4495
20623 4879
20624 4496
20624 4880
20625 4497
20625 4881
20626 4498
20626 4882
20627 4499
20627 4883
20628 4500
20628 4884
20629 4501
20629 4885
20630 4502
20630 4886
20631 4503
20631 4887
20632 4504
20632 4888
20633 4505
20633 4889
20634 4506
20634 4890
20635 4507
20635 4891
20636 4508
20636 4892
20637 4509
20637 4893
20638 4510
20638 4894
20639 4511
20639 4895
20640 4512
20640 4896
20641 4513
20641 4897
20642 4514
20642 4898
20643 4515
20643 4899
20644 4516
20644 4900
20645 4517
20645 4901
20646 4518
20646 4902
20647 4519
20647 4903
20648 4520
20648 4904
20649 4521
20649 4905
20650 4522
20650 4906
20651 4523
20651 4907
20652 4524
20652 4908
20653 4525
20653 4909
20654 4526
20654 4910
20655 4527
20655 4911
20656 4528
20656 4912
20657 4529
20657 4913
20658 4530
20658 4914
20659 4531
20659 4915
20660 4532
20660 4916
20661 4533
20661 4917
20662 4534
20662 4918
20663 4535
20663 4919
20664 4536
20664 4920
20665 4537
20665 4921
20666 4538
20666 4922
20667 4539
20667 4923
20668 4540
20668 4924
20669 4541
20669 4925
20670 4542
20670 4926
20671 4543
20671 4927
20672 4544
20672 4928
20673 4545
20673 4929
20674 4546
20674 4930
20675 4547
20675 4931
20676 4548
20676 4932
20677 4549
20677 4933
20678 4550
20678 4934
20679 4551
20679 4935
20680 4552
20680 4936
20681 4553
20681 4937
20682 4554
20682 4938
20683 4555
20683 4939
20684 4556
20684 4940
20685 4557
20685 4941
20686 4558
20686 4942
20687 4559
20687 4943
20688 4560
20688 4944
20689 4561
20689 4945
20690 4562
20690 4946
20691 4563
20691 4947
20692 4564
20692 4948
20693 4565
20693 4949
20694 4566
20694 4950
20695 4567
20695 4951
20696 4568
20696 4952
20697 4569
20697 4953
20698 4570
20698 4954
20699 4571
20699 4955
20700 4572
20700 4956
20701 4573
20701 4957
20702 4574
20702 4958
20703 4575
20703 4959
20704 4576
20704 4960
20705 4577
20705 4961
20706 4578
20706 4962
20707 4579
20707 4963
20708 4580
20708 4964
20709 4581
20709 4965
20710 4582
20710 4966
20711 4583
20711 4967
20712 4584
20712 4968
20713 4585
20713 4969
20714 4586
20714 4970
20715 4587
20715 4971
20716 4588
20716 4972
20717 4589
20717 4973
20718 4590
20718 4974
20719 4591
20719 4975
20720 4592
20720 4976
20721 4593
20721 4977
20722 4594
20722 4978
20723 4595
20723 4979
20724 4596
20724 4980
20725 4597
20725 4981
20726 4598
20726 4982
20727 4599
20727 4983
20728 4600
20728 4984
20729 4601
20729 4985
20730 4602
20730 4986
20731 4603
20731 4987
20732 4604
20732 4988
20733 4605
20733 4989
20734 4606
20734 4990
20735 4607
20735 4991
20736 4608
20736 4864
20737 4609
20737 4865
20738 4610
20738 4866
20739 4611
20739 4867
20740 4612
20740 4868
20741 4613
20741 4869
20742 4614
20742 4870
20743 4615
20743 4871
20744 4616
20744 4872
20745 4617
20745 4873
20746 4618
20746 4874
20747 4619
20747 4875
20748 4620
20748 4876
20749 4621
20749 4877
20750 4622
20750 4878
20751 4623
20751 4879
20752 4624
20752 4880
20753 4625
20753 4881
20754 4626
20754 4882
20755 4627
20755 4883
20756 4628
20756 4884
20757 4629
20757 4885
20758 4630
20758 4886
20759 4631
20759 4887
20760 4632
20760 4888
20761 4633
20761 4889
20762 4634
20762 4890
20763 4635
20763 4891
20764 4636
20764 4892
20765 4637
20765 4893
20766 4638
20766 4894
20767 4639
20767 4895
20768 4640
20768 4896
20769 4641
20769 4897
20770 4642
20770 4898
20771 4643
20771 4899
20772 4644
20772 4900
20773 4645
20773 4901
20774 4646
20774 4902
20775 4647
20775 4903
20776 4648
20776 4904
20777 4649
20777 4905
20778 4650
20778 4906
20779 4651
20779 4907
20780 4652
20780 4908
20781 4653
20781 4909
20782 4654
20782 4910
20783 4655
20783 4911
20784 4656
20784 4912
20785 4657
20785 4913
20786 4658
20786 4914
20787 4659
20787 4915
20788 4660
20788 4916
20789 4661
20789 4917
20790 4662
20790 4918
20791 4663
20791 4919
20792 4664
20792 4920
20793 4665
20793 4921
20794 4666
20794 4922
20795 4667
20795 4923
20796 4668
20796 4924
20797 4669
20797 4925
20798 4670
20798 4926
20799 4671
20799 4927
20800 4672
20800 4928
20801 4673
20801 4929
20802 4674
20802 4930
20803 4675
20803 4931
20804 4676
20804 4932
20805 4677
20805 4933
20806 4678
20806 4934
20807 4679
20807 4935
20808 4680
20808 4936
20809 4681
20809 4937
20810 4682
20810 4938
20811 4683
20811 4939
20812 4684
20812 4940
20813 4685
20813 4941
20814 4686
20814 4942
20815 4687
20815 4943
20816 4688
20816 4944
20817 4689
20817 4945
20818 4690
20818 4946
20819 4691
20819 4947
20820 4692
20820 4948
20821 4693
20821 4949
20822 4694
20822 4950
20823 4695
20823 4951
20824 4696
20824 4952
20825 4697
20825 4953
20826 4698
20826 4954
20827 4699
20827 4955
20828 4700
20828 4956
20829 4701
20829 4957
20830 4702
20830 4958
20831 4703
20831 4959
20832 4704
20832 4960
20833 4705
20833 4961
20834 4706
20834 4962
20835 4707
20835 4963
20836 4708
20836 4964
20837 4709
20837 4965
20838 4710
20838 4966
20839 4711
20839 4967
20840 4712
20840 4968
20841 4713
20841 4969
20842 4714
20842 4970
20843 4715
20843 4971
20844 4716
20844 4972
20845 4717
20845 4973
20846 4718
20846 4974
20847 4719
20847 4975
20848 4720
20848 4976
20849 4721
20849 4977
20850 4722
20850 4978
20851 4723
20851 4979
20852 4724
20852 4980
20853 4725
20853 4981
20854 4726
20854 4982
20855 4727
20855 4983
20856 4728
20856 4984
20857 4729
20857 4985
20858 4730
20858 4986
20859 4731
20859 4987
20860 4732
20860 4988
20861 4733
20861 4989
20862 4734
20862 4990
20863 4735
20863 4991
20864 4608
20864 4992
20865 4609
20865 4993
20866 4610
20866 4994
20867 4611
20867 4995
20868 4612
20868 4996
20869 4613
20869 4997
20870 4614
20870 4998
20871 4615
20871 4999
20872 4616
20872 5000
20873 4617
20873 5001
20874 4618
20874 5002
20875 4619
20875 5003
20876 4620
20876 5004
20877 4621
20877 5005
20878 4622
20878 5006
20879 4623
20879 5007
20880 4624
20880 5008
20881 4625
20881 5009
20882 4626
20882 5010
20883 4627
20883 5011
20884 4628
20884 5012
20885 4629
20885 5013
20886 4630
20886 5014
20887 4631
20887 5015
20888 4632
20888 5016
20889 4633
20889 5017
20890 4634
20890 5018
20891 4635
20891 5019
20892 4636
20892 5020
20893 4637
20893 5021
20894 4638
20894 5022
20895 4639
20895 5023
20896 4640
20896 5024
20897 4641
20897 5025
20898 4642
20898 5026
20899 4643
20899 5027
20900 4644
20900 5028
20901 4645
20901 5029
20902 4646
20902 5030
20903 4647
20903 5031
20904 4648
20904 5032
20905 4649
20905 5033
20906 4650
20906 5034
20907 4651
20907 5035
20908 4652
20908 5036
20909 4653
20909 5037
20910 4654
20910 5038
20911 4655
20911 5039
20912 4656
20912 5040
20913 4657
20913 5041
20914 4658
20914 5042
20915 4659
20915 5043
20916 4660
20916 5044
20917 4661
20917 5045
20918 4662
20918 5046
20919 4663
20919 5047
20920 4664
20920 5048
20921 4665
20921 5049
20922 4666
20922 5050
20923 4667
20923 5051
20924 4668
20924 5052
20925 4669
20925 5053
20926 4670
20926 5054
20927 4671
20927 5055
20928 4672
20928 5056
20929 4673
20929 5057
20930 4674
20930 5058
20931 4675
20931 5059
20932 4676
20932 5060
20933 4677
20933 5061
20934 4678
20934 5062
20935 4679
20935 5063
20936 4680
20936 5064
20937 4681
20937 5065
20938 4682
20938 5066
20939 4683
20939 5067
20940 4684
20940 5068
20941 4685
20941 5069
20942 4686
20942 5070
20943 4687
20943 5071
20944 4688
20944 5072
20945 4689
20945 5073
20946 4690
20946 5074
20947 4691
20947 5075
20948 4692
20948 5076
20949 4693
20949 5077
20950 4694
20950 5078
20951 4695
20951 5079
20952 4696
20952 5080
20953 4697
20953 5081
20954 4698
20954 5082
20955 4699
20955 5083
20956 4700
20956 5084
20957 4701
20957 5085
20958 4702
20958 5086
20959 4703
20959 5087
20960 4704
20960 5088
20961 4705
20961 5089
20962 4706
20962 5090
20963 4707
20963 5091
20964 4708
20964 5092
20965 4709
20965 5093
20966 4710
20966 5094
20967 4711
20967 5095
20968 4712
20968 5096
20969 4713
20969 5097
20970 4714
20970 5098
20971 4715
20971 5099
20972 4716
20972 5100
20973 4717
20973 5101
20974 4718
20974 5102
20975 4719
20975 5103
20976 4720
20976 5104
20977 4721
20977 5105
20978 4722
20978 5106
20979 4723
20979 5107
20980 4724
20980 5108
20981 4725
20981 5109
20982 4726
20982 5110
20983 4727
20983 5111
20984 4728
20984 5112
20985 4729
20985 5113
20986 4730
20986 5114
20987 4731
20987 5115
20988 4732
20988 5116
20989 4733
20989 5117
20990 4734
20990 5118
20991 4735
20991 5119
20992 4736
20992 4992
20993 4737
20993 4993
20994 4738
20994 4994
20995 4739
20995 4995
20996 4740
20996 4996
20997 4741
20997 4997
20998 4742
20998 4998
20999 4743
20999 4999
21000 4744
21000 5000
21001 4745
21001 5001
21002 4746
21002 5002
21003 4747
21003 5003
21004 4748
21004 5004
21005 4749
21005 5005
21006 4750
21006 5006
21007 4751
21007 5007
21008 4752
21008 5008
21009 4753
21009 5009
21010 4754
21010 5010
21011 4755
21011 5011
21012 4756
21012 5012
21013 4757
21013 5013
21014 4758
21014 5014
21015 4759
21015 5015
21016 4760
21016 5016
21017 4761
21017 5017
21018 4762
21018 5018
21019 4763
21019 5019
21020 4764
21020 5020
21021 4765
21021 5021
21022 4766
21022 5022
21023 4767
21023 5023
21024 4768
21024 5024
21025 4769
21025 5025
21026 4770
21026 5026
21027 4771
21027 5027
21028 4772
21028 5028
21029 4773
21029 5029
21030 4774
21030 5030
21031 4775
21031 5031
21032 4776
21032 5032
21033 4777
21033 5033
21034 4778
21034 5034
21035 4779
21035 5035
21036 4780
21036 5036
21037 4781
21037 5037
21038 4782
21038 5038
21039 4783
21039 5039
21040 4784
21040 5040
21041 4785
21041 5041
21042 4786
21042 5042
21043 4787
21043 5043
21044 4788
21044 5044
21045 4789
21045 5045
21046 4790
21046 5046
21047 4791
21047 5047
21048 4792
21048 5048
21049 4793
21049 5049
21050 4794
21050 5050
21051 4795
21051 5051
21052 4796
21052 5052
21053 4797
21053 5053
21054 4798
21054 5054
21055 4799
21055 5055
21056 4800
21056 5056
21057 4801
21057 5057
21058 4802
21058 5058
21059 4803
21059 5059
21060 4804
21060 5060
21061 4805
21061 5061
21062 4806
21062 5062
21063 4807
21063 5063
21064 4808
21064 5064
21065 4809
21065 5065
21066 4810
21066 5066
21067 4811
21067 5067
21068 4812
21068 5068
21069 4813
21069 5069
21070 4814
21070 5070
21071 4815
21071 5071
21072 4816
21072 5072
21073 4817
21073 5073
21074 4818
21074 5074
21075 4819
21075 5075
21076 4820
21076 5076
21077 4821
21077 5077
21078 4822
21078 5078
21079 4823
21079 5079
21080 4824
21080 5080
21081 4825
21081 5081
21082 4826
21082 5082
21083 4827
21083 5083
21084 4828
21084 5084
21085 4829
21085 5085
21086 4830
21086 5086
21087 4831
21087 5087
21088 4832
21088 5088
21089 4833
21089 5089
21090 4834
21090 5090
21091 4835
21091 5091
21092 4836
21092 5092
21093 4837
21093 5093
21094 4838
21094 5094
21095 4839
21095 5095
21096 4840
21096 5096
21097 4841
21097 5097
21098 4842
21098 5098
21099 4843
21099 5099
21100 4844
21100 5100
21101 4845
21101 5101
21102 4846
21102 5102
21103 4847
21103 5103
21104 4848
21104 5104
21105 4849
21105 5105
21106 4850
21106 5106
21107 4851
21107 5107
21108 4852
21108 5108
21109 4853
21109 5109
21110 4854
21110 5110
21111 4855
21111 5111
21112 4856
21112 5112
21113 4857
21113 5113
21114 4858
21114 5114
21115 4859
21115 5115
21116 4860
21116 5116
21117 4861
21117 5117
21118 4862
21118 5118
21119 4863
21119 5119
21120 5120
21120 5376
21121 5121
21121 5377
21122 5122
21122 5378
21123 5123
21123 5379
21124 5124
21124 5380
21125 5125
21125 5381
21126 5126
21126 5382
21127 5127
21127 5383
21128 5128
21128 5384
21129 5129
21129 5385
21130 5130
21130 5386
21131 5131
21131 5387
21132 5132
21132 5388
21133 5133
21133 5389
21134 5134
21134 5390
21135 5135
21135 5391
21136 5136
21136 5392
21137 5137
21137 5393
21138 5138
21138 5394
21139 5139
21139 5395
21140 5140
21140 5396
21141 5141
21141 5397
21142 5142
21142 5398
21143 5143
21143 5399
21144 5144
21144 5400
21145 5145
21145 5401
21146 5146
21146 5402
21147 5147
21147 5403
21148 5148
21148 5404
21149 5149
21149 5405
21150 5150
21150 5406
21151 5151
21151 5407
21152 5152
21152 5408
21153 5153
21153 5409
21154 5154
21154 5410
21155 5155
21155 5411
21156 5156
21156 5412
21157 5157
21157 5413
21158 5158
21158 5414
21159 5159
21159 5415
21160 5160
21160 5416
21161 5161
21161 5417
21162 5162
21162 5418
21163 5163
21163 5419
21164 5164
21164 5420
21165 5165
21165 5421
21166 5166
21166 5422
21167 5167
21167 5423
21168 5168
21168 5424
21169 5169
21169 5425
21170 5170
21170 5426
21171 5171
21171 5427
21172 5172
21172 5428
21173 5173
21173 5429
21174 5174
21174 5430
21175 5175
21175 5431
21176 5176
21176 5432
21177 5177
21177 5433
21178 5178
21178 5434
21179 5179
21179 5435
21180 5180
21180 5436
21181 5181
21181 5437
21182 5182
21182 5438
21183 5183
21183 5439
21184 5184
21184 5440
21185 5185
21185 5441
21186 5186
21186 5442
21187 5187
21187 5443
21188 5188
21188 5444
21189 5189
21189 5445
21190 5190
21190 5446
21191 5191
21191 5447
21192 5192
21192 5448
21193 5193
21193 5449
21194 5194
21194 5450
21195 5195
21195 5451
21196 5196
21196 5452
21197 5197
21197 5453
21198 5198
21198 5454
21199 5199
21199 5455
21200 5200
21200 5456
21201 5201
21201 5457
21202 5202
21202 5458
21203 5203
21203 5459
21204 5204
21204 5460
21205 5205
21205 5461
21206 5206
21206 5462
21207 5207
21207 5463
21208 5208
21208 5464
21209 5209
21209 5465
21210 5210
21210 5466
21211 5211
21211 5467
21212 5212
21212 5468
21213 5213
21213 5469
21214 5214
21214 5470
21215 5215
21215 5471
21216 5216
21216 5472
21217 5217
21217 5473
21218 5218
21218 5474
21219 5219
21219 5475
21220 5220
21220 5476
21221 5221
21221 5477
21222 5222
21222 5478
21223 5223
21223 5479
21224 5224
21224 5480
21225 5225
21225 5481
21226 5226
21226 5482
21227 5227
21227 5483
21228 5228
21228 5484
21229 5229
21229 5485
21230 5230
21230 5486
21231 5231
21231 5487
21232 5232
21232 5488
21233 5233
21233 5489
21234 5234
21234 5490
21235 5235
21235 5491
21236 5236
21236 5492
21237 5237
21237 5493
21238 5238
21238 5494
21239 5239
21239 5495
21240 5240
21240 5496
21241 5241
21241 5497
21242 5242
21242 5498
21243 5243
21243 5499
21244 5244
21244 5500
21245 5245
21245 5501
21246 5246
21246 5502
21247 5247
21247 5503
21248 5120
21248 5504
21249 5121
21249 5505
21250 5122
21250 5506
21251 5123
21251 5507
21252 5124
21252 5508
21253 5125
21253 5509
21254 5126
21254 5510
21255 5127
21255 5511
21256 5128
21256 5512
21257 5129
21257 5513
21258 5130
21258 5514
21259 5131
21259 5515
21260 5132
21260 5516
21261 5133
21261 5517
21262 5134
21262 5518
21263 5135
21263 5519
21264 5136
21264 5520
21265 5137
21265 5521
21266 5138
21266 5522
21267 5139
21267 5523
21268 5140
21268 5524
21269 5141
21269 5525
21270 5142
21270 5526
21271 5143
21271 5527
21272 5144
21272 5528
21273 5145
21273 5529
21274 5146
21274 5530
21275 5147
21275 5531
21276 5148
21276 5532
21277 5149
21277 5533
21278 5150
21278 5534
21279 5151
21279 5535
21280 5152
21280 5536
21281 5153
21281 5537
21282 5154
21282 5538
21283 5155
21283 5539
21284 5156
21284 5540
21285 5157
21285 5541
21286 5158
21286 5542
21287 5159
21287 5543
21288 5160
21288 5544
21289 5161
21289 5545
21290 5162
21290 5546
21291 5163
21291 5547
21292 5164
21292 5548
21293 5165
21293 5549
21294 5166
21294 5550
21295 5167
21295 5551
21296 5168
21296 5552
21297 5169
21297 5553
21298 5170
21298 5554
21299 5171
21299 5555
21300 5172
21300 5556
21301 5173
21301 5557
21302 5174
21302 5558
21303 5175
21303 5559
21304 5176
21304 5560
21305 5177
21305 5561
21306 5178
21306 5562
21307 5179
21307 5563
21308 5180
21308 5564
21309 5181
21309 5565
21310 5182
21310 5566
21311 5183
21311 5567
21312 5184
21312 5568
21313 5185
21313 5569
21314 5186
21314 5570
21315 5187
21315 5571
21316 5188
21316 5572
21317 5189
21317 5573
21318 5190
21318 5574
21319 5191
21319 5575
21320 5192
21320 5576
21321 5193
21321 5577
21322 5194
21322 5578
21323 5195
21323 5579
21324 5196
21324 5580
21325 5197
21325 5581
21326 5198
21326 5582
21327 5199
21327 5583
21328 5200
21328 5584
21329 5201
21329 5585
21330 5202
21330 5586
21331 5203
21331 5587
21332 5204
21332 5588
21333 5205
21333 5589
21334 5206
21334 5590
21335 5207
21335 5591
21336 5208
21336 5592
21337 5209
21337 5593
21338 5210
21338 5594
21339 5211
21339 5595
21340 5212
21340 5596
21341 5213
21341 5597
21342 5214
21342 5598
21343 5215
21343 5599
21344 5216
21344 5600
21345 5217
21345 5601
21346 5218
21346 5602
21347 5219
21347 5603
21348 5220
21348 5604
21349 5221
21349 5605
21350 5222
21350 5606
21351 5223
21351 5607
21352 5224
21352 5608
21353 5225
21353 5609
21354 5226
21354 5610
21355 5227
21355 5611
21356 5228
21356 5612
21357 5229
21357 5613
21358 5230
21358 5614
21359 5231
21359 5615
21360 5232
21360 5616
21361 5233
21361 5617
21362 5234
21362 5618
21363 5235
21363 5619
21364 5236
21364 5620
21365 5237
21365 5621
21366 5238
21366 5622
21367 5239
21367 5623
21368 5240
21368 5624
21369 5241
21369 5625
21370 5242
21370 5626
21371 5243
21371 5627
21372 5244
21372 5628
21373 5245
21373 5629
21374 5246
21374 5630
21375 5247
21375 5631
21376 5248
21376 5504
21377 5249
21377 5505
21378 5250
21378 5506
21379 5251
21379 5507
21380 5252
21380 5508
21381 5253
21381 5509
21382 5254
21382 5510
21383 5255
21383 5511
21384 5256
21384 5512
21385 5257
21385 5513
21386 5258
21386 5514
21387 5259
21387 5515
21388 5260
21388 5516
21389 5261
21389 5517
21390 5262
21390 5518
21391 5263
21391 5519
21392 5264
21392 5520
21393 5265
21393 5521
21394 5266
21394 5522
21395 5267
21395 5523
21396 5268
21396 5524
21397 5269
21397 5525
21398 5270
21398 5526
21399 5271
21399 5527
21400 5272
21400 5528
21401 5273
21401 5529
21402 5274
21402 5530
21403 5275
21403 5531
21404 5276
21404 5532
21405 5277
21405 5533
21406 5278
21406 5534
21407 5279
21407 5535
21408 5280
21408 5536
21409 5281
21409 5537
21410 5282
21410 5538
21411 5283
21411 5539
21412 5284
21412 5540
21413 5285
21413 5541
21414 5286
21414 5542
21415 5287
21415 5543
21416 5288
21416 5544
21417 5289
21417 5545
21418 5290
21418 5546
21419 5291
21419 5547
21420 5292
21420 5548
21421 5293
21421 5549
21422 5294
21422 5550
21423 5295
21423 5551
21424 5296
21424 5552
21425 5297
21425 5553
21426 5298
21426 5554
21427 5299
21427 5555
21428 5300
21428 5556
21429 5301
21429 5557
21430 5302
21430 5558
21431 5303
21431 5559
21432 5304
21432 5560
21433 5305
21433 5561
21434 5306
21434 5562
21435 5307
21435 5563
21436 5308
21436 5564
21437 5309
21437 5565
21438 5310
21438 5566
21439 5311
21439 5567
21440 5312
21440 5568
21441 5313
21441 5569
21442 5314
21442 5570
21443 5315
21443 5571
21444 5316
21444 5572
21445 5317
21445 5573
21446 5318
21446 5574
21447 5319
21447 5575
21448 5320
21448 5576
21449 5321
21449 5577
21450 5322
21450 5578
21451 5323
21451 5579
21452 5324
21452 5580
21453 5325
21453 5581
21454 5326
21454 5582
21455 5327
21455 5583
21456 5328
21456 5584
21457 5329
21457 5585
21458 5330
21458 5586
21459 5331
21459 5587
21460 5332
21460 5588
21461 5333
21461 5589
21462 5334
21462 5590
21463 5335
21463 5591
21464 5336
21464 5592
21465 5337
21465 5593
21466 5338
21466 5594
21467 5339
21467 5595
21468 5340
21468 5596
21469 5341
21469 5597
21470 5342
21470 5598
21471 5343
21471 5599
21472 5344
21472 5600
21473 5345
21473 5601
21474 5346
21474 5602
21475 5347
21475 5603
21476 5348
21476 5604
21477 5349
21477 5605
21478 5350
21478 5606
21479 5351
21479 5607
21480 5352
21480 5608
21481 5353
21481 5609
21482 5354
21482 5610
21483 5355
21483 5611
21484 5356
21484 5612
21485 5357
21485 5613
21486 5358
21486 5614
21487 5359
21487 5615
21488 5360
21488 5616
21489 5361
21489 5617
21490 5362
21490 5618
21491 5363
21491 5619
21492 5364
21492 5620
21493 5365
21493 5621
21494 5366
21494 5622
21495 5367
21495 5623
21496 5368
21496 5624
21497 5369
21497 5625
21498 5370
21498 5626
21499 5371
21499 5627
21500 5372
21500 5628
21501 5373
21501 5629
21502 5374
21502 5630
21503 5375
21503 5631
21504 5248
21504 5632
21505 5249
21505 5633
21506 5250
21506 5634
21507 5251
21507 5635
21508 5252
21508 5636
21509 5253
21509 5637
21510 5254
21510 5638
21511 5255
21511 5639
21512 5256
21512 5640
21513 5257
21513 5641
21514 5258
21514 5642
21515 5259
21515 5643
21516 5260
21516 5644
21517 5261
21517 5645
21518 5262
21518 5646
21519 5263
21519 5647
21520 5264
21520 5648
21521 5265
21521 5649
21522 5266
21522 5650
21523 5267
21523 5651
21524 5268
21524 5652
21525 5269
21525 5653
21526 5270
21526 5654
21527 5271
21527 5655
21528 5272
21528 5656
21529 5273
21529 5657
21530 5274
21530 5658
21531 5275
21531 5659
21532 5276
21532 5660
21533 5277
21533 5661
21534 5278
21534 5662
21535 5279
21535 5663
21536 5280
21536 5664
21537 5281
21537 5665
21538 5282
21538 5666
21539 5283
21539 5667
21540 5284
21540 5668
21541 5285
21541 5669
21542 5286
21542 5670
21543 5287
21543 5671
21544 5288
21544 5672
21545 5289
21545 5673
21546 5290
21546 5674
21547 5291
21547 5675
21548 5292
21548 5676
21549 5293
21549 5677
21550 5294
21550 5678
21551 5295
21551 5679
21552 5296
21552 5680
21553 5297
21553 5681
21554 5298
21554 5682
21555 5299
21555 5683
21556 5300
21556 5684
21557 5301
21557 5685
21558 5302
21558 5686
21559 5303
21559 5687
21560 5304
21560 5688
21561 5305
21561 5689
21562 5306
21562 5690
21563 5307
21563 5691
21564 5308
21564 5692
21565 5309
21565 5693
21566 5310
21566 5694
21567 5311
21567 5695
21568 5312
21568 5696
21569 5313
21569 5697
21570 5314
21570 5698
21571 5315
21571 5699
21572 5316
21572 5700
21573 5317
21573 5701
21574 5318
21574 5702
21575 5319
21575 5703
21576 5320
21576 5704
21577 5321
21577 5705
21578 5322
21578 5706
21579 5323
21579 5707
21580 5324
21580 5708
21581 5325
21581 5709
21582 5326
21582 5710
21583 5327
21583 5711
21584 5328
21584 5712
21585 5329
21585 5713
21586 5330
21586 5714
21587 5331
21587 5715
21588 5332
21588 5716
21589 5333
21589 5717
21590 5334
21590 5718
21591 5335
21591 5719
21592 5336
21592 5720
21593 5337
21593 5721
21594 5338
21594 5722
21595 5339
21595 5723
21596 5340
21596 5724
21597 5341
21597 5725
21598 5342
21598 5726
21599 5343
21599 5727
21600 5344
21600 5728
21601 5345
21601 5729
21602 5346
21602 5730
21603 5347
21603 5731
21604 5348
21604 5732
21605 5349
21605 5733
21606 5350
21606 5734
21607 5351
21607 5735
21608 5352
21608 5736
21609 5353
21609 5737
21610 5354
21610 5738
21611 5355
21611 5739
21612 5356
21612 5740
21613 5357
21613 5741
21614 5358
21614 5742
21615 5359
21615 5743
21616 5360
21616 5744
21617 5361
21617 5745
21618 5362
21618 5746
21619 5363
21619 5747
21620 5364
21620 5748
21621 5365
21621 5749
21622 5366
21622 5750
21623 5367
21623 5751
21624 5368
21624 5752
21625 5369
21625 5753
21626 5370
21626 5754
21627 5371
21627 5755
21628 5372
21628 5756
21629 5373
21629 5757
21630 5374
21630 5758
21631 5375
21631 5759
21632 5376
21632 5632
21633 5377
21633 5633
21634 5378
21634 5634
21635 5379
21635 5635
21636 5380
21636 5636
21637 5381
21637 5637
21638 5382
21638 5638
21639 5383
21639 5639
21640 5384
21640 5640
21641 5385
21641 5641
21642 5386
21642 5642
21643 5387
21643 5643
21644 5388
21644 5644
21645 5389
21645 5645
21646 5390
21646 5646
21647 5391
21647 5647
21648 5392
21648 5648
21649 5393
21649 5649
21650 5394
21650 5650
21651 5395
21651 5651
21652 5396
21652 5652
21653 5397
21653 5653
21654 5398
21654 5654
21655 5399
21655 5655
21656 5400
21656 5656
21657 5401
21657 5657
21658 5402
21658 5658
21659 5403
21659 5659
21660 5404
21660 5660
21661 5405
21661 5661
21662 5406
21662 5662
21663 5407
21663 5663
21664 5408
21664 5664
21665 5409
21665 5665
21666 5410
21666 5666
21667 5411
21667 5667
21668 5412
21668 5668
21669 5413
21669 5669
21670 5414
21670 5670
21671 5415
21671 5671
21672 5416
21672 5672
21673 5417
21673 5673
21674 5418
21674 5674
21675 5419
21675 5675
21676 5420
21676 5676
21677 5421
21677 5677
21678 5422
21678 5678
21679 5423
21679 5679
21680 5424
21680 5680
21681 5425
21681 5681
21682 5426
21682 5682
21683 5427
21683 5683
21684 5428
21684 5684
21685 5429
21685 5685
21686 5430
21686 5686
21687 5431
21687 5687
21688 5432
21688 5688
21689 5433
21689 5689
21690 5434
21690 5690
21691 5435
21691 5691
21692 5436
21692 5692
21693 5437
21693 5693
21694 5438
21694 5694
21695 5439
21695 5695
21696 5440
21696 5696
21697 5441
21697 5697
21698 5442
21698 5698
21699 5443
21699 5699
21700 5444
21700 5700
21701 5445
21701 5701
21702 5446
21702 5702
21703 5447
21703 5703
21704 5448
21704 5704
21705 5449
21705 5705
21706 5450
21706 5706
21707 5451
21707 5707
21708 5452
21708 5708
21709 5453
21709 5709
21710 5454
21710 5710
21711 5455
21711 5711
21712 5456
21712 5712
21713 5457
21713 5713
21714 5458
21714 5714
21715 5459
21715 5715
21716 5460
21716 5716
21717 5461
21717 5717
21718 5462
21718 5718
21719 5463
21719 5719
21720 5464
21720 5720
21721 5465
21721 5721
21722 5466
21722 5722
21723 5467
21723 5723
21724 5468
21724 5724
21725 5469
21725 5725
21726 5470
21726 5726
21727 5471
21727 5727
21728 5472
21728 5728
21729 5473
21729 5729
21730 5474
21730 5730
21731 5475
21731 5731
21732 5476
21732 5732
21733 5477
21733 5733
21734 5478
21734 5734
21735 5479
21735 5735
21736 5480
21736 5736
21737 5481
21737 5737
21738 5482
21738 5738
21739 5483
21739 5739
21740 5484
21740 5740
21741 5485
21741 5741
21742 5486
21742 5742
21743 5487
21743 5743
21744 5488
21744 5744
21745 5489
21745 5745
21746 5490
21746 5746
21747 5491
21747 5747
21748 5492
21748 5748
21749 5493
21749 5749
21750 5494
21750 5750
21751 5495
21751 5751
21752 5496
21752 5752
21753 5497
21753 5753
21754 5498
21754 5754
21755 5499
21755 5755
21756 5500
21756 5756
21757 5501
21757 5757
21758 5502
21758 5758
21759 5503
21759 5759
21760 5760
21760 6016
21761 5761
21761 6017
21762 5762
21762 6018
21763 5763
21763 6019
21764 5764
21764 6020
21765 5765
21765 6021
21766 5766
21766 6022
21767 5767
21767 6023
21768 5768
21768 6024
21769 5769
21769 6025
21770 5770
21770 6026
21771 5771
21771 6027
21772 5772
21772 6028
21773 5773
21773 6029
21774 5774
21774 6030
21775 5775
21775 6031
21776 5776
21776 6032
21777 5777
21777 6033
21778 5778
21778 6034
21779 5779
21779 6035
21780 5780
21780 6036
21781 5781
21781 6037
21782 5782
21782 6038
21783 5783
21783 6039
21784 5784
21784 6040
21785 5785
21785 6041
21786 5786
21786 6042
21787 5787
21787 6043
21788 5788
21788 6044
21789 5789
21789 6045
21790 5790
21790 6046
21791 5791
21791 6047
21792 5792
21792 6048
21793 5793
21793 6049
21794 5794
21794 6050
21795 5795
21795 6051
21796 5796
21796 6052
21797 5797
21797 6053
21798 5798
21798 6054
21799 5799
21799 6055
21800 5800
21800 6056
21801 5801
21801 6057
21802 5802
21802 6058
21803 5803
21803 6059
21804 5804
21804 6060
21805 5805
21805 6061
21806 5806
21806 6062
21807 5807
21807 6063
21808 5808
21808 6064
21809 5809
21809 6065
21810 5810
21810 6066
21811 5811
21811 6067
21812 5812
21812 6068
21813 5813
21813 6069
21814 5814
21814 6070
21815 5815
21815 6071
21816 5816
21816 6072
21817 5817
21817 6073
21818 5818
21818 6074
21819 5819
21819 6075
21820 5820
21820 6076
21821 5821
21821 6077
21822 5822
21822 6078
21823 5823
21823 6079
21824 5824
21824 6080
21825 5825
21825 6081
21826 5826
21826 6082
21827 5827
21827 6083
21828 5828
21828 6084
21829 5829
21829 6085
21830 5830
21830 6086
21831 5831
21831 6087
21832 5832
21832 6088
21833 5833
21833 6089
21834 5834
21834 6090
21835 5835
21835 6091
21836 5836
21836 6092
21837 5837
21837 6093
21838 5838
21838 6094
21839 5839
21839 6095
21840 5840
21840 6096
21841 5841
21841 6097
21842 5842
21842 6098
21843 5843
21843 6099
21844 5844
21844 6100
21845 5845
21845 6101
21846 5846
21846 6102
21847 5847
21847 6103
21848 5848
21848 6104
21849 5849
21849 6105
21850 5850
21850 6106
21851 5851
21851 6107
21852 5852
21852 6108
21853 5853
21853 6109
21854 5854
21854 6110
21855 5855
21855 6111
21856 5856
21856 6112
21857 5857
21857 6113
21858 5858
21858 6114
21859 5859
21859 6115
21860 5860
21860 6116
21861 5861
21861 6117
21862 5862
21862 6118
21863 5863
21863 6119
21864 5864
21864 6120
21865 5865
21865 6121
21866 5866
21866 6122
21867 5867
21867 6123
21868 5868
21868 6124
21869 5869
21869 6125
21870 5870
21870 6126
21871 5871
21871 6127
21872 5872
21872 6128
21873 5873
21873 6129
21874 5874
21874 6130
21875 5875
21875 6131
21876 5876
21876 6132
21877 5877
21877 6133
21878 5878
21878 6134
21879 5879
21879 6135
21880 5880
21880 6136
21881 5881
21881 6137
21882 5882
21882 6138
21883 5883
21883 6139
21884 5884
21884 6140
21885 5885
21885 6141
21886 5886
21886 6142
21887 5887
21887 6143
21888 5760
21888 6144
21889 5761
21889 6145
21890 5762
21890 6146
21891 5763
21891 6147
21892 5764
21892 6148
21893 5765
21893 6149
21894 5766
21894 6150
21895 5767
21895 6151
21896 5768
21896 6152
21897 5769
21897 6153
21898 5770
21898 6154
21899 5771
21899 6155
21900 5772
21900 6156
21901 5773
21901 6157
21902 5774
21902 6158
21903 5775
21903 6159
21904 5776
21904 6160
21905 5777
21905 6161
21906 5778
21906 6162
21907 5779
21907 6163
21908 5780
21908 6164
21909 5781
21909 6165
21910 5782
21910 6166
21911 5783
21911 6167
21912 5784
21912 6168
21913 5785
21913 6169
21914 5786
21914 6170
21915 5787
21915 6171
21916 5788
21916 6172
21917 5789
21917 6173
21918 5790
21918 6174
21919 5791
21919 6175
21920 5792
21920 6176
21921 5793
21921 6177
21922 5794
21922 6178
21923 5795
21923 6179
21924 5796
21924 6180
21925 5797
21925 6181
21926 5798
21926 6182
21927 5799
21927 6183
21928 5800
21928 6184
21929 5801
21929 6185
21930 5802
21930 6186
21931 5803
21931 6187
21932 5804
21932 6188
21933 5805
21933 6189
21934 5806
21934 6190
21935 5807
21935 6191
21936 5808
21936 6192
21937 5809
21937 6193
21938 5810
21938 6194
21939 5811
21939 6195
21940 5812
21940 6196
21941 5813
21941 6197
21942 5814
21942 6198
21943 5815
21943 6199
21944 5816
21944 6200
21945 5817
21945 6201
21946 5818
21946 6202
21947 5819
21947 6203
21948 5820
21948 6204
21949 5821
21949 6205
21950 5822
21950 6206
21951 5823
21951 6207
21952 5824
21952 6208
21953 5825
21953 6209
21954 5826
21954 6210
21955 5827
21955 6211
21956 5828
21956 6212
21957 5829
21957 6213
21958 5830
21958 6214
21959 5831
21959 6215
21960 5832
21960 6216
21961 5833
21961 6217
21962 5834
21962 6218
21963 5835
21963 6219
21964 5836
21964 6220
21965 5837
21965 6221
21966 5838
21966 6222
21967 5839
21967 6223
21968 5840
21968 6224
21969 5841
21969 6225
21970 5842
21970 6226
21971 5843
21971 6227
21972 5844
21972 6228
21973 5845
21973 6229
21974 5846
21974 6230
21975 5847
21975 6231
21976 5848
21976 6232
21977 5849
21977 6233
21978 5850
21978 6234
21979 5851
21979 6235
21980 5852
21980 6236
21981 5853
21981 6237
21982 5854
21982 6238
21983 5855
21983 6239
21984 5856
21984 6240
21985 5857
21985 6241
21986 5858
21986 6242
21987 5859
21987 6243
21988 5860
21988 6244
21989 5861
21989 6245
21990 5862
21990 6246
21991 5863
21991 6247
21992 5864
21992 6248
21993 5865
21993 6249
21994 5866
21994 6250
21995 5867
21995 6251
21996 5868
21996 6252
21997 5869
21997 6253
21998 5870
21998 6254
21999 5871
21999 6255
22000 5872
22000 6256
22001 5873
22001 6257
22002 5874
22002 6258
22003 5875
22003 6259
22004 5876
22004 6260
22005 5877
22005 6261
22006 5878
22006 6262
22007 5879
22007 6263
22008 5880
22008 6264
22009 5881
22009 6265
22010 5882
22010 6266
22011 5883
22011 6267
22012 5884
22012 6268
22013 5885
22013 6269
22014 5886
22014 6270
22015 5887
22015 6271
22016 5888
22016 6144
22017 5889
22017 6145
22018 5890
22018 6146
22019 5891
22019 6147
22020 5892
22020 6148
22021 5893
22021 6149
22022 5894
22022 6150
22023 5895
22023 6151
22024 5896
22024 6152
22025 5897
22025 6153
22026 5898
22026 6154
22027 5899
22027 6155
22028 5900
22028 6156
22029 5901
22029 6157
22030 5902
22030 6158
22031 5903
22031 6159
22032 5904
22032 6160
22033 5905
22033 6161
22034 5906
22034 6162
22035 5907
22035 6163
22036 5908
22036 6164
22037 5909
22037 6165
22038 5910
22038 6166
22039 5911
22039 6167
22040 5912
22040 6168
22041 5913
22041 6169
22042 5914
22042 6170
22043 5915
22043 6171
22044 5916
22044 6172
22045 5917
22045 6173
22046 5918
22046 6174
22047 5919
22047 6175
22048 5920
22048 6176
22049 5921
22049 6177
22050 5922
22050 6178
22051 5923
22051 6179
22052 5924
22052 6180
22053 5925
22053 6181
22054 5926
22054 6182
22055 5927
22055 6183
22056 5928
22056 6184
22057 5929
22057 6185
22058 5930
22058 6186
22059 5931
22059 6187
22060 5932
22060 6188
22061 5933
22061 6189
22062 5934
22062 6190
22063 5935
22063 6191
22064 5936
22064 6192
22065 5937
22065 6193
22066 5938
22066 6194
22067 5939
22067 6195
22068 5940
22068 6196
22069 5941
22069 6197
22070 5942
22070 6198
22071 5943
22071 6199
22072 5944
22072 6200
22073 5945
22073 6201
22074 5946
22074 6202
22075 5947
22075 6203
22076 5948
22076 6204
22077 5949
22077 6205
22078 5950
22078 6206
22079 5951
22079 6207
22080 5952
22080 6208
22081 5953
22081 6209
22082 5954
22082 6210
22083 5955
22083 6211
22084 5956
22084 6212
22085 5957
22085 6213
22086 5958
22086 6214
22087 5959
22087 6215
22088 5960
22088 6216
22089 5961
22089 6217
22090 5962
22090 6218
22091 5963
22091 6219
22092 5964
22092 6220
22093 5965
22093 6221
22094 5966
22094 6222
22095 5967
22095 6223
22096 5968
22096 6224
22097 5969
22097 6225
22098 5970
22098 6226
22099 5971
22099 6227
22100 5972
22100 6228
22101 5973
22101 6229
22102 5974
22102 6230
22103 5975
22103 6231
22104 5976
22104 6232
22105 5977
22105 6233
22106 5978
22106 6234
22107 5979
22107 6235
22108 5980
22108 6236
22109 5981
22109 6237
22110 5982
22110 6238
22111 5983
22111 6239
22112 5984
22112 6240
22113 5985
22113 6241
22114 5986
22114 6242
22115 5987
22115 6243
22116 5988
22116 6244
22117 5989
22117 6245
22118 5990
22118 6246
22119 5991
22119 6247
22120 5992
22120 6248
22121 5993
22121 6249
22122 5994
22122 6250
22123 5995
22123 6251
22124 5996
22124 6252
22125 5997
22125 6253
22126 5998
22126 6254
22127 5999
22127 6255
22128 6000
22128 6256
22129 6001
22129 6257
22130 6002
22130 6258
22131 6003
22131 6259
22132 6004
22132 6260
22133 6005
22133 6261
22134 6006
22134 6262
22135 6007
22135 6263
22136 6008
22136 6264
22137 6009
22137 6265
22138 6010
22138 6266
22139 6011
22139 6267
22140 6012
22140 6268
22141 6013
22141 6269
22142 6014
22142 6270
22143 6015
22143 6271
22144 5888
22144 6272
22145 5889
22145 6273
22146 5890
22146 6274
22147 5891
22147 6275
22148 5892
22148 6276
22149 5893
22149 6277
22150 5894
22150 6278
22151 5895
22151 6279
22152 5896
22152 6280
22153 5897
22153 6281
22154 5898
22154 6282
22155 5899
22155 6283
22156 5900
22156 6284
22157 5901
22157 6285
22158 5902
22158 6286
22159 5903
22159 6287
22160 5904
22160 6288
22161 5905
22161 6289
22162 5906
22162 6290
22163 5907
22163 6291
22164 5908
22164 6292
22165 5909
22165 6293
22166 5910
22166 6294
22167 5911
22167 6295
22168 5912
22168 6296
22169 5913
22169 6297
22170 5914
22170 6298
22171 5915
22171 6299
22172 5916
22172 6300
22173 5917
22173 6301
22174 5918
22174 6302
22175 5919
22175 6303
22176 5920
22176 6304
22177 5921
22177 6305
22178 5922
22178 6306
22179 5923
22179 6307
22180 5924
22180 6308
22181 5925
22181 6309
22182 5926
22182 6310
22183 5927
22183 6311
22184 5928
22184 6312
22185 5929
22185 6313
22186 5930
22186 6314
22187 5931
22187 6315
22188 5932
22188 6316
22189 5933
22189 6317
22190 5934
22190 6318
22191 5935
22191 6319
22192 5936
22192 6320
22193 5937
22193 6321
22194 5938
22194 6322
22195 5939
22195 6323
22196 5940
22196 6324
22197 5941
22197 6325
22198 5942
22198 6326
22199 5943
22199 6327
22200 5944
22200 6328
22201 5945
22201 6329
22202 5946
22202 6330
22203 5947
22203 6331
22204 5948
22204 6332
22205 5949
22205 6333
22206 5950
22206 6334
22207 5951
22207 6335
22208 5952
22208 6336
22209 5953
22209 6337
22210 5954
22210 6338
22211 5955
22211 6339
22212 5956
22212 6340
22213 5957
22213 6341
22214 5958
22214 6342
22215 5959
22215 6343
22216 5960
22216 6344
22217 5961
22217 6345
22218 5962
22218 6346
22219 5963
22219 6347
22220 5964
22220 6348
22221 5965
22221 6349
22222 5966
22222 6350
22223 5967
22223 6351
22224 5968
22224 6352
22225 5969
22225 6353
22226 5970
22226 6354
22227 5971
22227 6355
22228 5972
22228 6356
22229 5973
22229 6357
22230 5974
22230 6358
22231 5975
22231 6359
22232 5976
22232 6360
22233 5977
22233 6361
22234 5978
22234 6362
22235 5979
22235 6363
22236 5980
22236 6364
22237 5981
22237 6365
22238 5982
22238 6366
22239 5983
22239 6367
22240 5984
22240 6368
22241 5985
22241 6369
22242 5986
22242 6370
22243 5987
22243 6371
22244 5988
22244 6372
22245 5989
22245 6373
22246 5990
22246 6374
22247 5991
22247 6375
22248 5992
22248 6376
22249 5993
22249 6377
22250 5994
22250 6378
22251 5995
22251 6379
22252 5996
22252 6380
22253 5997
22253 6381
22254 5998
22254 6382
22255 5999
22255 6383
22256 6000
22256 6384
22257 6001
22257 6385
22258 6002
22258 6386
22259 6003
22259 6387
22260 6004
22260 6388
22261 6005
22261 6389
22262 6006
22262 6390
22263 6007
22263 6391
22264 6008
22264 6392
22265 6009
22265 6393
22266 6010
22266 6394
22267 6011
22267 6395
22268 6012
22268 6396
22269 6013
22269 6397
22270 6014
22270 6398
22271 6015
22271 6399
22272 6016
22272 6272
22273 6017
22273 6273
22274 6018
22274 6274
22275 6019
22275 6275
22276 6020
22276 6276
22277 6021
22277 6277
22278 6022
22278 6278
22279 6023
22279 6279
22280 6024
22280 6280
22281 6025
22281 6281
22282 6026
22282 6282
22283 6027
22283 6283
22284 6028
22284 6284
22285 6029
22285 6285
22286 6030
22286 6286
22287 6031
22287 6287
22288 6032
22288 6288
22289 6033
22289 6289
22290 6034
22290 6290
22291 6035
22291 6291
22292 6036
22292 6292
22293 6037
22293 6293
22294 6038
22294 6294
22295 6039
22295 6295
22296 6040
22296 6296
22297 6041
22297 6297
22298 6042
22298 6298
22299 6043
22299 6299
22300 6044
22300 6300
22301 6045
22301 6301
22302 6046
22302 6302
22303 6047
22303 6303
22304 6048
22304 6304
22305 6049
22305 6305
22306 6050
22306 6306
22307 6051
22307 6307
22308 6052
22308 6308
22309 6053
22309 6309
22310 6054
22310 6310
22311 6055
22311 6311
22312 6056
22312 6312
22313 6057
22313 6313
22314 6058
22314 6314
22315 6059
22315 6315
22316 6060
22316 6316
22317 6061
22317 6317
22318 6062
22318 6318
22319 6063
22319 6319
22320 6064
22320 6320
22321 6065
22321 6321
22322 6066
22322 6322
22323 6067
22323 6323
22324 6068
22324 6324
22325 6069
22325 6325
22326 6070
22326 6326
22327 6071
22327 6327
22328 6072
22328 6328
22329 6073
22329 6329
22330 6074
22330 6330
22331 6075
22331 6331
22332 6076
22332 6332
22333 6077
22333 6333
22334 6078
22334 6334
22335 6079
22335 6335
22336 6080
22336 6336
22337 6081
22337 6337
22338 6082
22338 6338
22339 6083
22339 6339
22340 6084
22340 6340
22341 6085
22341 6341
22342 6086
22342 6342
22343 6087
22343 6343
22344 6088
22344 6344
22345 6089
22345 6345
22346 6090
22346 6346
22347 6091
22347 6347
22348 6092
22348 6348
22349 6093
22349 6349
22350 6094
22350 6350
22351 6095
22351 6351
22352 6096
22352 6352
22353 6097
22353 6353
22354 6098
22354 6354
22355 6099
22355 6355
22356 6100
22356 6356
22357 6101
22357 6357
22358 6102
22358 6358
22359 6103
22359 6359
22360 6104
22360 6360
22361 6105
22361 6361
22362 6106
22362 6362
22363 6107
22363 6363
22364 6108
22364 6364
22365 6109
22365 6365
22366 6110
22366 6366
22367 6111
22367 6367
22368 6112
22368 6368
22369 6113
22369 6369
22370 6114
22370 6370
22371 6115
22371 6371
22372 6116
22372 6372
22373 6117
22373 6373
22374 6118
22374 6374
22375 6119
22375 6375
22376 6120
22376 6376
22377 6121
22377 6377
22378 6122
22378 6378
22379 6123
22379 6379
22380 6124
22380 6380
22381 6125
22381 6381
22382 6126
22382 6382
22383 6127
22383 6383
22384 6128
22384 6384
22385 6129
22385 6385
22386 6130
22386 6386
22387 6131
22387 6387
22388 6132
22388 6388
22389 6133
22389 6389
22390 6134
22390 6390
22391 6135
22391 6391
22392 6136
22392 6392
22393 6137
22393 6393
22394 6138
22394 6394
22395 6139
22395 6395
22396 6140
22396 6396
22397 6141
22397 6397
22398 6142
22398 6398
22399 6143
22399 6399
