1200 600 3600
0 427
0 444
0 500
1 76
1 160
1 514
2 291
2 440
2 447
3 81
3 292
3 520
4 241
4 246
4 556
5 138
5 219
5 474
6 82
6 350
6 580
7 461
7 523
7 583
8 128
8 287
8 507
9 29
9 106
9 227
10 276
10 567
10 593
11 377
11 382
11 478
12 186
12 285
12 369
13 24
13 113
13 172
14 230
14 344
14 560
15 239
15 258
15 553
16 222
16 425
16 535
17 27
17 376
17 519
18 123
18 316
18 463
19 56
19 263
19 499
20 165
20 420
20 423
21 66
21 329
21 401
22 19
22 198
22 207
23 129
23 151
23 569
24 63
24 250
24 309
25 42
25 132
25 458
26 126
26 154
26 327
27 15
27 356
27 389
28 169
28 367
28 412
29 191
29 220
29 555
30 118
30 212
30 315
31 110
31 146
31 373
32 3
32 293
32 527
33 43
33 55
33 182
34 183
34 214
34 501
35 153
35 175
35 296
36 54
36 322
36 355
37 197
37 248
37 256
38 235
38 366
38 402
39 157
39 286
39 516
40 243
40 385
40 418
41 44
41 260
41 274
42 148
42 348
42 393
43 302
43 408
43 416
44 8
44 143
44 485
45 58
45 84
45 559
46 112
46 515
46 598
47 187
47 268
47 450
48 147
48 310
48 441
49 114
49 196
49 536
50 100
50 223
50 240
51 231
51 257
51 280
52 179
52 337
52 353
53 34
53 288
53 572
54 379
54 406
54 563
55 178
55 317
55 568
56 94
56 371
56 542
57 304
57 323
57 391
58 173
58 443
58 479
59 174
59 251
59 551
60 362
60 414
60 547
61 35
61 259
61 446
62 17
62 303
62 422
63 37
63 74
63 426
64 224
64 264
64 372
65 32
65 38
65 261
66 216
66 352
66 448
67 359
67 400
67 595
68 70
68 73
68 486
69 62
69 215
69 599
70 53
70 167
70 421
71 124
71 342
71 538
72 14
72 78
72 511
73 21
73 326
73 410
74 164
74 298
74 576
75 69
75 394
75 589
76 1
76 48
76 554
77 122
77 314
77 395
78 158
78 472
78 558
79 116
79 374
79 584
80 188
80 437
80 524
81 442
81 465
81 562
82 4
82 245
82 375
83 5
83 171
83 213
84 88
84 97
84 119
85 306
85 494
85 505
86 156
86 233
86 275
87 50
87 247
87 305
88 170
88 331
88 462
89 71
89 386
89 533
90 208
90 455
90 487
91 217
91 284
91 469
92 346
92 363
92 534
93 409
93 492
93 585
94 80
94 195
94 244
95 109
95 299
95 549
96 321
96 504
96 529
97 72
97 325
97 396
98 155
98 546
98 597
99 229
99 435
99 577
100 255
100 417
100 451
101 194
101 206
101 452
102 26
102 64
102 586
103 46
103 163
103 254
104 52
104 127
104 480
105 234
105 404
105 473
106 9
106 140
106 200
107 407
107 449
107 550
108 83
108 506
108 588
109 271
109 392
109 497
110 60
110 434
110 508
111 252
111 430
111 467
112 101
112 209
112 225
113 16
113 31
113 181
114 7
114 281
114 545
115 99
115 192
115 313
116 253
116 320
116 360
117 162
117 301
117 512
118 135
118 433
118 564
119 49
119 405
119 530
120 159
120 574
120 581
121 36
121 218
121 358
122 91
122 307
122 571
123 130
123 370
123 454
124 262
124 341
124 345
125 203
125 242
125 330
126 364
126 548
126 578
127 311
127 343
127 460
128 11
128 481
128 522
129 107
129 150
129 397
130 121
130 432
130 561
131 6
131 204
131 518
132 384
132 415
132 570
133 381
133 531
133 565
134 120
134 354
134 495
135 33
135 493
135 557
136 279
136 470
136 476
137 23
137 411
137 436
138 267
138 282
138 283
139 108
139 368
139 464
140 349
140 399
140 459
141 47
141 380
141 540
142 57
142 270
142 573
143 77
143 269
143 335
144 388
144 541
144 579
145 79
145 273
145 347
146 22
146 266
146 498
147 59
147 184
147 419
148 39
148 67
148 582
149 185
149 334
149 361
150 265
150 484
150 590
151 117
151 526
151 544
152 98
152 137
152 318
153 133
153 424
153 431
154 238
154 324
154 365
155 93
155 139
155 339
156 10
156 92
156 351
157 289
157 477
157 543
158 28
158 205
158 228
159 41
159 145
159 180
160 189
160 413
160 513
161 75
161 111
161 439
162 12
162 131
162 166
163 40
163 295
163 482
164 190
164 300
164 333
165 45
165 488
165 496
166 18
166 125
166 211
167 457
167 468
167 510
168 87
168 236
168 475
169 134
169 142
169 456
170 89
170 149
170 466
171 199
171 403
171 429
172 102
172 277
172 591
173 141
173 297
173 489
174 144
174 226
174 312
175 193
175 490
175 491
176 438
176 532
176 587
177 0
177 525
177 575
178 95
178 104
178 502
179 85
179 210
179 378
180 2
180 319
180 539
181 115
181 237
181 308
182 90
182 152
182 221
183 201
183 336
183 383
184 161
184 517
184 521
185 290
185 328
185 596
186 86
186 105
186 340
187 332
187 338
187 453
188 30
188 272
188 566
189 25
189 65
189 68
190 136
190 294
190 390
191 103
191 357
191 552
192 13
192 51
192 61
193 176
193 202
193 428
194 278
194 387
194 528
195 96
195 445
195 537
196 20
196 177
196 232
197 249
197 471
197 594
198 168
198 503
198 592
199 398
199 483
199 509
200 293
200 522
200 552
201 102
201 181
201 354
202 224
202 243
202 267
203 120
203 246
203 455
204 99
204 490
204 583
205 213
205 319
205 589
206 137
206 138
206 547
207 149
207 304
207 339
208 200
208 282
208 461
209 154
209 315
209 486
210 35
210 44
210 262
211 332
211 386
211 436
212 259
212 440
212 511
213 182
213 482
213 595
214 151
214 467
214 491
215 150
215 232
215 428
216 194
216 277
216 360
217 95
217 254
217 415
218 2
218 401
218 570
219 22
219 160
219 285
220 16
220 168
220 582
221 166
221 209
221 579
222 425
222 426
222 445
223 280
223 336
223 407
224 83
224 155
224 228
225 180
225 546
225 557
226 43
226 249
226 510
227 248
227 548
227 559
228 226
228 427
228 463
229 220
229 346
229 469
230 274
230 405
230 413
231 157
231 225
231 337
232 294
232 471
232 527
233 432
233 470
233 577
234 416
234 586
234 591
235 295
235 327
235 566
236 101
236 266
236 391
237 338
237 465
237 506
238 179
238 195
238 433
239 100
239 134
239 400
240 6
240 78
240 553
241 18
241 233
241 573
242 71
242 519
242 528
243 198
243 380
243 569
244 383
244 388
244 572
245 239
245 276
245 281
246 303
246 483
246 592
247 449
247 530
247 554
248 234
248 381
248 477
249 26
249 375
249 499
250 159
250 175
250 343
251 47
251 79
251 335
252 40
252 59
252 448
253 20
253 172
253 460
254 39
254 238
254 537
255 441
255 508
255 565
256 106
256 550
256 590
257 352
257 364
257 488
258 46
258 247
258 300
259 269
259 278
259 289
260 170
260 221
260 326
261 63
261 313
261 314
262 123
262 131
262 264
263 152
263 437
263 541
264 189
264 340
264 458
265 271
265 358
265 571
266 307
266 350
266 581
267 156
267 317
267 361
268 17
268 291
268 568
269 324
269 359
269 454
270 0
270 372
270 492
271 344
271 355
271 444
272 53
272 119
272 329
273 158
273 163
273 532
274 15
274 25
274 495
275 19
275 214
275 412
276 114
276 212
276 378
277 203
277 273
277 542
278 81
278 85
278 472
279 117
279 121
279 302
280 3
280 143
280 580
281 38
281 451
281 513
282 362
282 370
282 507
283 116
283 576
283 594
284 222
284 297
284 399
285 107
285 109
285 505
286 215
286 253
286 342
287 236
287 290
287 457
288 74
288 393
288 504
289 75
289 450
289 578
290 176
290 351
290 598
291 65
291 406
291 479
292 237
292 446
292 478
293 325
293 373
293 597
294 135
294 301
294 420
295 12
295 61
295 133
296 484
296 517
296 555
297 464
297 476
297 551
298 127
298 403
298 411
299 33
299 92
299 366
300 169
300 174
300 421
301 284
301 439
301 531
302 111
302 270
302 494
303 162
303 202
303 394
304 36
304 129
304 459
305 72
305 231
305 529
306 84
306 229
306 230
307 7
307 196
307 252
308 305
308 310
308 563
309 442
309 485
309 599
310 88
310 136
310 514
311 32
311 98
311 183
312 308
312 525
312 562
313 54
313 148
313 502
314 122
314 263
314 534
315 27
315 165
315 240
316 199
316 435
316 593
317 21
317 328
317 371
318 28
318 93
318 219
319 348
319 377
319 596
320 241
320 382
320 564
321 1
321 296
321 526
322 8
322 57
322 292
323 34
323 118
323 389
324 132
324 250
324 533
325 245
325 347
325 402
326 261
326 268
326 331
327 201
327 357
327 518
328 60
328 110
328 392
329 86
329 298
329 443
330 9
330 29
330 456
331 108
331 115
331 161
332 186
332 260
332 272
333 66
333 140
333 178
334 353
334 434
334 538
335 144
335 287
335 574
336 10
336 173
336 521
337 193
337 481
337 512
338 409
338 497
338 509
339 97
339 473
339 536
340 24
340 87
340 466
341 96
341 217
341 385
342 13
342 235
342 419
343 130
343 333
343 480
344 68
344 125
344 141
345 171
345 452
345 462
346 167
346 244
346 496
347 146
347 188
347 345
348 218
348 256
348 587
349 501
349 503
349 515
350 153
350 184
350 185
351 275
351 286
351 429
352 50
352 103
352 330
353 52
353 299
353 487
354 374
354 516
354 540
355 64
355 76
355 321
356 73
356 283
356 561
357 14
357 56
357 414
358 91
358 323
358 368
359 376
359 408
359 424
360 45
360 67
360 205
361 90
361 177
361 395
362 211
362 255
362 475
363 341
363 500
363 520
364 89
364 423
364 558
365 334
365 430
365 588
366 42
366 70
366 94
367 55
367 206
367 585
368 191
368 210
368 398
369 5
369 535
369 567
370 145
370 390
370 556
371 58
371 113
371 575
372 31
372 77
372 312
373 49
373 349
373 549
374 147
374 369
374 453
375 251
375 309
375 396
376 41
376 197
376 387
377 80
377 242
377 311
378 48
378 192
378 365
379 104
379 216
379 258
380 164
380 306
380 431
381 316
381 367
381 379
382 37
382 62
382 105
383 204
383 320
383 397
384 124
384 128
384 265
385 142
385 207
385 524
386 4
386 23
386 227
387 438
387 447
387 576
388 279
388 468
388 543
389 126
389 139
389 539
390 318
390 322
390 523
391 51
391 190
391 417
392 223
392 363
392 560
393 112
393 418
393 498
394 47
394 384
394 544
395 288
395 355
395 493
396 410
396 422
396 489
397 69
397 257
397 404
398 474
398 545
398 584
399 82
399 187
399 356
400 11
400 16
400 30
401 72
401 208
401 267
402 386
402 500
402 589
403 35
403 96
403 311
404 108
404 111
404 490
405 180
405 305
405 567
406 122
406 327
406 353
407 114
407 376
407 445
408 420
408 550
408 584
409 64
409 524
409 578
410 343
410 403
410 523
411 2
411 306
411 501
412 234
412 362
412 575
413 141
413 163
413 499
414 299
414 448
414 466
415 330
415 456
415 509
416 251
416 417
416 553
417 391
417 452
417 554
418 432
418 592
418 599
419 186
419 233
419 572
420 211
420 365
420 390
421 140
421 356
421 457
422 91
422 245
422 246
423 463
423 530
423 568
424 83
424 112
424 130
425 21
425 41
425 265
426 145
426 166
426 384
427 7
427 152
427 307
428 113
428 298
428 373
429 28
429 459
429 478
430 346
430 458
430 581
431 289
431 413
431 502
432 100
432 369
432 455
433 261
433 334
433 423
434 291
434 315
434 333
435 232
435 264
435 450
436 308
436 487
436 552
437 366
437 381
437 518
438 171
438 174
438 220
439 97
439 410
439 583
440 121
440 201
440 218
441 137
441 345
441 495
442 8
442 92
442 167
443 312
443 378
443 597
444 39
444 170
444 344
445 202
445 371
445 416
446 55
446 196
446 415
447 74
447 300
447 304
448 157
448 425
448 548
449 241
449 320
449 412
450 38
450 406
450 482
451 131
451 223
451 543
452 161
452 388
452 454
453 45
453 280
453 409
454 66
454 84
454 360
455 63
455 354
455 447
456 104
456 156
456 392
457 199
457 431
457 595
458 175
458 292
458 321
459 182
459 504
459 512
460 105
460 151
460 285
461 48
461 124
461 208
462 325
462 433
462 439
463 27
463 60
463 169
464 59
464 116
464 217
465 263
465 290
465 467
466 81
466 313
466 563
467 150
467 210
467 471
468 89
468 273
468 435
469 129
469 227
469 396
470 51
470 256
470 341
471 3
471 370
471 591
472 242
472 338
472 505
473 367
473 399
473 465
474 395
474 405
474 424
475 225
475 483
475 547
476 181
476 475
476 565
477 139
477 493
477 586
478 1
478 34
478 214
479 93
479 173
479 240
480 15
480 496
480 593
481 0
481 520
481 540
482 14
482 136
482 165
483 31
483 185
483 464
484 125
484 323
484 404
485 293
485 441
485 449
486 135
486 322
486 498
487 123
487 146
487 481
488 342
488 436
488 541
489 68
489 144
489 561
490 53
490 348
490 438
491 274
491 546
491 580
492 224
492 479
492 542
493 189
493 200
493 582
494 42
494 138
494 573
495 470
495 539
495 590
496 70
496 514
496 549
497 20
497 205
497 247
498 254
498 394
498 517
499 13
499 88
499 515
500 183
500 195
500 387
501 134
501 226
501 239
502 118
502 258
502 525
503 103
503 119
503 296
504 207
504 351
504 361
505 179
505 379
505 383
506 17
506 76
506 278
507 236
507 516
507 521
508 153
508 337
508 557
509 79
509 237
509 434
510 154
510 159
510 222
511 269
511 310
511 385
512 192
512 497
512 596
513 340
513 375
513 492
514 109
514 209
514 551
515 177
515 401
515 442
516 106
516 107
516 148
517 128
517 382
517 419
518 133
518 282
518 555
519 331
519 477
519 486
520 257
520 260
520 558
521 4
521 248
521 588
522 49
522 215
522 284
523 326
523 339
523 594
524 110
524 117
524 411
525 18
525 29
525 408
526 230
526 446
526 529
527 358
527 374
527 400
528 115
528 194
528 513
529 32
529 302
529 363
530 71
530 193
530 352
531 147
531 188
531 503
532 9
532 295
532 587
533 444
533 531
533 571
534 58
534 191
534 491
535 57
535 78
535 468
536 50
536 380
536 519
537 82
537 204
537 537
538 316
538 347
538 484
539 73
539 198
539 249
540 101
540 235
540 510
541 75
541 190
541 335
542 87
542 422
542 570
543 276
543 522
543 534
544 216
544 262
544 297
545 61
545 65
545 317
546 62
546 294
546 488
547 318
547 372
547 566
548 272
548 398
548 480
549 37
549 268
549 271
550 12
550 281
550 472
551 176
551 511
551 574
552 221
552 407
552 429
553 462
553 474
553 556
554 67
554 332
554 414
555 149
555 178
555 453
556 213
556 252
556 397
557 219
557 314
557 559
558 162
558 228
558 255
559 286
559 473
559 485
560 172
560 270
560 538
561 203
561 287
561 364
562 186
562 197
562 206
563 99
563 244
563 437
564 11
564 418
564 489
565 43
565 80
565 427
566 46
566 98
566 476
567 85
567 277
567 402
568 109
568 440
568 585
569 19
569 127
569 532
570 158
570 528
570 562
571 126
571 231
571 238
572 250
572 359
572 428
573 283
573 288
573 426
574 10
574 54
574 56
575 303
575 368
575 567
576 30
576 95
576 229
577 69
577 389
577 460
578 142
578 228
578 469
579 5
579 117
579 259
580 44
580 328
580 357
581 102
581 275
581 349
582 86
582 301
582 579
583 22
583 451
583 577
584 132
584 430
584 508
585 90
585 535
585 564
586 23
586 266
586 329
587 336
587 421
587 507
588 24
588 461
588 527
589 448
589 536
589 560
590 120
590 336
590 494
591 25
591 506
591 526
592 253
592 309
592 489
593 160
593 324
593 545
594 377
594 432
594 533
595 6
595 443
595 554
596 164
596 187
596 297
597 94
597 184
597 442
598 143
598 243
598 462
599 26
599 155
599 279
600 40
600 350
600 544
601 152
601 393
601 575
602 36
602 77
602 319
603 33
603 168
603 584
604 90
604 212
604 569
605 405
605 475
605 598
606 52
606 519
606 539
607 114
607 179
607 511
608 50
608 230
608 245
609 244
609 349
609 428
610 107
610 406
610 528
611 84
611 383
611 514
612 284
612 455
612 472
613 82
613 229
613 463
614 131
614 159
614 227
615 31
615 393
615 573
616 115
616 164
616 355
617 26
617 518
617 523
618 18
618 440
618 491
619 122
619 452
619 597
620 291
620 319
620 458
621 218
621 273
621 365
622 339
622 525
622 598
623 217
623 225
623 232
624 61
624 193
624 331
625 19
625 138
625 357
626 337
626 449
626 589
627 23
627 294
627 464
628 46
628 143
628 588
629 313
629 415
629 498
630 214
630 264
630 354
631 34
631 347
631 467
632 133
632 253
632 540
633 144
633 423
633 552
634 235
634 376
634 495
635 108
635 212
635 321
636 88
636 373
636 394
637 271
637 287
637 570
638 149
638 388
638 396
639 57
639 65
639 241
640 242
640 327
640 420
641 335
641 493
641 512
642 184
642 206
642 356
643 338
643 390
643 481
644 266
644 341
644 412
645 191
645 305
645 587
646 5
646 51
646 95
647 35
647 173
647 307
648 118
648 165
648 310
649 314
649 444
649 579
650 210
650 407
650 499
651 58
651 400
651 586
652 189
652 299
652 450
653 142
653 443
653 473
654 9
654 257
654 418
655 188
655 413
655 507
656 47
656 279
656 399
657 38
657 53
657 537
658 404
658 433
658 470
659 174
659 269
659 371
660 21
660 292
660 456
661 44
661 374
661 506
662 22
662 172
662 509
663 220
663 308
663 510
664 201
664 243
664 368
665 4
665 43
665 377
666 254
666 369
666 581
667 145
667 309
667 524
668 289
668 332
668 569
669 11
669 300
669 429
670 162
670 197
670 547
671 334
671 372
671 446
672 68
672 180
672 277
673 2
673 14
673 267
674 76
674 262
674 484
675 136
675 425
675 531
676 435
676 469
676 591
677 125
677 130
677 520
678 286
678 295
678 501
679 362
679 434
679 568
680 194
680 351
680 590
681 239
681 490
681 542
682 98
682 215
682 324
683 6
683 89
683 345
684 69
684 431
684 596
685 147
685 270
685 427
686 296
686 541
686 566
687 132
687 183
687 280
688 1
688 200
688 202
689 66
689 477
689 517
690 37
690 281
690 447
691 333
691 352
691 360
692 60
692 306
692 559
693 10
693 59
693 129
694 3
694 409
694 564
695 30
695 128
695 240
696 168
696 169
696 343
697 87
697 259
697 550
698 13
698 476
698 497
699 97
699 478
699 505
700 55
700 93
700 461
701 7
701 483
701 486
702 99
702 346
702 516
703 158
703 544
703 583
704 361
704 500
704 545
705 278
705 298
705 574
706 124
706 381
706 465
707 94
707 146
707 323
708 92
708 110
708 282
709 64
709 170
709 508
710 81
710 171
710 488
711 329
711 359
711 546
712 182
712 258
712 342
713 101
713 261
713 499
714 54
714 316
714 480
715 74
715 416
715 556
716 163
716 364
716 595
717 401
717 593
717 594
718 234
718 471
718 572
719 48
719 190
719 592
720 134
720 421
720 466
721 272
721 459
721 578
722 62
722 103
722 543
723 311
723 502
723 561
724 71
724 181
724 391
725 157
725 348
725 487
726 123
726 285
726 382
727 252
727 255
727 532
728 203
728 363
728 557
729 140
729 417
729 571
730 77
730 246
730 454
731 178
731 302
731 398
732 111
732 414
732 482
733 8
733 166
733 216
734 104
734 126
734 402
735 15
735 161
735 330
736 78
736 221
736 248
737 328
737 535
737 560
738 156
738 340
738 385
739 100
739 395
739 411
740 250
740 256
740 536
741 70
741 247
741 260
742 223
742 397
742 515
743 231
743 303
743 468
744 32
744 151
744 422
745 293
745 367
745 529
746 150
746 175
746 577
747 17
747 219
747 526
748 236
748 251
748 580
749 139
749 290
749 436
750 20
750 196
750 370
751 67
751 265
751 275
752 63
752 96
752 527
753 79
753 437
753 585
754 276
754 366
754 533
755 160
755 167
755 408
756 155
756 317
756 426
757 344
757 378
757 460
758 119
758 263
758 387
759 135
759 438
759 503
760 185
760 205
760 320
761 8
761 358
761 530
762 130
762 249
762 392
763 73
763 100
763 492
764 12
764 56
764 187
765 268
765 424
765 551
766 85
766 236
766 318
767 148
767 439
767 526
768 29
768 451
768 522
769 49
769 197
769 224
770 25
770 105
770 353
771 33
771 315
771 538
772 102
772 325
772 562
773 83
773 276
773 549
774 207
774 222
774 301
775 226
775 290
775 513
776 52
776 389
776 410
777 80
777 133
777 304
778 0
778 127
778 192
779 137
779 177
779 213
780 274
780 496
780 504
781 16
781 198
781 553
782 42
782 199
782 208
783 91
783 272
783 576
784 195
784 204
784 233
785 12
785 28
785 441
786 379
786 457
786 474
787 24
787 180
787 430
788 75
788 113
788 534
789 120
789 154
789 237
790 436
790 445
790 558
791 45
791 384
791 479
792 494
792 521
792 582
793 283
793 326
793 350
794 27
794 176
794 599
795 112
795 153
795 555
796 40
796 209
796 403
797 41
797 238
797 322
798 86
798 106
798 121
799 211
799 375
799 419
800 312
800 386
800 485
801 453
801 470
801 548
802 36
802 498
802 565
803 72
803 351
803 563
804 39
804 141
804 380
805 116
805 288
805 543
806 56
806 69
806 250
807 59
807 195
807 546
808 151
808 169
808 229
809 211
809 300
809 314
810 19
810 303
810 400
811 52
811 143
811 397
812 117
812 154
812 427
813 119
813 315
813 379
814 173
814 233
814 587
815 301
815 336
815 442
816 51
816 129
816 471
817 175
817 447
817 462
818 20
818 65
818 346
819 37
819 273
819 521
820 126
820 232
820 278
821 16
821 81
821 228
822 172
822 198
822 296
823 45
823 58
823 96
824 261
824 373
824 568
825 118
825 571
825 590
826 393
826 401
826 441
827 145
827 308
827 460
828 73
828 354
828 449
829 102
829 364
829 457
830 97
830 181
830 502
831 120
831 155
831 592
832 82
832 519
832 575
833 204
833 509
833 512
834 153
834 289
834 377
835 140
835 437
835 588
836 304
836 409
836 506
837 79
837 405
837 412
838 88
838 224
838 569
839 277
839 445
839 503
840 324
840 510
840 535
841 9
841 85
841 478
842 438
842 489
842 554
843 361
843 410
843 538
844 104
844 291
844 328
845 252
845 366
845 369
846 11
846 178
846 238
847 41
847 127
847 494
848 60
848 222
848 482
849 474
849 492
849 537
850 62
850 206
850 565
851 2
851 260
851 353
852 147
852 220
852 399
853 0
853 422
853 581
854 443
854 464
854 564
855 139
855 316
855 536
856 391
856 522
856 544
857 57
857 322
857 394
858 298
858 309
858 573
859 128
859 472
859 589
860 251
860 338
860 435
861 121
861 205
861 490
862 194
862 380
862 403
863 108
863 110
863 116
864 187
864 292
864 360
865 280
865 329
865 444
866 455
866 527
866 566
867 61
867 421
867 578
868 27
868 80
868 340
869 125
869 159
869 299
870 98
870 283
870 310
871 463
871 488
871 584
872 93
872 235
872 269
873 321
873 501
873 531
874 112
874 163
874 293
875 111
875 317
875 579
876 22
876 479
876 511
877 325
877 491
877 500
878 244
878 344
878 476
879 230
879 547
879 555
880 207
880 307
880 408
881 263
881 525
881 548
882 18
882 149
882 223
883 24
883 137
883 505
884 320
884 327
884 567
885 107
885 458
885 586
886 176
886 331
886 357
887 39
887 246
887 337
888 78
888 333
888 461
889 258
889 266
889 426
890 77
890 395
890 469
891 36
891 146
891 165
892 4
892 164
892 530
893 32
893 156
893 504
894 234
894 371
894 450
895 53
895 241
895 430
896 254
896 288
896 440
897 352
897 372
897 433
898 47
898 378
898 517
899 330
899 558
899 559
900 217
900 388
900 508
901 191
901 287
901 339
902 91
902 434
902 516
903 418
903 541
903 550
904 136
904 265
904 446
905 148
905 256
905 557
906 101
906 358
906 563
907 208
907 302
907 532
908 382
908 415
908 534
909 6
909 42
909 271
910 196
910 368
910 524
911 14
911 134
911 580
912 202
912 294
912 406
913 48
913 106
913 312
914 243
914 553
914 585
915 3
915 297
915 432
916 115
916 240
916 407
917 413
917 518
917 545
918 33
918 142
918 221
919 72
919 150
919 248
920 87
920 188
920 359
921 64
921 386
921 417
922 63
922 94
922 539
923 92
923 95
923 390
924 166
924 381
924 398
925 135
925 227
925 282
926 76
926 356
926 540
927 68
927 152
927 231
928 30
928 157
928 347
929 190
929 245
929 466
930 193
930 375
930 593
931 13
931 556
931 599
932 31
932 43
932 305
933 158
933 270
933 428
934 262
934 264
934 453
935 493
935 549
935 570
936 132
936 168
936 186
937 122
937 350
937 465
938 279
938 348
938 396
939 74
939 144
939 523
940 25
940 255
940 448
941 75
941 242
941 515
942 49
942 89
942 170
943 38
943 50
943 216
944 419
944 420
944 572
945 109
945 167
945 257
946 123
946 485
946 582
947 326
947 431
947 529
948 267
948 497
948 528
949 66
949 141
949 507
950 26
950 90
950 214
951 209
951 561
951 576
952 162
952 367
952 429
953 114
953 306
953 374
954 105
954 334
954 595
955 189
955 483
955 594
956 44
956 281
956 335
957 34
957 332
957 456
958 46
958 131
958 212
959 138
959 239
959 520
960 160
960 343
960 475
961 319
961 514
961 552
962 23
962 213
962 237
963 84
963 345
963 596
964 370
964 423
964 484
965 219
965 342
965 451
966 5
966 424
966 473
967 249
967 363
967 389
968 15
968 174
968 411
969 201
969 285
969 597
970 99
970 215
970 259
971 10
971 171
971 199
972 35
972 226
972 404
973 203
973 318
973 383
974 55
974 70
974 365
975 177
975 179
975 533
976 83
976 218
976 414
977 7
977 67
977 577
978 268
978 583
978 591
979 183
979 459
979 487
980 185
980 274
980 355
981 161
981 416
981 468
982 29
982 247
982 598
983 402
983 439
983 481
984 113
984 425
984 551
985 71
985 184
985 454
986 200
986 323
986 387
987 86
987 284
987 496
988 467
988 495
988 574
989 286
989 480
989 542
990 341
990 384
990 486
991 21
991 225
991 562
992 17
992 311
992 452
993 1
993 210
993 385
994 40
994 103
994 349
995 295
995 313
995 477
996 253
996 275
996 560
997 124
997 392
997 463
998 54
998 182
998 376
999 36
999 152
999 513
1000 28
1000 362
1000 476
1001 173
1001 192
1001 232
1002 130
1002 244
1002 369
1003 397
1003 429
1003 454
1004 146
1004 205
1004 210
1005 112
1005 177
1005 275
1006 26
1006 87
1006 208
1007 45
1007 283
1007 417
1008 377
1008 474
1008 551
1009 125
1009 533
1009 550
1010 159
1010 260
1010 265
1011 202
1011 233
1011 281
1012 44
1012 92
1012 362
1013 215
1013 252
1013 450
1014 344
1014 458
1014 598
1015 38
1015 441
1015 574
1016 180
1016 459
1016 577
1017 178
1017 400
1017 415
1018 133
1018 217
1018 518
1019 46
1019 81
1019 242
1020 54
1020 358
1020 430
1021 120
1021 528
1021 560
1022 243
1022 337
1022 482
1023 262
1023 462
1023 562
1024 297
1024 504
1024 516
1025 20
1025 199
1025 537
1026 235
1026 490
1026 508
1027 16
1027 195
1027 384
1028 70
1028 325
1028 424
1029 218
1029 342
1029 343
1030 228
1030 431
1030 590
1031 201
1031 220
1031 558
1032 106
1032 527
1032 540
1033 95
1033 155
1033 323
1034 6
1034 115
1034 313
1035 189
1035 203
1035 556
1036 5
1036 523
1036 568
1037 224
1037 291
1037 388
1038 149
1038 164
1038 545
1039 9
1039 546
1039 547
1040 72
1040 93
1040 456
1041 245
1041 443
1041 565
1042 398
1042 420
1042 569
1043 1
1043 61
1043 237
1044 14
1044 68
1044 328
1045 197
1045 287
1045 445
1046 96
1046 111
1046 465
1047 64
1047 254
1047 483
1048 256
1048 382
1048 385
1049 39
1049 191
1049 588
1050 73
1050 404
1050 406
1051 85
1051 470
1051 585
1052 32
1052 315
1052 498
1053 74
1053 179
1053 389
1054 78
1054 261
1054 475
1055 329
1055 542
1055 581
1056 128
1056 132
1056 212
1057 18
1057 47
1057 334
1058 31
1058 131
1058 273
1059 200
1059 355
1059 435
1060 240
1060 387
1060 579
1061 122
1061 148
1061 264
1062 145
1062 295
1062 405
1063 119
1063 374
1063 402
1064 226
1064 301
1064 333
1065 76
1065 409
1065 513
1066 160
1066 548
1066 554
1067 84
1067 506
1067 510
1068 79
1068 422
1068 563
1069 314
1069 347
1069 515
1070 71
1070 284
1070 303
1071 67
1071 421
1071 468
1072 109
1072 192
1072 364
1073 253
1073 416
1073 597
1074 451
1074 464
1074 480
1075 326
1075 481
1075 532
1076 151
1076 158
1076 524
1077 42
1077 311
1077 580
1078 43
1078 257
1078 591
1079 190
1079 460
1079 491
1080 219
1080 249
1080 322
1081 166
1081 359
1081 467
1082 8
1082 185
1082 339
1083 40
1083 366
1083 489
1084 98
1084 276
1084 559
1085 104
1085 293
1085 521
1086 379
1086 531
1086 594
1087 60
1087 354
1087 517
1088 7
1088 383
1088 392
1089 13
1089 118
1089 236
1090 66
1090 107
1090 564
1091 263
1091 509
1091 561
1092 77
1092 187
1092 526
1093 19
1093 97
1093 488
1094 88
1094 182
1094 466
1095 62
1095 221
1095 500
1096 410
1096 553
1096 555
1097 140
1097 269
1097 353
1098 116
1098 251
1098 319
1099 11
1099 497
1099 557
1100 91
1100 292
1100 413
1101 63
1101 535
1101 538
1102 216
1102 285
1102 501
1103 144
1103 324
1103 477
1104 4
1104 37
1104 514
1105 241
1105 411
1105 499
1106 75
1106 101
1106 539
1107 113
1107 529
1107 599
1108 246
1108 282
1108 349
1109 305
1109 433
1109 495
1110 80
1110 345
1110 425
1111 183
1111 307
1111 543
1112 299
1112 309
1112 426
1113 143
1113 278
1113 302
1114 270
1114 376
1114 452
1115 196
1115 496
1115 525
1116 204
1116 455
1116 484
1117 114
1117 229
1117 361
1118 59
1118 231
1118 530
1119 391
1119 566
1119 596
1120 89
1120 225
1120 492
1121 277
1121 304
1121 486
1122 163
1122 298
1122 341
1123 294
1123 336
1123 534
1124 188
1124 352
1124 572
1125 395
1125 461
1125 578
1126 83
1126 172
1126 340
1127 53
1127 184
1127 586
1128 271
1128 327
1128 432
1129 24
1129 331
1129 436
1130 25
1130 321
1130 582
1131 34
1131 94
1131 472
1132 65
1132 153
1132 571
1133 134
1133 157
1133 320
1134 171
1134 381
1134 437
1135 48
1135 57
1135 222
1136 423
1136 439
1136 479
1137 136
1137 512
1137 520
1138 169
1138 247
1138 386
1139 30
1139 401
1139 448
1140 267
1140 338
1140 407
1141 238
1141 268
1141 330
1142 105
1142 138
1142 150
1143 49
1143 290
1143 573
1144 193
1144 198
1144 306
1145 308
1145 316
1145 418
1146 100
1146 248
1146 390
1147 23
1147 99
1147 519
1148 213
1148 350
1148 365
1149 176
1149 356
1149 502
1150 258
1150 473
1150 570
1151 82
1151 86
1151 453
1152 380
1152 427
1152 549
1153 434
1153 503
1153 593
1154 168
1154 357
1154 372
1155 103
1155 469
1155 494
1156 55
1156 296
1156 485
1157 102
1157 471
1157 511
1158 28
1158 286
1158 440
1159 2
1159 51
1159 161
1160 154
1160 332
1160 375
1161 29
1161 147
1161 536
1162 206
1162 346
1162 396
1163 250
1163 446
1163 457
1164 69
1164 90
1164 121
1165 110
1165 300
1165 478
1166 181
1166 363
1166 414
1167 259
1167 348
1167 370
1168 123
1168 351
1168 576
1169 58
1169 162
1169 175
1170 22
1170 310
1170 360
1171 227
1171 371
1171 595
1172 50
1172 211
1172 583
1173 52
1173 373
1173 541
1174 165
1174 447
1174 544
1175 108
1175 141
1175 318
1176 17
1176 399
1176 419
1177 12
1177 403
1177 442
1178 255
1178 378
1178 567
1179 274
1179 438
1179 505
1180 394
1180 522
1180 584
1181 139
1181 186
1181 449
1182 15
1182 223
1182 266
1183 209
1183 393
1183 552
1184 194
1184 444
1184 587
1185 0
1185 289
1185 367
1186 3
1186 21
1186 214
1187 127
1187 230
1187 335
1188 35
1188 135
1188 575
1189 234
1189 412
1189 493
1190 56
1190 124
1190 368
1191 129
1191 156
1191 239
1192 272
1192 312
1192 317
1193 408
1193 589
1193 592
1194 41
1194 174
1194 207
1195 137
1195 142
1195 167
1196 27
1196 170
1196 487
1197 33
1197 126
1197 507
1198 10
1198 280
1198 288
1199 117
1199 279
1199 428
