1600 1200 4800
0 741
0 939
0 1177
1 311
1 312
1 690
2 394
2 635
2 700
3 7
3 158
3 897
4 560
4 859
4 1025
5 444
5 460
5 816
6 602
6 772
6 1193
7 230
7 339
7 436
8 8
8 301
8 1069
9 489
9 819
9 1166
10 5
10 632
10 754
11 490
11 701
11 973
12 153
12 281
12 898
13 165
13 174
13 1030
14 517
14 852
14 959
15 759
15 830
15 1067
16 190
16 769
16 1039
17 308
17 359
17 1162
18 351
18 822
18 998
19 398
19 411
19 691
20 22
20 48
20 101
21 180
21 643
21 651
22 290
22 627
22 628
23 16
23 66
23 962
24 122
24 288
24 480
25 116
25 207
25 213
26 198
26 856
26 931
27 20
27 462
27 970
28 516
28 774
28 1112
29 903
29 934
29 1114
30 1053
30 1127
30 1130
31 50
31 336
31 698
32 26
32 372
32 638
33 833
33 834
33 1156
34 475
34 843
34 989
35 535
35 763
35 1089
36 97
36 464
36 1058
37 562
37 672
37 727
38 665
38 670
38 731
39 6
39 514
39 518
40 582
40 767
40 1161
41 114
41 458
41 552
42 291
42 371
42 470
43 379
43 397
43 770
44 478
44 702
44 1001
45 805
45 894
45 1043
46 881
46 1049
46 1071
47 744
47 1019
47 1101
48 374
48 573
48 1113
49 130
49 557
49 1064
50 112
50 133
50 621
51 408
51 413
51 601
52 129
52 708
52 885
53 329
53 425
53 1045
54 36
54 747
54 768
55 110
55 1034
55 1146
56 147
56 481
56 1041
57 182
57 652
57 685
58 269
58 415
58 1137
59 154
59 215
59 979
60 193
60 297
60 854
61 679
61 927
61 1009
62 362
62 441
62 765
63 678
63 766
63 1110
64 217
64 326
64 1037
65 447
65 612
65 1078
66 208
66 720
66 1100
67 9
67 968
67 1059
68 474
68 559
68 878
69 857
69 875
69 922
70 948
70 1004
70 1182
71 331
71 580
71 950
72 23
72 314
72 743
73 152
73 257
73 674
74 222
74 775
74 1054
75 392
75 861
75 867
76 176
76 437
76 496
77 494
77 540
77 1033
78 277
78 976
78 1109
79 295
79 798
79 951
80 524
80 623
80 791
81 98
81 231
81 946
82 170
82 197
82 264
83 368
83 531
83 617
84 360
84 782
84 1129
85 103
85 661
85 880
86 510
86 558
86 796
87 24
87 58
87 676
88 446
88 707
88 981
89 113
89 183
89 375
90 443
90 1021
90 1080
91 32
91 421
91 1119
92 555
92 821
92 882
93 42
93 485
93 587
94 123
94 232
94 890
95 65
95 1029
95 1057
96 178
96 599
96 941
97 595
97 844
97 1124
98 274
98 395
98 677
99 83
99 662
99 991
100 547
100 570
100 803
101 150
101 576
101 1133
102 578
102 722
102 1123
103 459
103 593
103 641
104 151
104 189
104 1014
105 250
105 338
105 646
106 99
106 239
106 742
107 202
107 353
107 814
108 18
108 53
108 1015
109 504
109 757
109 928
110 240
110 930
110 1136
111 266
111 590
111 1107
112 253
112 495
112 1091
113 115
113 457
113 551
114 100
114 505
114 1183
115 25
115 196
115 365
116 138
116 238
116 780
117 73
117 984
117 1152
118 108
118 254
118 300
119 46
119 409
119 909
120 564
120 604
120 960
121 72
121 236
121 762
122 125
122 483
122 546
123 745
123 887
123 905
124 139
124 841
124 893
125 210
125 686
125 712
126 195
126 271
126 779
127 12
127 605
127 687
128 333
128 1094
128 1175
129 209
129 358
129 840
130 31
130 846
130 896
131 111
131 327
131 539
132 1008
132 1066
132 1092
133 709
133 725
133 831
134 304
134 545
134 728
135 39
135 68
135 625
136 317
136 1063
136 1159
137 321
137 746
137 836
138 134
138 184
138 508
139 41
139 188
139 724
140 285
140 287
140 350
141 607
141 716
141 904
142 306
142 606
142 815
143 653
143 895
143 1084
144 704
144 902
144 929
145 378
145 584
145 952
146 155
146 347
146 1083
147 164
147 282
147 319
148 305
148 667
148 944
149 268
149 957
149 1062
150 59
150 714
150 751
151 109
151 169
151 343
152 523
152 1046
152 1180
153 119
153 537
153 971
154 235
154 532
154 726
155 761
155 1005
155 1169
156 597
156 809
156 842
157 131
157 194
157 907
158 92
158 390
158 592
159 603
159 684
159 733
160 27
160 296
160 710
161 63
161 64
161 876
162 718
162 781
162 851
163 884
163 912
163 1134
164 429
164 711
164 901
165 161
165 666
165 732
166 837
166 1073
166 1111
167 811
167 874
167 1095
168 159
168 1126
168 1147
169 278
169 473
169 1194
170 244
170 370
170 794
171 393
171 993
171 1149
172 455
172 752
172 813
173 294
173 377
173 825
174 121
174 630
174 1088
175 721
175 920
175 947
176 442
176 561
176 1102
177 1
177 28
177 1155
178 433
178 471
178 777
179 303
179 853
179 1164
180 588
180 739
180 1075
181 13
181 388
181 581
182 172
182 484
182 689
183 487
183 750
183 997
184 367
184 497
184 688
185 493
185 568
185 924
186 120
186 157
186 513
187 95
187 430
187 671
188 332
188 634
188 659
189 276
189 541
189 900
190 486
190 810
190 1013
191 737
191 1086
191 1135
192 223
192 369
192 594
193 923
193 1023
193 1060
194 76
194 179
194 696
195 445
195 502
195 648
196 199
196 713
196 1120
197 229
197 538
197 764
198 90
198 246
198 972
199 259
199 396
199 855
200 566
200 1012
200 1077
201 143
201 915
201 994
202 387
202 629
202 749
203 284
203 655
203 1150
204 145
204 440
204 938
205 228
205 302
205 1022
206 585
206 600
206 1099
207 81
207 1082
207 1168
208 55
208 265
208 1184
209 160
209 465
209 1108
210 17
210 491
210 1096
211 148
211 908
211 1103
212 695
212 735
212 1032
213 30
213 206
213 692
214 608
214 1007
214 1085
215 267
215 1024
215 1192
216 376
216 1051
216 1178
217 173
217 234
217 784
218 315
218 723
218 1198
219 533
219 866
219 916
220 186
220 639
220 953
221 420
221 699
221 883
222 322
222 1006
222 1097
223 529
223 729
223 988
224 56
224 61
224 832
225 163
225 673
225 1118
226 141
226 383
226 589
227 286
227 961
227 975
228 88
228 773
228 1195
229 636
229 760
229 1027
230 85
230 166
230 647
231 84
231 204
231 680
232 596
232 921
232 1026
233 104
233 697
233 817
234 937
234 943
234 1048
235 414
235 613
235 1196
236 262
236 316
236 553
237 435
237 788
237 914
238 354
238 886
238 967
239 335
239 456
239 965
240 156
240 845
240 1176
241 45
241 255
241 850
242 212
242 520
242 964
243 261
243 1076
243 1160
244 78
244 205
244 361
245 341
245 1098
245 1139
246 21
246 219
246 337
247 35
247 730
247 911
248 38
248 498
248 703
249 252
249 309
249 808
250 225
250 386
250 1174
251 2
251 748
251 1151
252 43
252 820
252 932
253 57
253 503
253 891
254 313
254 342
254 1185
255 167
255 758
255 1050
256 565
256 797
256 999
257 77
257 431
257 591
258 352
258 949
258 996
259 107
259 162
259 1072
260 181
260 224
260 526
261 226
261 873
261 936
262 380
262 438
262 1081
263 0
263 75
263 787
264 789
264 790
264 990
265 263
265 348
265 793
266 402
266 778
266 1002
267 406
267 586
267 1031
268 128
268 660
268 935
269 279
269 622
269 649
270 203
270 216
270 550
271 243
271 715
271 1042
272 356
272 658
272 1186
273 211
273 829
273 848
274 52
274 249
274 280
275 241
275 479
275 800
276 795
276 818
276 879
277 87
277 416
277 419
278 453
278 828
278 919
279 201
279 734
279 888
280 142
280 391
280 572
281 168
281 645
281 1068
282 283
282 515
282 1190
283 256
283 835
283 925
284 1038
284 1140
284 1173
285 423
285 642
285 786
286 385
286 472
286 969
287 681
287 982
287 1145
288 399
288 863
288 983
289 310
289 1105
289 1197
290 10
290 583
290 1189
291 449
291 899
291 958
292 694
292 870
292 1181
293 47
293 80
293 980
294 507
294 619
294 1003
295 404
295 488
295 826
296 60
296 237
296 417
297 54
297 218
297 324
298 62
298 71
298 328
299 137
299 1020
299 1144
300 127
300 407
300 827
301 248
301 511
301 1040
302 40
302 461
302 1157
303 448
303 806
303 913
304 812
304 940
304 1142
305 792
305 849
305 858
306 15
306 1153
306 1188
307 67
307 650
307 1061
308 389
308 521
308 626
309 51
309 469
309 1163
310 428
310 1087
310 1093
311 412
311 609
311 633
312 29
312 175
312 432
313 405
313 501
313 963
314 3
314 717
314 966
315 571
315 579
315 631
316 330
316 426
316 1199
317 366
317 543
317 563
318 275
318 756
318 1191
319 245
319 527
319 1056
320 364
320 403
320 945
321 79
321 499
321 847
322 318
322 467
322 1187
323 251
323 1116
323 1148
324 258
324 917
324 1047
325 382
325 468
325 616
326 135
326 477
326 675
327 289
327 740
327 783
328 34
328 534
328 618
329 299
329 598
329 823
330 192
330 320
330 466
331 567
331 637
331 1010
332 346
332 463
332 942
333 171
333 519
333 864
334 11
334 33
334 363
335 146
335 242
335 554
336 381
336 824
336 1125
337 118
337 542
337 862
338 298
338 349
338 1104
339 49
339 126
339 1000
340 37
340 620
340 1128
341 755
341 802
341 868
342 273
342 640
342 955
343 528
343 548
343 624
344 512
344 865
344 869
345 136
345 451
345 683
346 422
346 577
346 1172
347 454
347 985
347 1074
348 233
348 611
348 1115
349 82
349 221
349 575
350 220
350 427
350 682
351 132
351 344
351 992
352 307
352 500
352 669
353 227
353 492
353 785
354 69
354 187
354 1132
355 530
355 574
355 706
356 102
356 105
356 668
357 144
357 663
357 1158
358 482
358 860
358 1079
359 214
359 334
359 506
360 771
360 1016
360 1171
361 185
361 247
361 801
362 657
362 871
362 974
363 569
363 838
363 978
364 124
364 1090
364 1143
365 106
365 292
365 1018
366 89
366 656
366 1121
367 418
367 933
367 1070
368 140
368 325
368 1044
369 522
369 1131
369 1141
370 93
370 452
370 1017
371 86
371 693
371 1179
372 91
372 293
372 434
373 74
373 96
373 191
374 556
374 839
374 906
375 1011
375 1117
375 1122
376 270
376 439
376 926
377 400
377 736
377 1028
378 410
378 956
378 1167
379 177
379 340
379 776
380 19
380 260
380 892
381 200
381 323
381 954
382 872
382 1052
382 1065
383 94
383 654
383 1036
384 373
384 525
384 910
385 615
385 738
385 977
386 384
386 799
386 807
387 357
387 705
387 753
388 644
388 877
388 1055
389 987
389 1154
389 1170
390 345
390 355
390 719
391 44
391 149
391 889
392 70
392 401
392 424
393 272
393 544
393 1035
394 536
394 614
394 918
395 804
395 986
395 1138
396 4
396 476
396 1106
397 14
397 450
397 509
398 117
398 610
398 995
399 549
399 664
399 1165
400 445
400 539
400 975
401 93
401 296
401 1049
402 245
402 654
402 981
403 16
403 301
403 1140
404 49
404 489
404 599
405 251
405 553
405 891
406 48
406 456
406 961
407 522
407 789
407 885
408 462
408 555
408 1074
409 21
409 268
409 277
410 226
410 544
410 705
411 645
411 1121
411 1192
412 142
412 1106
412 1193
413 618
413 651
413 1161
414 606
414 809
414 826
415 324
415 978
415 1166
416 678
416 731
416 985
417 45
417 990
417 1177
418 174
418 292
418 912
419 347
419 653
419 710
420 55
420 735
420 991
421 421
421 649
421 1040
422 390
422 781
422 943
423 728
423 743
423 1175
424 147
424 482
424 499
425 281
425 504
425 1023
426 785
426 869
426 873
427 938
427 1003
427 1180
428 443
428 926
428 1129
429 381
429 656
429 995
430 257
430 519
430 834
431 180
431 207
431 902
432 74
432 887
432 1100
433 177
433 384
433 870
434 2
434 569
434 577
435 140
435 168
435 942
436 12
436 165
436 866
437 379
437 1044
437 1154
438 740
438 909
438 1112
439 953
439 1019
439 1071
440 503
440 637
440 668
441 216
441 505
441 1081
442 260
442 339
442 652
443 587
443 1136
443 1170
444 22
444 231
444 549
445 425
445 433
445 550
446 438
446 762
446 872
447 169
447 358
447 540
448 199
448 588
448 695
449 54
449 138
449 253
450 71
450 598
450 862
451 272
451 442
451 1011
452 314
452 763
452 879
453 289
453 847
453 1076
454 108
454 435
454 592
455 81
455 940
455 1197
456 69
456 897
456 1058
457 293
457 526
457 1116
458 0
458 222
458 1163
459 151
459 810
459 1102
460 460
460 542
460 620
461 344
461 799
461 1160
462 660
462 817
462 841
463 332
463 427
463 700
464 279
464 712
464 867
465 929
465 1029
465 1113
466 297
466 977
466 1093
467 102
467 454
467 937
468 114
468 497
468 828
469 171
469 692
469 1124
470 137
470 145
470 432
471 109
471 338
471 741
472 187
472 486
472 508
473 317
473 434
473 1158
474 191
474 752
474 808
475 133
475 283
475 1127
476 496
476 583
476 979
477 846
477 849
477 1001
478 91
478 170
478 1056
479 342
479 361
479 391
480 14
480 27
480 914
481 228
481 611
481 704
482 321
482 514
482 1159
483 34
483 185
483 1025
484 57
484 535
484 944
485 124
485 386
485 957
486 271
486 455
486 999
487 63
487 131
487 197
488 357
488 453
488 1034
489 275
489 601
489 850
490 25
490 250
490 701
491 446
491 502
491 845
492 47
492 635
492 786
493 150
493 186
493 1061
494 419
494 744
494 1098
495 225
495 610
495 1191
496 96
496 130
496 241
497 541
497 685
497 713
498 576
498 748
498 775
499 143
499 237
499 769
500 328
500 927
500 1089
501 44
501 621
501 836
502 363
502 642
502 746
503 397
503 998
503 1077
504 219
504 479
504 737
505 362
505 520
505 1189
506 76
506 530
506 900
507 29
507 559
507 1017
508 719
508 729
508 1132
509 20
509 182
509 859
510 43
510 134
510 450
511 627
511 1030
511 1109
512 132
512 223
512 648
513 372
513 423
513 747
514 310
514 492
514 994
515 286
515 388
515 864
516 246
516 795
516 903
517 415
517 643
517 855
518 623
518 723
518 768
519 545
519 680
519 956
520 475
520 664
520 987
521 126
521 901
521 958
522 106
522 242
522 874
523 24
523 365
523 430
524 750
524 923
524 933
525 249
525 615
525 876
526 458
526 699
526 759
527 173
527 1065
527 1157
528 949
528 960
528 962
529 371
529 726
529 1002
530 556
530 727
530 1168
531 955
531 1149
531 1186
532 18
532 500
532 560
533 119
533 495
533 632
534 436
534 511
534 580
535 215
535 262
535 366
536 449
536 681
536 911
537 128
537 248
537 575
538 802
538 1114
538 1169
539 636
539 703
539 774
540 319
540 896
540 1037
541 404
541 409
541 689
542 350
542 385
542 546
543 295
543 323
543 573
544 104
544 308
544 1150
545 232
545 235
545 819
546 122
546 267
546 641
547 400
547 733
547 892
548 227
548 724
548 758
549 84
549 412
549 447
550 428
550 698
550 749
551 129
551 406
551 888
552 352
552 858
552 918
553 148
553 619
553 666
554 579
554 922
554 1082
555 426
555 1009
555 1183
556 322
556 910
556 915
557 303
557 491
557 1128
558 877
558 1033
558 1085
559 4
559 567
559 796
560 414
560 527
560 829
561 107
561 163
561 533
562 61
562 439
562 861
563 490
563 551
563 1194
564 8
564 116
564 827
565 547
565 612
565 993
566 595
566 626
566 952
567 354
567 1094
567 1187
568 256
568 483
568 815
569 153
569 950
569 1171
570 255
570 348
570 921
571 770
571 947
571 986
572 1063
572 1066
572 1188
573 594
573 1104
573 1107
574 141
574 176
574 690
575 166
575 984
575 1190
576 252
576 364
576 691
577 424
577 565
577 715
578 1
578 65
578 68
579 200
579 714
579 959
580 399
580 494
580 924
581 113
581 451
581 772
582 298
582 513
582 717
583 340
583 578
583 806
584 88
584 416
584 794
585 167
585 431
585 831
586 501
586 570
586 1178
587 192
587 236
587 1047
588 616
588 969
588 1088
589 99
589 485
589 607
590 1004
590 1087
590 1111
591 311
591 1043
591 1126
592 135
592 528
592 1031
593 86
593 518
593 677
594 764
594 814
594 863
595 585
595 966
595 968
596 294
596 334
596 566
597 160
597 657
597 1125
598 258
598 617
598 931
599 672
599 742
599 880
600 217
600 982
600 1156
601 70
601 468
601 1103
602 537
602 646
602 782
603 287
603 517
603 525
604 190
604 202
604 856
605 78
605 830
605 1118
606 791
606 1141
606 1173
607 243
607 682
607 1162
608 175
608 214
608 658
609 234
609 359
609 448
610 195
610 291
610 894
611 349
611 773
611 1095
612 9
612 302
612 853
613 110
613 378
613 418
614 387
614 757
614 963
615 329
615 341
615 675
616 75
616 367
616 647
617 146
617 631
617 662
618 194
618 373
618 1108
619 35
619 925
619 1167
620 282
620 720
620 788
621 95
621 158
621 860
622 56
622 183
622 327
623 444
623 463
623 498
624 101
624 696
624 868
625 161
625 476
625 480
626 667
626 676
626 857
627 39
627 383
627 521
628 370
628 1147
628 1182
629 548
629 842
629 1028
630 206
630 320
630 1143
631 269
631 467
631 1135
632 221
632 824
632 1054
633 201
633 403
633 716
634 538
634 881
634 1179
635 913
635 1117
635 1138
636 66
636 136
636 709
637 149
637 899
637 1184
638 564
638 822
638 964
639 38
639 629
639 1007
640 266
640 665
640 1026
641 440
641 711
641 1115
642 437
642 988
642 1075
643 531
643 778
643 821
644 420
644 493
644 739
645 464
645 628
645 630
646 478
646 935
646 1099
647 376
647 980
647 1062
648 172
648 313
648 905
649 471
649 512
649 780
650 315
650 335
650 1151
651 139
651 273
651 839
652 115
652 474
652 1176
653 32
653 240
653 886
654 82
654 481
654 591
655 725
655 837
655 972
656 73
656 278
656 669
657 89
657 582
657 820
658 274
658 596
658 967
659 118
659 1014
659 1131
660 835
660 1021
660 1122
661 77
661 1064
661 1092
662 536
662 605
662 754
663 26
663 1048
663 1146
664 411
664 613
664 1060
665 417
665 603
665 634
666 661
666 1174
666 1181
667 59
667 87
667 989
668 333
668 1067
668 1097
669 40
669 193
669 1152
670 94
670 697
670 790
671 181
671 920
671 1072
672 793
672 1020
672 1073
673 650
673 884
673 1010
674 405
674 766
674 951
675 7
675 123
675 997
676 309
676 765
676 973
677 574
677 614
677 760
678 465
678 506
678 584
679 120
679 330
679 377
680 203
680 767
680 840
681 28
681 155
681 784
682 369
682 394
682 529
683 17
683 609
683 813
684 686
684 823
684 941
685 224
685 466
685 1022
686 284
686 459
686 1005
687 264
687 706
687 1084
688 532
688 673
688 893
689 422
689 571
689 1155
690 265
690 457
690 1068
691 382
691 581
691 644
692 37
692 188
692 970
693 92
693 392
693 1142
694 208
694 230
694 1046
695 50
695 316
695 624
696 144
696 204
696 209
697 285
697 1016
697 1038
698 52
698 360
698 1059
699 889
699 1185
699 1199
700 238
700 761
700 798
701 211
701 407
701 684
702 247
702 602
702 1123
703 5
703 198
703 1053
704 210
704 401
704 1139
705 355
705 557
705 751
706 103
706 919
706 996
707 254
707 396
707 890
708 229
708 730
708 1079
709 36
709 932
709 948
710 85
710 98
710 393
711 152
711 534
711 563
712 625
712 783
712 1015
713 515
713 756
713 908
714 288
714 800
714 1039
715 261
715 930
715 1091
716 154
716 218
716 408
717 100
717 239
717 472
718 693
718 772
718 803
719 179
719 586
719 671
720 67
720 398
720 883
721 80
721 306
721 470
722 299
722 389
722 1153
723 11
723 477
723 974
724 797
724 1012
724 1120
725 79
725 738
725 851
726 655
726 844
726 1195
727 51
727 487
727 776
728 818
728 898
728 1130
729 3
729 53
729 304
730 6
730 19
730 562
731 41
731 484
731 965
732 112
732 184
732 1164
733 351
733 509
733 1018
734 597
734 687
734 878
735 825
735 854
735 1086
736 259
736 441
736 907
737 117
737 882
737 1196
738 127
738 755
738 1080
739 624
739 807
739 1096
740 429
740 928
740 1105
741 97
741 356
741 917
742 64
742 593
742 875
743 326
743 343
743 1172
744 590
744 688
744 1145
745 111
745 162
745 777
746 307
746 871
746 983
747 510
747 608
747 1119
748 157
748 708
748 812
749 46
749 263
749 721
750 639
750 674
750 936
751 374
751 734
751 787
752 152
752 640
752 1027
753 105
753 702
753 1165
754 753
754 916
754 1024
755 13
755 633
755 638
756 280
756 694
756 1134
757 290
757 670
757 1069
758 83
758 718
758 1045
759 189
759 375
759 1137
760 72
760 523
760 1050
761 452
761 552
761 816
762 33
762 318
762 604
763 213
763 305
763 805
764 90
764 337
764 707
765 62
765 164
765 1051
766 205
766 663
766 843
767 589
767 976
767 1042
768 156
768 558
768 852
769 159
769 732
769 1083
770 42
770 801
770 934
771 31
771 121
771 336
772 1032
772 1090
772 1144
773 368
773 811
773 904
774 60
774 178
774 945
775 507
775 516
775 561
776 312
776 331
776 865
777 23
777 30
777 895
778 568
778 771
778 832
779 353
779 679
779 1198
780 345
780 380
780 848
781 220
781 1041
781 1148
782 461
782 906
782 954
783 622
783 833
783 1052
784 196
784 543
784 1110
785 317
785 473
785 1035
786 736
786 804
786 1133
787 413
787 554
787 1078
788 10
788 600
788 1101
789 402
789 524
789 1008
790 572
790 659
790 792
791 276
791 488
791 1070
792 325
792 1036
792 1057
793 233
793 722
793 723
794 469
794 1006
794 1055
795 355
795 939
795 1034
796 125
796 346
796 838
797 244
797 300
797 971
798 212
798 410
798 992
799 102
799 1000
799 1013
800 15
800 472
800 946
801 395
801 645
801 779
802 745
802 764
802 1069
803 3
803 58
803 683
804 220
804 270
804 432
805 491
805 517
805 614
806 208
806 648
806 875
807 307
807 379
807 1105
808 55
808 96
808 1138
809 342
809 979
809 1047
810 571
810 597
810 1137
811 407
811 703
811 874
812 43
812 256
812 734
813 206
813 261
813 1141
814 586
814 705
814 1051
815 100
815 300
815 695
816 249
816 281
816 299
817 90
817 358
817 1000
818 715
818 791
818 1145
819 295
819 728
819 1120
820 629
820 817
820 1183
821 157
821 161
821 1166
822 236
822 467
822 802
823 182
823 581
823 1116
824 651
824 1010
824 1092
825 31
825 722
825 829
826 275
826 580
826 855
827 450
827 660
827 1194
828 186
828 223
828 1127
829 5
829 128
829 1062
830 162
830 193
830 904
831 493
831 609
831 784
832 120
832 881
832 1196
833 352
833 456
833 1023
834 47
834 99
834 264
835 68
835 87
835 856
836 61
836 131
836 367
837 98
837 384
837 1192
838 625
838 880
838 1021
839 675
839 726
839 793
840 398
840 466
840 727
841 38
841 158
841 479
842 250
842 294
842 1163
843 171
843 769
843 894
844 151
844 622
844 1077
845 297
845 600
845 670
846 226
846 611
846 886
847 441
847 896
847 1015
848 900
848 958
848 1101
849 19
849 246
849 1108
850 36
850 78
850 922
851 11
851 141
851 816
852 363
852 619
852 766
853 338
853 724
853 1030
854 392
854 680
854 1198
855 67
855 95
855 970
856 596
856 599
856 658
857 554
857 591
857 895
858 16
858 81
858 700
859 283
859 451
859 1048
860 518
860 698
860 975
861 720
861 821
861 952
862 48
862 191
862 1091
863 372
863 471
863 1079
864 569
864 887
864 1175
865 828
865 1040
865 1087
866 284
866 315
866 1152
867 452
867 587
867 676
868 258
868 718
868 1055
869 253
869 832
869 1058
870 103
870 115
870 447
871 426
871 831
871 1156
872 460
872 993
872 1070
873 616
873 689
873 1125
874 169
874 786
874 929
875 273
875 1074
875 1171
876 920
876 1106
876 1132
877 104
877 843
877 941
878 9
878 312
878 1009
879 234
879 492
879 582
880 731
880 842
880 1158
881 429
881 531
881 1182
882 286
882 759
882 1018
883 546
883 594
883 891
884 41
884 415
884 449
885 691
885 794
885 1102
886 39
886 166
886 796
887 316
887 592
887 1029
888 324
888 849
888 1063
889 247
889 773
889 950
890 27
890 238
890 409
891 717
891 820
891 862
892 244
892 533
892 795
893 532
893 988
893 1080
894 114
894 203
894 288
895 212
895 800
895 824
896 117
896 662
896 852
897 331
897 427
897 549
898 46
898 494
898 535
899 164
899 461
899 912
900 654
900 905
900 1181
901 263
901 277
901 1060
902 14
902 776
902 1140
903 575
903 603
903 924
904 201
904 1103
904 1184
905 548
905 889
905 1025
906 636
906 683
906 1143
907 423
907 804
907 1186
908 292
908 366
908 1139
909 106
909 145
909 789
910 495
910 503
910 1003
911 604
911 652
911 686
912 205
912 516
912 775
913 79
913 351
913 934
914 23
914 149
914 997
915 291
915 542
915 630
916 621
916 827
916 987
917 419
917 986
917 1050
918 66
918 455
918 527
919 395
919 530
919 782
920 229
920 561
920 910
921 37
921 921
921 1081
922 196
922 946
922 1111
923 341
923 792
923 1167
924 72
924 184
924 1142
925 142
925 396
925 863
926 347
926 765
926 1118
927 469
927 739
927 846
928 154
928 470
928 510
929 839
929 1039
929 1164
930 365
930 1065
930 1191
931 882
931 935
931 1169
932 160
932 422
932 936
933 268
933 579
933 806
934 605
934 927
934 1122
935 82
935 446
935 598
936 278
936 320
936 751
937 101
937 178
937 217
938 340
938 526
938 573
939 323
939 1136
939 1189
940 271
940 499
940 1172
941 63
941 543
941 1014
942 60
942 290
942 1083
943 746
943 1176
943 1195
944 8
944 119
944 393
945 132
945 165
945 500
946 501
946 729
946 847
947 83
947 834
947 902
948 167
948 287
948 1178
949 404
949 885
949 1053
950 245
950 701
950 1107
951 752
951 859
951 980
952 626
952 854
952 1121
953 233
953 606
953 915
954 265
954 869
954 906
955 75
955 1019
955 1043
956 45
956 327
956 713
957 333
957 607
957 637
958 140
958 601
958 623
959 1134
959 1135
959 1162
960 185
960 221
960 346
961 173
961 235
961 693
962 76
962 390
962 1066
963 334
963 413
963 1031
964 584
964 679
964 699
965 336
965 770
965 818
966 26
966 350
966 976
967 35
967 305
967 428
968 354
968 725
968 844
969 558
969 665
969 879
970 344
970 585
970 1078
971 33
971 146
971 187
972 29
972 476
972 541
973 326
973 956
973 1095
974 237
974 439
974 610
975 306
975 330
975 453
976 1071
976 1094
976 1096
977 168
977 755
977 1013
978 279
978 835
978 1049
979 890
979 892
979 1059
980 53
980 116
980 406
981 345
981 534
981 667
982 266
982 780
982 803
983 252
983 276
983 1085
984 383
984 808
984 1115
985 677
985 964
985 1089
986 209
986 397
986 750
987 313
987 704
987 1016
988 274
988 386
988 1072
989 767
989 878
989 1076
990 539
990 740
990 762
991 868
991 1056
991 1093
992 400
992 702
992 1173
993 719
993 754
993 945
994 175
994 669
994 949
995 301
995 425
995 1150
996 0
996 348
996 916
997 430
997 931
997 978
998 381
998 635
998 1012
999 463
999 562
999 1098
1000 153
1000 424
1000 1097
1001 405
1001 706
1001 814
1002 144
1002 370
1002 756
1003 198
1003 373
1003 870
1004 118
1004 335
1004 529
1005 555
1005 990
1005 1011
1006 937
1006 994
1006 1020
1007 251
1007 389
1007 872
1008 183
1008 763
1008 989
1009 412
1009 436
1009 563
1010 259
1010 448
1010 709
1011 200
1011 337
1011 572
1012 634
1012 753
1012 1180
1013 468
1013 968
1013 1177
1014 270
1014 387
1014 639
1015 176
1015 674
1015 1005
1016 498
1016 914
1016 967
1017 70
1017 376
1017 810
1018 932
1018 959
1018 1061
1019 232
1019 325
1019 536
1020 547
1020 711
1020 1054
1021 267
1021 833
1021 1159
1022 308
1022 486
1022 778
1023 59
1023 147
1023 923
1024 71
1024 617
1024 688
1025 589
1025 812
1025 1084
1026 91
1026 254
1026 953
1027 65
1027 512
1027 822
1028 353
1028 615
1028 897
1029 697
1029 783
1029 1024
1030 684
1030 781
1030 798
1031 272
1031 464
1031 618
1032 349
1032 1168
1032 1188
1033 374
1033 378
1033 1090
1034 309
1034 550
1034 867
1035 743
1035 747
1035 926
1036 150
1036 408
1036 738
1037 13
1037 505
1037 901
1038 107
1038 943
1038 1131
1039 538
1039 930
1039 1153
1040 202
1040 559
1040 969
1041 85
1041 402
1041 520
1042 231
1042 653
1042 939
1043 94
1043 1064
1043 1126
1044 216
1044 507
1044 602
1045 44
1045 159
1045 777
1046 34
1046 537
1046 1119
1047 7
1047 332
1047 1190
1048 213
1048 687
1048 788
1049 830
1049 1086
1049 1088
1050 359
1050 657
1050 805
1051 771
1051 966
1051 998
1052 52
1052 163
1052 838
1053 710
1053 917
1053 999
1054 262
1054 431
1054 488
1055 593
1055 644
1055 1057
1056 280
1056 540
1056 692
1057 673
1057 899
1057 962
1058 681
1058 801
1058 1022
1059 130
1059 985
1059 1129
1060 57
1060 179
1060 655
1061 230
1061 473
1061 737
1062 24
1062 588
1062 682
1063 93
1063 884
1063 1197
1064 214
1064 745
1064 820
1065 124
1065 641
1065 1133
1066 2
1066 174
1066 311
1067 1
1067 134
1067 848
1068 339
1068 757
1068 1045
1069 88
1069 497
1069 627
1070 640
1070 888
1070 981
1071 111
1071 982
1071 983
1072 122
1072 813
1072 1130
1073 454
1073 576
1073 907
1074 303
1074 343
1074 521
1075 470
1075 487
1075 696
1076 483
1076 836
1076 877
1077 77
1077 388
1077 1170
1078 825
1078 873
1078 1008
1079 485
1079 845
1079 913
1080 194
1080 438
1080 1044
1081 17
1081 181
1081 664
1082 528
1082 556
1082 965
1083 135
1083 590
1083 774
1084 180
1084 721
1084 861
1085 112
1085 685
1085 1174
1086 54
1086 269
1086 1144
1087 672
1087 732
1087 851
1088 478
1088 484
1088 552
1089 89
1089 224
1089 564
1090 240
1090 369
1090 401
1091 110
1091 819
1091 992
1092 514
1092 568
1092 716
1093 421
1093 477
1093 790
1094 62
1094 1032
1094 1154
1095 211
1095 712
1095 1124
1096 707
1096 758
1096 1067
1097 248
1097 954
1097 1112
1098 219
1098 380
1098 522
1099 64
1099 243
1099 557
1100 480
1100 741
1100 768
1101 4
1101 302
1101 1004
1102 105
1102 787
1102 860
1103 73
1103 125
1103 1082
1104 519
1104 940
1104 1026
1105 20
1105 298
1105 417
1106 362
1106 760
1106 1041
1107 565
1107 1007
1107 1157
1108 49
1108 74
1108 1052
1109 504
1109 647
1109 809
1110 32
1110 197
1110 883
1111 632
1111 663
1111 871
1112 523
1112 1017
1112 1036
1113 30
1113 329
1113 445
1114 148
1114 435
1114 714
1115 620
1115 903
1115 925
1116 6
1116 489
1116 865
1117 377
1117 515
1117 944
1118 416
1118 974
1118 1160
1119 12
1119 121
1119 225
1120 656
1120 1027
1120 1109
1121 364
1121 837
1121 1001
1122 465
1122 551
1122 1193
1123 15
1123 129
1123 748
1124 172
1124 971
1124 1037
1125 210
1125 708
1125 948
1126 823
1126 951
1126 1199
1127 18
1127 361
1127 1110
1128 296
1128 418
1128 631
1129 195
1129 666
1129 1075
1130 841
1130 858
1130 947
1131 123
1131 156
1131 319
1132 190
1132 318
1132 857
1133 545
1133 570
1133 1165
1134 40
1134 260
1134 482
1135 28
1135 394
1135 730
1136 137
1136 241
1136 807
1137 650
1137 972
1137 1123
1138 86
1138 481
1138 866
1139 799
1139 815
1139 960
1140 84
1140 127
1140 1042
1141 21
1141 113
1141 356
1142 742
1142 840
1142 1046
1143 322
1143 553
1143 957
1144 177
1144 560
1144 850
1145 170
1145 282
1145 433
1146 285
1146 608
1146 1068
1147 22
1147 207
1147 420
1148 310
1148 661
1148 1114
1149 92
1149 314
1149 511
1150 188
1150 440
1150 876
1151 51
1151 595
1151 955
1152 437
1152 638
1152 694
1153 496
1153 502
1153 1077
1154 643
1154 797
1154 811
1155 227
1155 371
1155 434
1156 574
1156 578
1156 1147
1157 255
1157 321
1157 577
1158 108
1158 375
1158 996
1159 304
1159 474
1159 1002
1160 199
1160 257
1160 668
1161 136
1161 690
1161 961
1162 50
1162 646
1162 984
1163 293
1163 612
1163 659
1164 524
1164 678
1164 1128
1165 80
1165 411
1165 539
1166 963
1166 973
1166 1117
1167 444
1167 735
1167 918
1168 239
1168 410
1168 898
1169 58
1169 228
1169 933
1170 155
1170 613
1170 736
1171 744
1171 1146
1171 1148
1172 567
1172 633
1172 914
1173 289
1173 583
1173 1073
1174 143
1174 490
1174 1113
1175 187
1175 222
1175 749
1176 42
1176 908
1176 1151
1177 443
1177 459
1177 525
1178 97
1178 513
1178 911
1179 458
1179 850
1179 1179
1180 242
1180 927
1180 1038
1181 566
1181 754
1181 864
1182 893
1182 938
1182 1187
1183 357
1183 509
1183 991
1184 508
1184 671
1184 826
1185 133
1185 779
1185 928
1186 10
1186 56
1186 642
1187 138
1187 649
1187 1006
1188 204
1188 462
1188 909
1189 368
1189 457
1189 475
1190 139
1190 382
1190 414
1191 385
1191 919
1191 1100
1192 25
1192 544
1192 942
1193 189
1193 853
1193 1104
1194 192
1194 399
1194 785
1195 126
1195 328
1195 995
1196 391
1196 712
1196 1099
1197 635
1197 977
1197 1035
1198 109
1198 215
1198 733
1199 360
1199 450
1199 628
1200 218
1200 442
1200 692
1201 761
1201 1149
1201 1161
1202 462
1202 918
1202 1155
1203 506
1203 946
1203 1033
1204 375
1204 403
1204 623
1205 220
1205 246
1205 1185
1206 69
1206 310
1206 1028
1207 652
1207 1145
1207 1149
1208 190
1208 390
1208 612
1209 406
1209 795
1209 1055
1210 50
1210 110
1210 598
1211 335
1211 733
1211 1015
1212 404
1212 626
1212 988
1213 251
1213 480
1213 735
1214 234
1214 361
1214 592
1215 272
1215 476
1215 822
1216 174
1216 181
1216 649
1217 146
1217 594
1217 1192
1218 141
1218 473
1218 533
1219 118
1219 551
1219 831
1220 52
1220 474
1220 1032
1221 602
1221 856
1221 1120
1222 814
1222 815
1222 1065
1223 24
1223 212
1223 421
1224 453
1224 521
1224 663
1225 382
1225 1144
1225 1156
1226 99
1226 673
1226 993
1227 171
1227 285
1227 441
1228 343
1228 883
1228 1184
1229 154
1229 243
1229 1072
1230 233
1230 446
1230 920
1231 150
1231 388
1231 627
1232 955
1232 1044
1232 1167
1233 319
1233 348
1233 513
1234 567
1234 836
1234 1062
1235 75
1235 522
1235 859
1236 625
1236 900
1236 1097
1237 250
1237 329
1237 650
1238 847
1238 942
1238 1049
1239 352
1239 570
1239 825
1240 471
1240 491
1240 676
1241 155
1241 257
1241 1160
1242 752
1242 890
1242 1008
1243 94
1243 336
1243 376
1244 314
1244 389
1244 527
1245 227
1245 252
1245 587
1246 101
1246 582
1246 818
1247 576
1247 816
1247 1089
1248 214
1248 414
1248 1189
1249 135
1249 254
1249 351
1250 634
1250 651
1250 1143
1251 424
1251 451
1251 548
1252 332
1252 543
1252 802
1253 217
1253 714
1253 1011
1254 525
1254 737
1254 801
1255 340
1255 944
1255 1080
1256 693
1256 844
1256 991
1257 381
1257 817
1257 943
1258 12
1258 700
1258 1112
1259 242
1259 840
1259 911
1260 136
1260 508
1260 672
1261 646
1261 742
1261 833
1262 41
1262 639
1262 776
1263 51
1263 503
1263 968
1264 398
1264 407
1264 559
1265 170
1265 669
1265 950
1266 114
1266 579
1266 684
1267 196
1267 268
1267 771
1268 98
1268 1102
1268 1199
1269 9
1269 26
1269 740
1270 185
1270 423
1270 726
1271 247
1271 807
1271 1036
1272 611
1272 713
1272 1082
1273 152
1273 458
1273 475
1274 553
1274 811
1274 985
1275 666
1275 1092
1275 1171
1276 1
1276 766
1276 1134
1277 499
1277 948
1277 1038
1278 430
1278 670
1278 1122
1279 426
1279 601
1279 721
1280 287
1280 615
1280 685
1281 235
1281 1004
1281 1168
1282 327
1282 729
1282 1033
1283 720
1283 785
1283 1041
1284 653
1284 654
1284 970
1285 261
1285 530
1285 869
1286 444
1286 715
1286 1196
1287 122
1287 334
1287 976
1288 245
1288 292
1288 399
1289 301
1289 853
1289 1067
1290 305
1290 383
1290 391
1291 496
1291 787
1291 969
1292 313
1292 479
1292 545
1293 562
1293 593
1293 756
1294 489
1294 704
1294 1163
1295 5
1295 656
1295 1056
1296 271
1296 497
1296 572
1297 558
1297 664
1297 683
1298 56
1298 1155
1298 1182
1299 356
1299 392
1299 588
1300 443
1300 552
1300 770
1301 17
1301 237
1301 468
1302 87
1302 197
1302 768
1303 102
1303 828
1303 1085
1304 140
1304 385
1304 449
1305 230
1305 316
1305 1002
1306 256
1306 516
1306 936
1307 93
1307 215
1307 803
1308 273
1308 357
1308 1198
1309 964
1309 972
1309 1172
1310 100
1310 459
1310 717
1311 30
1311 128
1311 368
1312 59
1312 312
1312 1121
1313 49
1313 303
1313 832
1314 374
1314 456
1314 1119
1315 494
1315 852
1315 1091
1316 158
1316 263
1316 864
1317 25
1317 1028
1317 1195
1318 618
1318 755
1318 800
1319 124
1319 371
1319 990
1320 203
1320 751
1320 1094
1321 211
1321 569
1321 1105
1322 619
1322 759
1322 1073
1323 338
1323 1138
1323 1169
1324 228
1324 779
1324 872
1325 29
1325 924
1325 925
1326 395
1326 566
1326 1139
1327 282
1327 642
1327 1141
1328 706
1328 793
1328 987
1329 244
1329 297
1329 606
1330 333
1330 657
1330 897
1331 188
1331 941
1331 1075
1332 176
1332 701
1332 778
1333 31
1333 674
1333 716
1334 116
1334 198
1334 736
1335 841
1335 842
1335 1079
1336 360
1336 636
1336 1150
1337 43
1337 436
1337 1037
1338 221
1338 353
1338 813
1339 44
1339 1125
1339 1180
1340 138
1340 419
1340 745
1341 204
1341 373
1341 749
1342 269
1342 554
1342 786
1343 910
1343 996
1343 1126
1344 179
1344 288
1344 821
1345 112
1345 296
1345 849
1346 119
1346 236
1346 387
1347 281
1347 979
1347 982
1348 457
1348 951
1348 1127
1349 324
1349 431
1349 767
1350 115
1350 930
1350 1074
1351 358
1351 560
1351 691
1352 370
1352 1012
1352 1153
1353 33
1353 741
1353 954
1354 858
1354 885
1354 1005
1355 21
1355 732
1355 893
1356 359
1356 923
1356 1025
1357 68
1357 339
1357 596
1358 321
1358 557
1358 610
1359 223
1359 1058
1359 1081
1360 534
1360 694
1360 1101
1361 207
1361 299
1361 958
1362 14
1362 365
1362 730
1363 42
1363 597
1363 599
1364 120
1364 903
1364 922
1365 37
1365 781
1365 966
1366 405
1366 748
1366 750
1367 36
1367 48
1367 621
1368 838
1368 975
1368 1128
1369 149
1369 279
1369 1133
1370 167
1370 682
1370 1147
1371 541
1371 961
1371 1078
1372 38
1372 445
1372 739
1373 372
1373 725
1373 995
1374 57
1374 79
1374 121
1375 293
1375 810
1375 906
1376 882
1376 945
1376 960
1377 64
1377 295
1377 962
1378 96
1378 394
1378 763
1379 400
1379 866
1379 1123
1380 65
1380 125
1380 213
1381 16
1381 34
1381 1051
1382 143
1382 871
1382 999
1383 889
1383 1086
1383 1106
1384 95
1384 108
1384 1098
1385 70
1385 396
1385 978
1386 132
1386 1052
1386 1178
1387 15
1387 260
1387 605
1388 542
1388 986
1388 1157
1389 92
1389 1021
1389 1060
1390 546
1390 1018
1390 1161
1391 77
1391 1107
1391 1152
1392 172
1392 367
1392 492
1393 184
1393 362
1393 843
1394 6
1394 84
1394 1020
1395 465
1395 861
1395 868
1396 111
1396 478
1396 586
1397 78
1397 438
1397 1190
1398 72
1398 547
1398 855
1399 520
1399 773
1399 902
1400 239
1400 688
1400 719
1401 22
1401 938
1401 1191
1402 241
1402 1070
1402 1124
1403 505
1403 804
1403 1066
1404 699
1404 757
1404 1083
1405 81
1405 607
1405 952
1406 23
1406 226
1406 307
1407 346
1407 447
1407 983
1408 355
1408 718
1408 764
1409 349
1409 798
1409 805
1410 577
1410 643
1410 880
1411 74
1411 675
1411 939
1412 240
1412 325
1412 514
1413 298
1413 608
1413 640
1414 317
1414 484
1414 1146
1415 384
1415 851
1415 1136
1416 265
1416 328
1416 428
1417 680
1417 912
1417 935
1418 901
1418 907
1418 1096
1419 341
1419 665
1419 1088
1420 677
1420 896
1420 919
1421 728
1421 1048
1421 1117
1422 439
1422 485
1422 848
1423 695
1423 1108
1423 1164
1424 410
1424 1014
1424 1024
1425 103
1425 425
1425 734
1426 3
1426 408
1426 422
1427 142
1427 613
1427 1009
1428 510
1428 887
1428 1001
1429 432
1429 1029
1429 1068
1430 518
1430 710
1430 809
1431 253
1431 437
1431 448
1432 466
1432 731
1432 1181
1433 201
1433 280
1433 762
1434 166
1434 578
1434 1031
1435 97
1435 454
1435 1135
1436 330
1436 609
1436 658
1437 434
1437 679
1437 1064
1438 645
1438 908
1438 1069
1439 509
1439 708
1439 1175
1440 7
1440 53
1440 564
1441 20
1441 73
1441 702
1442 565
1442 835
1442 916
1443 501
1443 784
1443 789
1444 46
1444 60
1444 216
1445 306
1445 765
1445 1129
1446 83
1446 528
1446 1110
1447 575
1447 794
1447 899
1448 648
1448 1090
1448 1140
1449 169
1449 760
1449 799
1450 397
1450 467
1450 511
1451 290
1451 1017
1451 1131
1452 106
1452 452
1452 796
1453 104
1453 515
1453 834
1454 705
1454 892
1454 932
1455 698
1455 769
1455 774
1456 61
1456 589
1456 933
1457 32
1457 1000
1457 1194
1458 266
1458 420
1458 1035
1459 249
1459 487
1459 690
1460 164
1460 738
1460 1057
1461 163
1461 186
1461 291
1462 165
1462 180
1462 202
1463 205
1463 837
1463 1043
1464 274
1464 727
1464 1053
1465 276
1465 326
1465 775
1466 318
1466 707
1466 846
1467 300
1467 777
1467 1013
1468 761
1468 1087
1468 1137
1469 302
1469 477
1469 481
1470 429
1470 1007
1470 1046
1471 58
1471 632
1471 744
1472 27
1472 90
1472 1183
1473 105
1473 161
1473 659
1474 614
1474 917
1474 1003
1475 337
1475 926
1475 992
1476 191
1476 617
1476 661
1477 82
1477 294
1477 571
1478 464
1478 863
1478 1173
1479 145
1479 162
1479 538
1480 4
1480 153
1480 417
1481 580
1481 1063
1481 1113
1482 255
1482 854
1482 898
1483 148
1483 322
1483 379
1484 472
1484 574
1484 1114
1485 80
1485 354
1485 965
1486 568
1486 696
1486 1174
1487 85
1487 469
1487 909
1488 127
1488 378
1488 678
1489 283
1489 878
1489 981
1490 488
1490 524
1490 1187
1491 523
1491 556
1491 845
1492 130
1492 638
1492 753
1493 189
1493 1019
1493 1154
1494 791
1494 913
1494 1061
1495 275
1495 826
1495 1104
1496 440
1496 463
1496 806
1497 537
1497 603
1497 881
1498 895
1498 947
1498 971
1499 267
1499 345
1499 772
1500 286
1500 427
1500 1130
1501 91
1501 210
1501 904
1502 442
1502 455
1502 1176
1503 536
1503 628
1503 1115
1504 262
1504 629
1504 722
1505 482
1505 584
1505 994
1506 590
1506 867
1506 876
1507 364
1507 616
1507 1084
1508 380
1508 526
1508 591
1509 506
1509 1054
1509 1148
1510 144
1510 512
1510 529
1511 8
1511 199
1511 865
1512 66
1512 929
1512 1034
1513 563
1513 973
1513 1022
1514 315
1514 1116
1514 1197
1515 157
1515 583
1515 624
1516 39
1516 827
1516 862
1517 662
1517 915
1517 1010
1518 206
1518 483
1518 711
1519 11
1519 644
1519 1095
1520 555
1520 780
1520 1118
1521 258
1521 331
1521 1026
1522 723
1522 953
1522 1188
1523 88
1523 409
1523 1165
1524 347
1524 502
1524 956
1525 320
1525 402
1525 585
1526 686
1526 873
1526 957
1527 67
1527 284
1527 412
1528 40
1528 415
1528 743
1529 159
1529 418
1529 461
1530 746
1530 758
1530 949
1531 71
1531 289
1531 1158
1532 35
1532 129
1532 782
1533 363
1533 377
1533 1027
1534 2
1534 860
1534 875
1535 86
1535 182
1535 194
1536 622
1536 931
1536 1042
1537 123
1537 225
1537 1170
1538 270
1538 401
1538 655
1539 435
1539 823
1539 839
1540 18
1540 133
1540 660
1541 54
1541 460
1541 500
1542 928
1542 1093
1542 1177
1543 671
1543 894
1543 1109
1544 259
1544 386
1544 620
1545 13
1545 248
1545 308
1546 178
1546 413
1546 937
1547 222
1547 344
1547 812
1548 134
1548 830
1548 1186
1549 561
1549 1076
1549 1162
1550 229
1550 595
1550 1030
1551 139
1551 366
1551 531
1552 200
1552 874
1552 977
1553 192
1553 416
1553 633
1554 147
1554 231
1554 1166
1555 126
1555 309
1555 792
1556 884
1556 886
1556 1100
1557 19
1557 790
1557 1071
1558 581
1558 668
1558 1050
1559 264
1559 507
1559 998
1560 824
1560 984
1560 1047
1561 0
1561 218
1561 989
1562 224
1562 689
1562 1045
1563 209
1563 519
1563 788
1564 69
1564 175
1564 797
1565 573
1565 697
1565 808
1566 493
1566 783
1566 1099
1567 311
1567 323
1567 637
1568 113
1568 498
1568 934
1569 504
1569 959
1569 1132
1570 177
1570 630
1570 877
1571 393
1571 544
1571 829
1572 486
1572 495
1572 641
1573 963
1573 1006
1573 1039
1574 89
1574 109
1574 967
1575 10
1575 168
1575 277
1576 76
1576 433
1576 1111
1577 403
1577 532
1577 647
1578 160
1578 219
1578 940
1579 47
1579 870
1579 1040
1580 888
1580 891
1580 974
1581 550
1581 1023
1581 1159
1582 173
1582 490
1582 517
1583 107
1583 667
1583 1016
1584 747
1584 921
1584 1103
1585 137
1585 195
1585 600
1586 151
1586 681
1586 1179
1587 63
1587 631
1587 1185
1588 117
1588 905
1588 1142
1589 45
1589 62
1589 342
1590 183
1590 819
1590 857
1591 28
1591 208
1591 1059
1592 193
1592 238
1592 980
1593 55
1593 131
1593 304
1594 232
1594 540
1594 1151
1595 350
1595 703
1595 879
1596 549
1596 724
1596 1193
1597 535
1597 709
1597 997
1598 156
1598 278
1598 411
1599 369
1599 604
1599 687
