960 640 1920
0 1
0 64
1 2
1 65
2 3
2 66
3 4
3 67
4 5
4 68
5 6
5 69
6 7
6 70
7 8
7 71
8 9
8 72
9 10
9 73
10 11
10 74
11 12
11 75
12 13
12 76
13 14
13 77
14 15
14 78
15 16
15 79
16 17
16 80
17 18
17 81
18 19
18 82
19 20
19 83
20 21
20 84
21 22
21 85
22 23
22 86
23 24
23 87
24 25
24 88
25 26
25 89
26 27
26 90
27 28
27 91
28 29
28 92
29 30
29 93
30 31
30 94
31 32
31 95
32 33
32 96
33 34
33 97
34 35
34 98
35 36
35 99
36 37
36 100
37 38
37 101
38 39
38 102
39 40
39 103
40 41
40 104
41 42
41 105
42 43
42 106
43 44
43 107
44 45
44 108
45 46
45 109
46 47
46 110
47 48
47 111
48 49
48 112
49 50
49 113
50 51
50 114
51 52
51 115
52 53
52 116
53 54
53 117
54 55
54 118
55 56
55 119
56 57
56 120
57 58
57 121
58 59
58 122
59 60
59 123
60 61
60 124
61 62
61 125
62 63
62 126
63 0
63 127
64 0
64 256
65 1
65 257
66 2
66 258
67 3
67 259
68 4
68 260
69 5
69 261
70 6
70 262
71 7
71 263
72 8
72 264
73 9
73 265
74 10
74 266
75 11
75 267
76 12
76 268
77 13
77 269
78 14
78 270
79 15
79 271
80 16
80 272
81 17
81 273
82 18
82 274
83 19
83 275
84 20
84 276
85 21
85 277
86 22
86 278
87 23
87 279
88 24
88 280
89 25
89 281
90 26
90 282
91 27
91 283
92 28
92 284
93 29
93 285
94 30
94 286
95 31
95 287
96 32
96 288
97 33
97 289
98 34
98 290
99 35
99 291
100 36
100 292
101 37
101 293
102 38
102 294
103 39
103 295
104 40
104 296
105 41
105 297
106 42
106 298
107 43
107 299
108 44
108 300
109 45
109 301
110 46
110 302
111 47
111 303
112 48
112 304
113 49
113 305
114 50
114 306
115 51
115 307
116 52
116 308
117 53
117 309
118 54
118 310
119 55
119 311
120 56
120 312
121 57
121 313
122 58
122 314
123 59
123 315
124 60
124 316
125 61
125 317
126 62
126 318
127 63
127 319
128 0
128 320
129 1
129 321
130 2
130 322
131 3
131 323
132 4
132 324
133 5
133 325
134 6
134 326
135 7
135 327
136 8
136 328
137 9
137 329
138 10
138 330
139 11
139 331
140 12
140 332
141 13
141 333
142 14
142 334
143 15
143 335
144 16
144 336
145 17
145 337
146 18
146 338
147 19
147 339
148 20
148 340
149 21
149 341
150 22
150 342
151 23
151 343
152 24
152 344
153 25
153 345
154 26
154 346
155 27
155 347
156 28
156 348
157 29
157 349
158 30
158 350
159 31
159 351
160 32
160 352
161 33
161 353
162 34
162 354
163 35
163 355
164 36
164 356
165 37
165 357
166 38
166 358
167 39
167 359
168 40
168 360
169 41
169 361
170 42
170 362
171 43
171 363
172 44
172 364
173 45
173 365
174 46
174 366
175 47
175 367
176 48
176 368
177 49
177 369
178 50
178 370
179 51
179 371
180 52
180 372
181 53
181 373
182 54
182 374
183 55
183 375
184 56
184 376
185 57
185 377
186 58
186 378
187 59
187 379
188 60
188 380
189 61
189 381
190 62
190 382
191 63
191 383
192 64
192 128
193 65
193 129
194 66
194 130
195 67
195 131
196 68
196 132
197 69
197 133
198 70
198 134
199 71
199 135
200 72
200 136
201 73
201 137
202 74
202 138
203 75
203 139
204 76
204 140
205 77
205 141
206 78
206 142
207 79
207 143
208 80
208 144
209 81
209 145
210 82
210 146
211 83
211 147
212 84
212 148
213 85
213 149
214 86
214 150
215 87
215 151
216 88
216 152
217 89
217 153
218 90
218 154
219 91
219 155
220 92
220 156
221 93
221 157
222 94
222 158
223 95
223 159
224 96
224 160
225 97
225 161
226 98
226 162
227 99
227 163
228 100
228 164
229 101
229 165
230 102
230 166
231 103
231 167
232 104
232 168
233 105
233 169
234 106
234 170
235 107
235 171
236 108
236 172
237 109
237 173
238 110
238 174
239 111
239 175
240 112
240 176
241 113
241 177
242 114
242 178
243 115
243 179
244 116
244 180
245 117
245 181
246 118
246 182
247 119
247 183
248 120
248 184
249 121
249 185
250 122
250 186
251 123
251 187
252 124
252 188
253 125
253 189
254 126
254 190
255 127
255 191
256 64
256 384
257 65
257 385
258 66
258 386
259 67
259 387
260 68
260 388
261 69
261 389
262 70
262 390
263 71
263 391
264 72
264 392
265 73
265 393
266 74
266 394
267 75
267 395
268 76
268 396
269 77
269 397
270 78
270 398
271 79
271 399
272 80
272 400
273 81
273 401
274 82
274 402
275 83
275 403
276 84
276 404
277 85
277 405
278 86
278 406
279 87
279 407
280 88
280 408
281 89
281 409
282 90
282 410
283 91
283 411
284 92
284 412
285 93
285 413
286 94
286 414
287 95
287 415
288 96
288 416
289 97
289 417
290 98
290 418
291 99
291 419
292 100
292 420
293 101
293 421
294 102
294 422
295 103
295 423
296 104
296 424
297 105
297 425
298 106
298 426
299 107
299 427
300 108
300 428
301 109
301 429
302 110
302 430
303 111
303 431
304 112
304 432
305 113
305 433
306 114
306 434
307 115
307 435
308 116
308 436
309 117
309 437
310 118
310 438
311 119
311 439
312 120
312 440
313 121
313 441
314 122
314 442
315 123
315 443
316 124
316 444
317 125
317 445
318 126
318 446
319 127
319 447
320 128
320 192
321 129
321 193
322 130
322 194
323 131
323 195
324 132
324 196
325 133
325 197
326 134
326 198
327 135
327 199
328 136
328 200
329 137
329 201
330 138
330 202
331 139
331 203
332 140
332 204
333 141
333 205
334 142
334 206
335 143
335 207
336 144
336 208
337 145
337 209
338 146
338 210
339 147
339 211
340 148
340 212
341 149
341 213
342 150
342 214
343 151
343 215
344 152
344 216
345 153
345 217
346 154
346 218
347 155
347 219
348 156
348 220
349 157
349 221
350 158
350 222
351 159
351 223
352 160
352 224
353 161
353 225
354 162
354 226
355 163
355 227
356 164
356 228
357 165
357 229
358 166
358 230
359 167
359 231
360 168
360 232
361 169
361 233
362 170
362 234
363 171
363 235
364 172
364 236
365 173
365 237
366 174
366 238
367 175
367 239
368 176
368 240
369 177
369 241
370 178
370 242
371 179
371 243
372 180
372 244
373 181
373 245
374 182
374 246
375 183
375 247
376 184
376 248
377 185
377 249
378 186
378 250
379 187
379 251
380 188
380 252
381 189
381 253
382 190
382 254
383 191
383 255
384 128
384 448
385 129
385 449
386 130
386 450
387 131
387 451
388 132
388 452
389 133
389 453
390 134
390 454
391 135
391 455
392 136
392 456
393 137
393 457
394 138
394 458
395 139
395 459
396 140
396 460
397 141
397 461
398 142
398 462
399 143
399 463
400 144
400 464
401 145
401 465
402 146
402 466
403 147
403 467
404 148
404 468
405 149
405 469
406 150
406 470
407 151
407 471
408 152
408 472
409 153
409 473
410 154
410 474
411 155
411 475
412 156
412 476
413 157
413 477
414 158
414 478
415 159
415 479
416 160
416 480
417 161
417 481
418 162
418 482
419 163
419 483
420 164
420 484
421 165
421 485
422 166
422 486
423 167
423 487
424 168
424 488
425 169
425 489
426 170
426 490
427 171
427 491
428 172
428 492
429 173
429 493
430 174
430 494
431 175
431 495
432 176
432 496
433 177
433 497
434 178
434 498
435 179
435 499
436 180
436 500
437 181
437 501
438 182
438 502
439 183
439 503
440 184
440 504
441 185
441 505
442 186
442 506
443 187
443 507
444 188
444 508
445 189
445 509
446 190
446 510
447 191
447 511
448 192
448 256
449 193
449 257
450 194
450 258
451 195
451 259
452 196
452 260
453 197
453 261
454 198
454 262
455 199
455 263
456 200
456 264
457 201
457 265
458 202
458 266
459 203
459 267
460 204
460 268
461 205
461 269
462 206
462 270
463 207
463 271
464 208
464 272
465 209
465 273
466 210
466 274
467 211
467 275
468 212
468 276
469 213
469 277
470 214
470 278
471 215
471 279
472 216
472 280
473 217
473 281
474 218
474 282
475 219
475 283
476 220
476 284
477 221
477 285
478 222
478 286
479 223
479 287
480 224
480 288
481 225
481 289
482 226
482 290
483 227
483 291
484 228
484 292
485 229
485 293
486 230
486 294
487 231
487 295
488 232
488 296
489 233
489 297
490 234
490 298
491 235
491 299
492 236
492 300
493 237
493 301
494 238
494 302
495 239
495 303
496 240
496 304
497 241
497 305
498 242
498 306
499 243
499 307
500 244
500 308
501 245
501 309
502 246
502 310
503 247
503 311
504 248
504 312
505 249
505 313
506 250
506 314
507 251
507 315
508 252
508 316
509 253
509 317
510 254
510 318
511 255
511 319
512 192
512 512
513 193
513 513
514 194
514 514
515 195
515 515
516 196
516 516
517 197
517 517
518 198
518 518
519 199
519 519
520 200
520 520
521 201
521 521
522 202
522 522
523 203
523 523
524 204
524 524
525 205
525 525
526 206
526 526
527 207
527 527
528 208
528 528
529 209
529 529
530 210
530 530
531 211
531 531
532 212
532 532
533 213
533 533
534 214
534 534
535 215
535 535
536 216
536 536
537 217
537 537
538 218
538 538
539 219
539 539
540 220
540 540
541 221
541 541
542 222
542 542
543 223
543 543
544 224
544 544
545 225
545 545
546 226
546 546
547 227
547 547
548 228
548 548
549 229
549 549
550 230
550 550
551 231
551 551
552 232
552 552
553 233
553 553
554 234
554 554
555 235
555 555
556 236
556 556
557 237
557 557
558 238
558 558
559 239
559 559
560 240
560 560
561 241
561 561
562 242
562 562
563 243
563 563
564 244
564 564
565 245
565 565
566 246
566 566
567 247
567 567
568 248
568 568
569 249
569 569
570 250
570 570
571 251
571 571
572 252
572 572
573 253
573 573
574 254
574 574
575 255
575 575
576 256
576 576
577 257
577 577
578 258
578 578
579 259
579 579
580 260
580 580
581 261
581 581
582 262
582 582
583 263
583 583
584 264
584 584
585 265
585 585
586 266
586 586
587 267
587 587
588 268
588 588
589 269
589 589
590 270
590 590
591 271
591 591
592 272
592 592
593 273
593 593
594 274
594 594
595 275
595 595
596 276
596 596
597 277
597 597
598 278
598 598
599 279
599 599
600 280
600 600
601 281
601 601
602 282
602 602
603 283
603 603
604 284
604 604
605 285
605 605
606 286
606 606
607 287
607 607
608 288
608 608
609 289
609 609
610 290
610 610
611 291
611 611
612 292
612 612
613 293
613 613
614 294
614 614
615 295
615 615
616 296
616 616
617 297
617 617
618 298
618 618
619 299
619 619
620 300
620 620
621 301
621 621
622 302
622 622
623 303
623 623
624 304
624 624
625 305
625 625
626 306
626 626
627 307
627 627
628 308
628 628
629 309
629 629
630 310
630 630
631 311
631 631
632 312
632 632
633 313
633 633
634 314
634 634
635 315
635 635
636 316
636 636
637 317
637 637
638 318
638 638
639 319
639 639
640 320
640 448
641 321
641 449
642 322
642 450
643 323
643 451
644 324
644 452
645 325
645 453
646 326
646 454
647 327
647 455
648 328
648 456
649 329
649 457
650 330
650 458
651 331
651 459
652 332
652 460
653 333
653 461
654 334
654 462
655 335
655 463
656 336
656 464
657 337
657 465
658 338
658 466
659 339
659 467
660 340
660 468
661 341
661 469
662 342
662 470
663 343
663 471
664 344
664 472
665 345
665 473
666 346
666 474
667 347
667 475
668 348
668 476
669 349
669 477
670 350
670 478
671 351
671 479
672 352
672 480
673 353
673 481
674 354
674 482
675 355
675 483
676 356
676 484
677 357
677 485
678 358
678 486
679 359
679 487
680 360
680 488
681 361
681 489
682 362
682 490
683 363
683 491
684 364
684 492
685 365
685 493
686 366
686 494
687 367
687 495
688 368
688 496
689 369
689 497
690 370
690 498
691 371
691 499
692 372
692 500
693 373
693 501
694 374
694 502
695 375
695 503
696 376
696 504
697 377
697 505
698 378
698 506
699 379
699 507
700 380
700 508
701 381
701 509
702 382
702 510
703 383
703 511
704 320
704 512
705 321
705 513
706 322
706 514
707 323
707 515
708 324
708 516
709 325
709 517
710 326
710 518
711 327
711 519
712 328
712 520
713 329
713 521
714 330
714 522
715 331
715 523
716 332
716 524
717 333
717 525
718 334
718 526
719 335
719 527
720 336
720 528
721 337
721 529
722 338
722 530
723 339
723 531
724 340
724 532
725 341
725 533
726 342
726 534
727 343
727 535
728 344
728 536
729 345
729 537
730 346
730 538
731 347
731 539
732 348
732 540
733 349
733 541
734 350
734 542
735 351
735 543
736 352
736 544
737 353
737 545
738 354
738 546
739 355
739 547
740 356
740 548
741 357
741 549
742 358
742 550
743 359
743 551
744 360
744 552
745 361
745 553
746 362
746 554
747 363
747 555
748 364
748 556
749 365
749 557
750 366
750 558
751 367
751 559
752 368
752 560
753 369
753 561
754 370
754 562
755 371
755 563
756 372
756 564
757 373
757 565
758 374
758 566
759 375
759 567
760 376
760 568
761 377
761 569
762 378
762 570
763 379
763 571
764 380
764 572
765 381
765 573
766 382
766 574
767 383
767 575
768 384
768 512
769 385
769 513
770 386
770 514
771 387
771 515
772 388
772 516
773 389
773 517
774 390
774 518
775 391
775 519
776 392
776 520
777 393
777 521
778 394
778 522
779 395
779 523
780 396
780 524
781 397
781 525
782 398
782 526
783 399
783 527
784 400
784 528
785 401
785 529
786 402
786 530
787 403
787 531
788 404
788 532
789 405
789 533
790 406
790 534
791 407
791 535
792 408
792 536
793 409
793 537
794 410
794 538
795 411
795 539
796 412
796 540
797 413
797 541
798 414
798 542
799 415
799 543
800 416
800 544
801 417
801 545
802 418
802 546
803 419
803 547
804 420
804 548
805 421
805 549
806 422
806 550
807 423
807 551
808 424
808 552
809 425
809 553
810 426
810 554
811 427
811 555
812 428
812 556
813 429
813 557
814 430
814 558
815 431
815 559
816 432
816 560
817 433
817 561
818 434
818 562
819 435
819 563
820 436
820 564
821 437
821 565
822 438
822 566
823 439
823 567
824 440
824 568
825 441
825 569
826 442
826 570
827 443
827 571
828 444
828 572
829 445
829 573
830 446
830 574
831 447
831 575
832 384
832 576
833 385
833 577
834 386
834 578
835 387
835 579
836 388
836 580
837 389
837 581
838 390
838 582
839 391
839 583
840 392
840 584
841 393
841 585
842 394
842 586
843 395
843 587
844 396
844 588
845 397
845 589
846 398
846 590
847 399
847 591
848 400
848 592
849 401
849 593
850 402
850 594
851 403
851 595
852 404
852 596
853 405
853 597
854 406
854 598
855 407
855 599
856 408
856 600
857 409
857 601
858 410
858 602
859 411
859 603
860 412
860 604
861 413
861 605
862 414
862 606
863 415
863 607
864 416
864 608
865 417
865 609
866 418
866 610
867 419
867 611
868 420
868 612
869 421
869 613
870 422
870 614
871 423
871 615
872 424
872 616
873 425
873 617
874 426
874 618
875 427
875 619
876 428
876 620
877 429
877 621
878 430
878 622
879 431
879 623
880 432
880 624
881 433
881 625
882 434
882 626
883 435
883 627
884 436
884 628
885 437
885 629
886 438
886 630
887 439
887 631
888 440
888 632
889 441
889 633
890 442
890 634
891 443
891 635
892 444
892 636
893 445
893 637
894 446
894 638
895 447
895 639
896 448
896 576
897 449
897 577
898 450
898 578
899 451
899 579
900 452
900 580
901 453
901 581
902 454
902 582
903 455
903 583
904 456
904 584
905 457
905 585
906 458
906 586
907 459
907 587
908 460
908 588
909 461
909 589
910 462
910 590
911 463
911 591
912 464
912 592
913 465
913 593
914 466
914 594
915 467
915 595
916 468
916 596
917 469
917 597
918 470
918 598
919 471
919 599
920 472
920 600
921 473
921 601
922 474
922 602
923 475
923 603
924 476
924 604
925 477
925 605
926 478
926 606
927 479
927 607
928 480
928 608
929 481
929 609
930 482
930 610
931 483
931 611
932 484
932 612
933 485
933 613
934 486
934 614
935 487
935 615
936 488
936 616
937 489
937 617
938 490
938 618
939 491
939 619
940 492
940 620
941 493
941 621
942 494
942 622
943 495
943 623
944 496
944 624
945 497
945 625
946 498
946 626
947 499
947 627
948 500
948 628
949 501
949 629
950 502
950 630
951 503
951 631
952 504
952 632
953 505
953 633
954 506
954 634
955 507
955 635
956 508
956 636
957 509
957 637
958 510
958 638
959 511
959 639
