1200 600 4800
0 76
0 111
0 414
0 471
1 6
1 315
1 326
1 329
2 103
2 272
2 450
2 563
3 149
3 492
3 527
3 582
4 56
4 432
4 465
4 474
5 191
5 206
5 243
5 473
6 8
6 126
6 199
6 263
7 135
7 365
7 385
7 422
8 90
8 285
8 331
8 560
9 66
9 207
9 384
9 562
10 65
10 281
10 288
10 314
11 44
11 398
11 428
11 461
12 92
12 234
12 425
12 517
13 43
13 82
13 246
13 374
14 61
14 123
14 160
14 316
15 142
15 310
15 551
15 570
16 83
16 161
16 190
16 578
17 21
17 195
17 457
17 472
18 254
18 289
18 318
18 385
19 280
19 291
19 301
19 574
20 47
20 95
20 293
20 529
21 10
21 184
21 291
21 435
22 138
22 394
22 414
22 456
23 70
23 74
23 455
23 500
24 82
24 137
24 192
24 369
25 114
25 124
25 177
25 287
26 84
26 351
26 457
26 534
27 117
27 132
27 133
27 297
28 100
28 131
28 468
28 550
29 121
29 298
29 564
29 567
30 49
30 265
30 376
30 448
31 39
31 348
31 390
31 495
32 116
32 249
32 321
32 395
33 231
33 271
33 450
33 549
34 193
34 262
34 473
34 596
35 138
35 157
35 562
35 588
36 181
36 231
36 312
36 494
37 361
37 409
37 427
37 492
38 23
38 302
38 311
38 581
39 180
39 243
39 382
39 454
40 28
40 74
40 329
40 361
41 0
41 15
41 27
41 283
42 10
42 122
42 175
42 253
43 94
43 326
43 422
43 571
44 126
44 351
44 465
44 585
45 419
45 421
45 469
45 568
46 29
46 145
46 274
46 508
47 96
47 382
47 394
47 405
48 142
48 290
48 333
48 557
49 60
49 271
49 332
49 503
50 138
50 206
50 224
50 260
51 384
51 394
51 495
51 565
52 16
52 246
52 434
52 536
53 140
53 293
53 380
53 441
54 96
54 149
54 161
54 270
55 232
55 346
55 496
55 548
56 173
56 298
56 554
56 582
57 129
57 256
57 392
57 522
58 172
58 232
58 521
58 527
59 32
59 97
59 186
59 493
60 191
60 467
60 507
60 572
61 12
61 43
61 54
61 313
62 132
62 173
62 386
62 402
63 174
63 248
63 271
63 505
64 75
64 249
64 251
64 482
65 105
65 163
65 261
65 598
66 5
66 201
66 280
66 305
67 24
67 215
67 356
67 501
68 90
68 178
68 408
68 538
69 58
69 200
69 485
69 543
70 241
70 330
70 392
70 464
71 55
71 182
71 224
71 252
72 113
72 232
72 233
72 428
73 13
73 23
73 312
73 416
74 17
74 94
74 162
74 355
75 182
75 196
75 489
75 583
76 19
76 25
76 100
76 320
77 182
77 272
77 510
77 589
78 57
78 78
78 146
78 521
79 85
79 255
79 307
79 411
80 5
80 40
80 360
80 403
81 105
81 237
81 274
81 593
82 138
82 140
82 279
82 599
83 409
83 415
83 471
83 542
84 76
84 275
84 291
84 530
85 121
85 448
85 501
85 578
86 373
86 425
86 504
86 587
87 3
87 232
87 294
87 367
88 72
88 102
88 131
88 437
89 424
89 455
89 574
89 577
90 77
90 150
90 325
90 423
91 213
91 347
91 397
91 512
92 39
92 167
92 499
92 544
93 120
93 136
93 168
93 303
94 73
94 357
94 528
94 577
95 0
95 125
95 191
95 413
96 266
96 321
96 469
96 510
97 22
97 28
97 347
97 497
98 11
98 163
98 406
98 580
99 155
99 295
99 423
99 459
100 162
100 179
100 208
100 366
101 49
101 107
101 192
101 337
102 121
102 123
102 308
102 386
103 85
103 87
103 282
103 431
104 68
104 300
104 546
104 555
105 38
105 340
105 393
105 400
106 75
106 280
106 391
106 477
107 81
107 270
107 284
107 380
108 189
108 196
108 310
108 446
109 16
109 156
109 273
109 303
110 27
110 261
110 478
110 594
111 9
111 248
111 477
111 503
112 274
112 350
112 428
112 464
113 18
113 149
113 260
113 461
114 15
114 31
114 171
114 177
115 35
115 112
115 333
115 383
116 4
116 203
116 541
116 571
117 203
117 222
117 251
117 586
118 131
118 566
118 579
118 594
119 18
119 55
119 222
119 357
120 61
120 89
120 202
120 410
121 62
121 122
121 131
121 499
122 210
122 272
122 403
122 575
123 4
123 28
123 55
123 386
124 72
124 182
124 360
124 513
125 185
125 205
125 467
125 498
126 167
126 178
126 277
126 429
127 256
127 259
127 282
127 422
128 171
128 334
128 345
128 427
129 126
129 170
129 454
129 470
130 7
130 296
130 456
130 596
131 89
131 181
131 475
131 511
132 33
132 92
132 239
132 465
133 200
133 284
133 473
133 518
134 29
134 47
134 169
134 413
135 400
135 410
135 465
135 567
136 255
136 257
136 368
136 370
137 107
137 318
137 362
137 391
138 319
138 363
138 475
138 571
139 31
139 422
139 501
139 580
140 106
140 186
140 474
140 519
141 52
141 211
141 373
141 432
142 87
142 245
142 408
142 419
143 52
143 162
143 199
143 499
144 101
144 145
144 349
144 539
145 42
145 113
145 235
145 511
146 86
146 249
146 411
146 577
147 86
147 112
147 284
147 363
148 171
148 242
148 451
148 500
149 133
149 181
149 183
149 508
150 320
150 417
150 418
150 443
151 10
151 43
151 79
151 550
152 99
152 224
152 445
152 474
153 37
153 62
153 461
153 470
154 275
154 317
154 476
154 590
155 9
155 101
155 276
155 591
156 63
156 238
156 531
156 584
157 230
157 267
157 280
157 500
158 3
158 194
158 267
158 426
159 0
159 25
159 485
159 557
160 68
160 101
160 125
160 576
161 58
161 90
161 162
161 470
162 97
162 131
162 195
162 197
163 486
163 493
163 553
163 561
164 6
164 26
164 59
164 142
165 125
165 177
165 284
165 397
166 188
166 233
166 487
166 517
167 172
167 334
167 374
167 494
168 177
168 276
168 278
168 470
169 194
169 280
169 294
169 423
170 322
170 352
170 403
170 528
171 50
171 287
171 460
171 534
172 134
172 411
172 419
172 556
173 29
173 34
173 386
173 540
174 204
174 346
174 398
174 591
175 153
175 248
175 414
175 518
176 74
176 250
176 369
176 479
177 222
177 223
177 292
177 464
178 31
178 243
178 248
178 417
179 167
179 280
179 480
179 551
180 24
180 375
180 447
180 483
181 96
181 166
181 229
181 483
182 0
182 70
182 98
182 435
183 158
183 216
183 487
183 537
184 302
184 365
184 450
184 515
185 132
185 197
185 517
185 558
186 326
186 382
186 503
186 568
187 82
187 107
187 207
187 376
188 288
188 463
188 470
188 497
189 37
189 83
189 196
189 422
190 186
190 387
190 466
190 525
191 225
191 226
191 360
191 467
192 335
192 350
192 441
192 449
193 2
193 13
193 254
193 455
194 209
194 283
194 425
194 540
195 99
195 249
195 328
195 440
196 100
196 269
196 279
196 430
197 65
197 177
197 296
197 421
198 22
198 105
198 263
198 417
199 205
199 230
199 401
199 413
200 265
200 389
200 424
200 426
201 85
201 138
201 155
201 227
202 50
202 176
202 234
202 434
203 267
203 304
203 306
203 358
204 62
204 395
204 404
204 472
205 221
205 306
205 322
205 545
206 7
206 386
206 435
206 462
207 45
207 134
207 303
207 587
208 28
208 141
208 212
208 547
209 17
209 172
209 184
209 383
210 12
210 318
210 525
210 530
211 51
211 164
211 190
211 258
212 16
212 296
212 460
212 549
213 229
213 412
213 437
213 485
214 147
214 165
214 311
214 420
215 3
215 239
215 299
215 403
216 5
216 36
216 282
216 519
217 38
217 152
217 261
217 286
218 269
218 422
218 468
218 549
219 180
219 365
219 436
219 506
220 53
220 338
220 394
220 571
221 355
221 371
221 568
221 576
222 85
222 379
222 487
222 597
223 54
223 326
223 392
223 426
224 123
224 310
224 359
224 499
225 170
225 189
225 328
225 465
226 3
226 28
226 163
226 229
227 50
227 54
227 77
227 571
228 0
228 372
228 399
228 586
229 57
229 71
229 257
229 341
230 33
230 127
230 282
230 356
231 117
231 220
231 227
231 594
232 160
232 252
232 436
232 539
233 46
233 336
233 541
233 574
234 265
234 438
234 478
234 521
235 36
235 98
235 111
235 250
236 8
236 304
236 438
236 562
237 11
237 148
237 172
237 548
238 147
238 179
238 229
238 541
239 3
239 181
239 202
239 518
240 194
240 302
240 488
240 587
241 430
241 449
241 491
241 587
242 13
242 264
242 279
242 405
243 137
243 218
243 444
243 597
244 16
244 46
244 163
244 363
245 12
245 71
245 236
245 376
246 80
246 325
246 400
246 482
247 146
247 188
247 250
247 367
248 120
248 185
248 189
248 512
249 90
249 371
249 420
249 498
250 184
250 273
250 501
250 568
251 162
251 344
251 547
251 592
252 237
252 281
252 474
252 537
253 16
253 36
253 346
253 552
254 175
254 312
254 444
254 530
255 148
255 300
255 405
255 480
256 167
256 263
256 414
256 533
257 132
257 411
257 511
257 560
258 159
258 180
258 311
258 339
259 1
259 304
259 446
259 555
260 90
260 309
260 460
260 583
261 0
261 253
261 271
261 293
262 100
262 181
262 238
262 575
263 163
263 218
263 303
263 592
264 44
264 166
264 180
264 278
265 79
265 348
265 395
265 416
266 92
266 435
266 442
266 559
267 76
267 289
267 348
267 514
268 122
268 389
268 431
268 484
269 100
269 317
269 370
269 404
270 58
270 73
270 323
270 480
271 190
271 226
271 429
271 493
272 26
272 35
272 44
272 264
273 59
273 64
273 218
273 243
274 20
274 324
274 467
274 502
275 7
275 226
275 381
275 449
276 252
276 308
276 373
276 414
277 94
277 238
277 532
277 570
278 3
278 193
278 292
278 397
279 204
279 219
279 442
279 574
280 72
280 264
280 357
280 359
281 4
281 116
281 507
281 532
282 306
282 504
282 511
282 584
283 265
283 284
283 513
283 597
284 281
284 412
284 430
284 458
285 106
285 342
285 425
285 427
286 67
286 101
286 302
286 326
287 177
287 219
287 223
287 579
288 40
288 275
288 538
288 583
289 41
289 118
289 153
289 487
290 11
290 39
290 76
290 93
291 35
291 99
291 130
291 399
292 42
292 43
292 240
292 545
293 2
293 207
293 283
293 548
294 80
294 362
294 585
294 598
295 63
295 129
295 156
295 381
296 255
296 316
296 524
296 539
297 149
297 357
297 424
297 562
298 42
298 93
298 146
298 197
299 4
299 128
299 276
299 432
300 71
300 133
300 211
300 256
301 31
301 49
301 121
301 227
302 65
302 263
302 342
302 532
303 30
303 334
303 368
303 598
304 42
304 164
304 282
304 393
305 121
305 127
305 293
305 506
306 15
306 128
306 381
306 409
307 115
307 258
307 298
307 476
308 88
308 505
308 531
308 595
309 118
309 205
309 228
309 516
310 29
310 94
310 216
310 535
311 46
311 269
311 308
311 503
312 176
312 246
312 425
312 500
313 144
313 419
313 514
313 549
314 346
314 419
314 442
314 521
315 55
315 202
315 241
315 272
316 284
316 293
316 358
316 517
317 135
317 234
317 562
317 582
318 208
318 361
318 445
318 599
319 83
319 349
319 406
319 556
320 260
320 292
320 366
320 492
321 2
321 399
321 469
321 471
322 53
322 164
322 339
322 504
323 106
323 253
323 486
323 516
324 4
324 187
324 223
324 304
325 53
325 219
325 384
325 417
326 152
326 313
326 342
326 445
327 44
327 317
327 459
327 558
328 204
328 213
328 288
328 381
329 128
329 175
329 230
329 541
330 107
330 197
330 254
330 584
331 53
331 136
331 287
331 364
332 229
332 346
332 447
332 497
333 56
333 66
333 374
333 533
334 86
334 497
334 531
334 571
335 6
335 126
335 148
335 244
336 205
336 212
336 397
336 466
337 167
337 439
337 563
337 575
338 344
338 347
338 490
338 552
339 9
339 148
339 459
339 585
340 74
340 116
340 349
340 386
341 90
341 434
341 474
341 523
342 60
342 80
342 329
342 352
343 270
343 274
343 563
343 590
344 55
344 152
344 269
344 459
345 340
345 354
345 390
345 447
346 282
346 438
346 507
346 544
347 231
347 307
347 381
347 462
348 110
348 190
348 252
348 256
349 88
349 195
349 345
349 588
350 150
350 424
350 476
350 484
351 141
351 231
351 235
351 408
352 74
352 112
352 190
352 372
353 337
353 413
353 423
353 547
354 21
354 203
354 306
354 439
355 7
355 153
355 417
355 424
356 250
356 254
356 330
356 475
357 40
357 140
357 230
357 343
358 103
358 175
358 282
358 332
359 294
359 398
359 406
359 506
360 30
360 133
360 238
360 362
361 389
361 457
361 461
361 572
362 185
362 314
362 448
362 557
363 113
363 306
363 467
363 480
364 104
364 107
364 243
364 466
365 19
365 28
365 223
365 415
366 158
366 199
366 209
366 410
367 88
367 186
367 272
367 382
368 60
368 243
368 297
368 524
369 52
369 109
369 175
369 258
370 278
370 294
370 364
370 414
371 221
371 345
371 440
371 484
372 193
372 283
372 439
372 572
373 35
373 248
373 395
373 591
374 37
374 206
374 441
374 503
375 63
375 120
375 270
375 383
376 117
376 197
376 215
376 448
377 54
377 194
377 249
377 388
378 479
378 515
378 533
378 575
379 253
379 547
379 564
379 575
380 78
380 242
380 416
380 573
381 138
381 424
381 470
381 512
382 17
382 174
382 190
382 333
383 242
383 327
383 406
383 543
384 120
384 225
384 231
384 586
385 323
385 462
385 505
385 550
386 122
386 170
386 176
386 536
387 72
387 298
387 389
387 592
388 236
388 439
388 486
388 504
389 203
389 209
389 315
389 479
390 48
390 169
390 502
390 547
391 150
391 247
391 384
391 560
392 25
392 56
392 86
392 455
393 250
393 262
393 488
393 531
394 119
394 126
394 314
394 573
395 218
395 445
395 463
395 582
396 191
396 210
396 462
396 570
397 7
397 14
397 149
397 251
398 228
398 363
398 521
398 598
399 254
399 468
399 471
399 522
400 26
400 301
400 467
400 501
401 84
401 166
401 481
401 570
402 38
402 136
402 328
402 515
403 180
403 299
403 473
403 513
404 23
404 225
404 453
404 580
405 115
405 296
405 453
405 479
406 6
406 91
406 305
406 587
407 88
407 253
407 391
407 572
408 191
408 386
408 513
408 591
409 106
409 215
409 246
409 492
410 208
410 304
410 327
410 433
411 237
411 300
411 424
411 557
412 11
412 38
412 301
412 485
413 81
413 473
413 499
413 508
414 320
414 374
414 375
414 559
415 110
415 172
415 357
415 449
416 261
416 299
416 433
416 558
417 9
417 222
417 449
417 578
418 125
418 166
418 553
418 585
419 120
419 314
419 432
419 491
420 60
420 135
420 300
420 487
421 59
421 70
421 259
421 391
422 14
422 54
422 264
422 471
423 37
423 114
423 414
423 523
424 130
424 172
424 347
424 583
425 26
425 266
425 471
425 539
426 137
426 337
426 358
426 403
427 139
427 283
427 289
427 360
428 58
428 78
428 560
428 588
429 119
429 483
429 563
429 566
430 286
430 305
430 393
430 478
431 154
431 201
431 493
431 511
432 14
432 69
432 108
432 402
433 194
433 277
433 542
433 586
434 32
434 267
434 271
434 327
435 140
435 224
435 372
435 585
436 91
436 102
436 123
436 147
437 145
437 212
437 402
437 480
438 261
438 306
438 529
438 550
439 36
439 122
439 517
439 581
440 130
440 274
440 315
440 469
441 66
441 272
441 472
441 522
442 434
442 513
442 519
442 537
443 365
443 398
443 460
443 520
444 80
444 84
444 165
444 339
445 215
445 286
445 369
445 428
446 108
446 333
446 412
446 413
447 89
447 344
447 555
447 575
448 2
448 188
448 420
448 502
449 121
449 394
449 452
449 458
450 161
450 474
450 515
450 569
451 26
451 29
451 50
451 95
452 6
452 355
452 496
452 540
453 64
453 187
453 241
453 338
454 168
454 307
454 528
454 584
455 75
455 120
455 514
455 553
456 66
456 292
456 333
456 411
457 26
457 245
457 411
457 558
458 143
458 302
458 358
458 380
459 50
459 264
459 412
459 592
460 61
460 77
460 162
460 171
461 27
461 201
461 345
461 459
462 2
462 105
462 437
462 579
463 130
463 143
463 164
463 308
464 124
464 169
464 216
464 419
465 15
465 57
465 354
465 464
466 79
466 152
466 407
466 463
467 73
467 157
467 199
467 338
468 116
468 344
468 436
468 564
469 66
469 129
469 365
469 427
470 110
470 429
470 482
470 587
471 147
471 225
471 404
471 556
472 350
472 358
472 435
472 488
473 280
473 312
473 364
473 407
474 353
474 485
474 532
474 538
475 218
475 378
475 420
475 426
476 91
476 130
476 242
476 271
477 87
477 285
477 393
477 436
478 75
478 352
478 421
478 497
479 143
479 158
479 323
479 556
480 244
480 269
480 354
480 453
481 123
481 166
481 197
481 207
482 36
482 210
482 324
482 533
483 187
483 265
483 380
483 520
484 96
484 282
484 340
484 360
485 75
485 89
485 351
485 379
486 158
486 177
486 258
486 497
487 85
487 161
487 199
487 536
488 195
488 279
488 423
488 535
489 254
489 337
489 398
489 544
490 2
490 8
490 34
490 552
491 76
491 207
491 350
491 456
492 241
492 336
492 390
492 569
493 165
493 258
493 446
493 538
494 152
494 216
494 450
494 551
495 107
495 378
495 462
495 489
496 113
496 195
496 443
496 581
497 131
497 174
497 281
497 529
498 80
498 133
498 419
498 547
499 131
499 151
499 213
499 241
500 142
500 171
500 266
500 393
501 157
501 398
501 470
501 569
502 47
502 268
502 427
502 451
503 101
503 213
503 239
503 486
504 145
504 183
504 227
504 511
505 95
505 123
505 377
505 456
506 89
506 245
506 350
506 372
507 132
507 220
507 553
507 590
508 42
508 440
508 559
508 599
509 300
509 368
509 410
509 498
510 335
510 368
510 400
510 533
511 135
511 214
511 269
511 341
512 1
512 129
512 259
512 335
513 51
513 149
513 437
513 561
514 124
514 137
514 501
514 527
515 3
515 92
515 298
515 527
516 50
516 158
516 184
516 334
517 134
517 155
517 366
517 401
518 276
518 277
518 319
518 577
519 240
519 368
519 513
519 562
520 97
520 206
520 347
520 401
521 116
521 199
521 222
521 442
522 5
522 237
522 576
522 591
523 127
523 135
523 285
523 415
524 193
524 387
524 515
524 574
525 211
525 361
525 382
525 433
526 51
526 169
526 198
526 289
527 94
527 131
527 224
527 444
528 194
528 330
528 469
528 477
529 78
529 225
529 317
529 519
530 17
530 150
530 244
530 320
531 146
531 381
531 495
531 561
532 13
532 95
532 485
532 512
533 78
533 295
533 458
533 567
534 143
534 156
534 328
534 385
535 100
535 108
535 290
535 316
536 11
536 250
536 313
536 368
537 410
537 416
537 460
537 558
538 23
538 367
538 413
538 430
539 77
539 236
539 355
539 542
540 18
540 200
540 285
540 421
541 83
541 176
541 309
541 362
542 97
542 278
542 455
542 545
543 45
543 94
543 268
543 583
544 1
544 81
544 93
544 196
545 132
545 144
545 198
545 423
546 246
546 266
546 387
546 417
547 129
547 379
547 409
547 511
548 7
548 136
548 179
548 415
549 21
549 168
549 189
549 319
550 155
550 344
550 430
550 567
551 152
551 239
551 364
551 563
552 146
552 195
552 490
552 592
553 93
553 161
553 566
553 580
554 99
554 335
554 338
554 356
555 42
555 369
555 419
555 455
556 251
556 304
556 386
556 525
557 65
557 160
557 472
557 499
558 144
558 200
558 259
558 456
559 73
559 102
559 485
559 551
560 176
560 289
560 468
560 469
561 217
561 271
561 349
561 359
562 14
562 29
562 271
562 448
563 153
563 154
563 397
563 527
564 41
564 199
564 281
564 344
565 222
565 228
565 518
565 566
566 25
566 156
566 240
566 502
567 122
567 376
567 447
567 599
568 142
568 420
568 431
568 453
569 27
569 375
569 395
569 433
570 22
570 33
570 276
570 337
571 15
571 353
571 429
571 510
572 238
572 341
572 479
572 518
573 193
573 217
573 234
573 550
574 65
574 252
574 325
574 428
575 45
575 96
575 269
575 536
576 32
576 176
576 310
576 484
577 37
577 74
577 341
577 489
578 58
578 182
578 202
578 216
579 96
579 107
579 151
579 457
580 141
580 267
580 343
580 491
581 82
581 305
581 422
581 448
582 66
582 78
582 167
582 311
583 205
583 284
583 379
583 447
584 217
584 285
584 396
584 542
585 216
585 307
585 433
585 502
586 76
586 108
586 400
586 585
587 72
587 99
587 103
587 502
588 20
588 31
588 267
588 505
589 60
589 63
589 324
589 441
590 105
590 114
590 269
590 331
591 175
591 178
591 353
591 577
592 134
592 216
592 490
592 523
593 86
593 443
593 488
593 556
594 95
594 394
594 486
594 599
595 25
595 64
595 214
595 535
596 68
596 308
596 364
596 440
597 148
597 383
597 441
597 464
598 186
598 355
598 392
598 406
599 272
599 309
599 408
599 509
600 32
600 331
600 452
600 497
601 79
601 87
601 443
601 446
602 218
602 258
602 495
602 546
603 126
603 453
603 549
603 587
604 2
604 166
604 200
604 458
605 11
605 361
605 374
605 550
606 10
606 103
606 156
606 501
607 341
607 375
607 401
607 442
608 44
608 345
608 435
608 534
609 174
609 211
609 293
609 567
610 41
610 45
610 73
610 243
611 98
611 217
611 512
611 578
612 9
612 15
612 86
612 133
613 52
613 151
613 287
613 475
614 41
614 267
614 278
614 415
615 52
615 323
615 399
615 521
616 137
616 327
616 396
616 476
617 43
617 198
617 294
617 525
618 120
618 128
618 141
618 384
619 38
619 108
619 176
619 305
620 93
620 263
620 362
620 418
621 31
621 115
621 192
621 319
622 74
622 119
622 260
622 265
623 92
623 109
623 351
623 374
624 157
624 389
624 510
624 520
625 335
625 440
625 552
625 565
626 163
626 302
626 318
626 596
627 65
627 244
627 501
627 529
628 238
628 255
628 481
628 516
629 139
629 299
629 303
629 447
630 24
630 277
630 391
630 543
631 43
631 72
631 86
631 405
632 53
632 114
632 149
632 230
633 307
633 317
633 348
633 556
634 1
634 162
634 435
634 567
635 139
635 278
635 320
635 345
636 113
636 335
636 439
636 550
637 165
637 240
637 334
637 488
638 40
638 452
638 494
638 502
639 124
639 275
639 455
639 573
640 102
640 199
640 305
640 314
641 376
641 390
641 467
641 563
642 4
642 198
642 356
642 410
643 20
643 48
643 74
643 247
644 4
644 188
644 209
644 227
645 60
645 137
645 346
645 510
646 110
646 141
646 306
646 561
647 20
647 67
647 155
647 544
648 262
648 307
648 344
648 566
649 224
649 245
649 287
649 395
650 25
650 315
650 512
650 597
651 78
651 166
651 580
651 597
652 319
652 489
652 552
652 579
653 158
653 314
653 324
653 431
654 19
654 296
654 516
654 561
655 205
655 259
655 406
655 525
656 267
656 395
656 537
656 563
657 294
657 428
657 518
657 533
658 23
658 313
658 500
658 532
659 230
659 358
659 438
659 564
660 168
660 338
660 370
660 578
661 367
661 418
661 458
661 525
662 208
662 308
662 548
662 551
663 242
663 337
663 443
663 515
664 21
664 60
664 293
664 396
665 45
665 154
665 557
665 582
666 234
666 278
666 359
666 409
667 141
667 255
667 273
667 336
668 22
668 36
668 357
668 590
669 33
669 158
669 235
669 590
670 265
670 283
670 310
670 463
671 54
671 70
671 367
671 440
672 31
672 178
672 215
672 439
673 159
673 223
673 296
673 431
674 98
674 318
674 474
674 534
675 200
675 489
675 507
675 542
676 228
676 432
676 556
676 578
677 57
677 436
677 466
677 596
678 59
678 76
678 182
678 322
679 300
679 314
679 351
679 444
680 154
680 322
680 560
680 584
681 15
681 192
681 214
681 524
682 120
682 292
682 323
682 598
683 67
683 217
683 341
683 553
684 30
684 393
684 539
684 546
685 68
685 88
685 562
685 569
686 23
686 245
686 260
686 422
687 127
687 339
687 363
687 482
688 61
688 235
688 327
688 535
689 91
689 414
689 457
689 543
690 91
690 105
690 332
690 408
691 13
691 212
691 506
691 558
692 405
692 487
692 554
692 599
693 168
693 408
693 519
693 554
694 82
694 382
694 473
694 595
695 82
695 238
695 536
695 579
696 35
696 129
696 457
696 514
697 55
697 416
697 523
697 592
698 61
698 137
698 153
698 249
699 105
699 457
699 589
699 596
700 291
700 349
700 361
700 519
701 207
701 213
701 260
701 474
702 13
702 257
702 549
702 586
703 303
703 411
703 486
703 572
704 190
704 247
704 343
704 377
705 236
705 356
705 494
705 589
706 63
706 139
706 310
706 583
707 68
707 339
707 404
707 527
708 100
708 257
708 333
708 506
709 107
709 298
709 481
709 586
710 30
710 299
710 454
710 524
711 165
711 171
711 206
711 430
712 79
712 84
712 119
712 425
713 209
713 343
713 415
713 548
714 70
714 109
714 198
714 371
715 75
715 127
715 204
715 596
716 27
716 325
716 562
716 595
717 179
717 373
717 408
717 464
718 21
718 111
718 221
718 584
719 48
719 56
719 417
719 564
720 33
720 300
720 316
720 592
721 187
721 365
721 500
721 590
722 252
722 290
722 392
722 494
723 122
723 130
723 529
723 530
724 97
724 332
724 353
724 585
725 134
725 354
725 362
725 537
726 222
726 245
726 342
726 472
727 35
727 133
727 185
727 573
728 37
728 101
728 317
728 588
729 94
729 174
729 232
729 356
730 141
730 220
730 277
730 325
731 104
731 308
731 330
731 498
732 88
732 128
732 237
732 514
733 67
733 233
733 266
733 584
734 326
734 379
734 388
734 491
735 19
735 96
735 106
735 159
736 110
736 220
736 480
736 554
737 59
737 71
737 129
737 385
738 12
738 103
738 275
738 388
739 80
739 279
739 391
739 514
740 41
740 54
740 81
740 459
741 81
741 142
741 387
741 413
742 84
742 349
742 526
742 580
743 25
743 537
743 543
743 579
744 466
744 484
744 510
744 522
745 286
745 424
745 461
745 489
746 37
746 239
746 513
746 569
747 83
747 262
747 291
747 536
748 12
748 244
748 359
748 360
749 274
749 407
749 452
749 516
750 211
750 252
750 394
750 528
751 71
751 198
751 397
751 599
752 153
752 221
752 372
752 506
753 119
753 232
753 328
753 495
754 6
754 319
754 518
754 524
755 139
755 181
755 478
755 493
756 8
756 103
756 205
756 287
757 22
757 192
757 378
757 456
758 170
758 214
758 397
758 547
759 49
759 109
759 437
759 508
760 234
760 330
760 364
760 583
761 231
761 377
761 458
761 489
762 251
762 319
762 468
762 491
763 47
763 68
763 94
763 481
764 198
764 316
764 433
764 570
765 5
765 51
765 236
765 247
766 102
766 170
766 262
766 524
767 11
767 124
767 384
767 436
768 43
768 159
768 205
768 377
769 240
769 520
769 546
769 576
770 40
770 59
770 283
770 580
771 104
771 151
771 297
771 304
772 140
772 241
772 332
772 588
773 53
773 193
773 451
773 488
774 370
774 490
774 545
774 581
775 183
775 286
775 401
775 566
776 168
776 433
776 494
776 591
777 21
777 37
777 38
777 469
778 249
778 290
778 385
778 463
779 79
779 303
779 327
779 449
780 67
780 139
780 148
780 376
781 165
781 250
781 450
781 498
782 261
782 446
782 584
782 589
783 173
783 266
783 292
783 454
784 13
784 343
784 468
784 477
785 106
785 340
785 381
785 496
786 5
786 187
786 224
786 389
787 51
787 324
787 383
787 524
788 96
788 277
788 310
788 519
789 70
789 140
789 236
789 270
790 161
790 219
790 313
790 373
791 341
791 372
791 385
791 557
792 114
792 151
792 432
792 503
793 26
793 106
793 331
793 353
794 322
794 398
794 452
794 456
795 256
795 273
795 276
795 412
796 5
796 67
796 425
796 462
797 2
797 248
797 351
797 375
798 100
798 201
798 321
798 552
799 14
799 65
799 174
799 322
800 270
800 379
800 403
800 475
801 359
801 423
801 437
801 542
802 170
802 330
802 412
802 461
803 226
803 283
803 317
803 339
804 186
804 193
804 214
804 431
805 29
805 72
805 367
805 549
806 7
806 70
806 297
806 508
807 181
807 260
807 323
807 373
808 40
808 529
808 555
808 561
809 139
809 242
809 339
809 586
810 99
810 185
810 196
810 582
811 73
811 308
811 526
811 539
812 48
812 400
812 420
812 581
813 125
813 136
813 338
813 453
814 19
814 63
814 293
814 578
815 71
815 248
815 377
815 595
816 68
816 224
816 383
816 460
817 29
817 172
817 350
817 512
818 257
818 371
818 418
818 542
819 30
819 150
819 154
819 426
820 48
820 157
820 339
820 526
821 55
821 58
821 193
821 444
822 91
822 235
822 540
822 553
823 352
823 429
823 488
823 509
824 16
824 225
824 259
824 514
825 61
825 182
825 188
825 275
826 1
826 311
826 432
826 462
827 191
827 324
827 509
827 566
828 159
828 200
828 400
828 523
829 26
829 49
829 152
829 523
830 180
830 316
830 343
830 366
831 8
831 22
831 49
831 429
832 83
832 295
832 430
832 483
833 220
833 375
833 441
833 568
834 160
834 471
834 526
834 596
835 73
835 206
835 309
835 434
836 109
836 318
836 487
836 510
837 388
837 406
837 411
837 418
838 52
838 243
838 468
838 589
839 57
839 390
839 458
839 546
840 0
840 210
840 532
840 581
841 363
841 410
841 479
841 511
842 119
842 263
842 343
842 481
843 41
843 98
843 347
843 396
844 32
844 204
844 223
844 436
845 22
845 98
845 483
845 572
846 185
846 346
846 362
846 376
847 262
847 427
847 480
847 590
848 330
848 388
848 490
848 587
849 118
849 198
849 291
849 540
850 217
850 301
850 303
850 533
851 144
851 183
851 290
851 394
852 76
852 209
852 215
852 593
853 10
853 19
853 98
853 345
854 187
854 353
854 418
854 476
855 73
855 242
855 286
855 589
856 195
856 296
856 418
856 492
857 57
857 201
857 213
857 355
858 163
858 211
858 233
858 518
859 7
859 256
859 525
859 592
860 12
860 249
860 380
860 541
861 359
861 435
861 467
861 516
862 104
862 413
862 551
862 560
863 34
863 136
863 380
863 401
864 183
864 384
864 415
864 466
865 56
865 320
865 454
865 534
866 329
866 385
866 409
866 567
867 9
867 27
867 87
867 383
868 67
868 117
868 169
868 454
869 174
869 222
869 387
869 570
870 101
870 202
870 288
870 593
871 115
871 287
871 328
871 595
872 45
872 191
872 265
872 374
873 278
873 292
873 445
873 504
874 167
874 428
874 447
874 496
875 146
875 160
875 370
875 388
876 144
876 154
876 407
876 450
877 111
877 226
877 252
877 478
878 28
878 93
878 130
878 309
879 228
879 299
879 307
879 321
880 87
880 212
880 259
880 309
881 124
881 140
881 328
881 438
882 38
882 121
882 380
882 451
883 46
883 172
883 233
883 399
884 404
884 538
884 543
884 582
885 201
885 285
885 480
885 574
886 104
886 232
886 436
886 579
887 97
887 170
887 360
887 368
888 190
888 241
888 396
888 407
889 77
889 136
889 154
889 490
890 174
890 202
890 237
890 268
891 24
891 47
891 77
891 132
892 39
892 236
892 312
892 517
893 22
893 421
893 530
893 535
894 18
894 65
894 312
894 559
895 217
895 366
895 482
895 568
896 24
896 378
896 385
896 509
897 50
897 297
897 305
897 530
898 370
898 500
898 528
898 544
899 52
899 164
899 178
899 426
900 337
900 392
900 404
900 415
901 20
901 210
901 481
901 594
902 292
902 416
902 531
902 576
903 33
903 41
903 410
903 557
904 112
904 145
904 261
904 572
905 49
905 60
905 64
905 235
906 220
906 297
906 348
906 382
907 284
907 324
907 472
907 521
908 87
908 173
908 535
908 538
909 347
909 505
909 526
909 546
910 64
910 82
910 347
910 475
911 14
911 104
911 142
911 144
912 30
912 160
912 484
912 534
913 170
913 245
913 493
913 573
914 247
914 315
914 340
914 378
915 11
915 102
915 211
915 390
916 40
916 118
916 449
916 509
917 38
917 47
917 127
917 344
918 23
918 92
918 289
918 510
919 89
919 247
919 318
919 421
920 15
920 208
920 231
920 477
921 158
921 212
921 400
921 438
922 62
922 206
922 321
922 448
923 212
923 281
923 381
923 401
924 71
924 207
924 247
924 539
925 420
925 459
925 565
925 593
926 68
926 154
926 360
926 540
927 121
927 134
927 230
927 559
928 142
928 403
928 504
928 555
929 39
929 111
929 168
929 503
930 275
930 305
930 425
930 508
931 35
931 126
931 253
931 536
932 12
932 208
932 219
932 527
933 233
933 248
933 298
933 426
934 27
934 103
934 417
934 484
935 196
935 225
935 512
935 579
936 61
936 295
936 325
936 575
937 95
937 228
937 342
937 446
938 34
938 516
938 526
938 545
939 196
939 268
939 402
939 452
940 36
940 146
940 437
940 507
941 114
941 139
941 145
941 441
942 215
942 277
942 288
942 380
943 27
943 188
943 307
943 486
944 80
944 204
944 523
944 561
945 69
945 97
945 203
945 593
946 64
946 321
946 372
946 476
947 85
947 178
947 528
947 571
948 90
948 188
948 353
948 438
949 102
949 113
949 116
949 522
950 114
950 115
950 129
950 288
951 349
951 367
951 384
951 461
952 246
952 476
952 483
952 548
953 138
953 218
953 268
953 541
954 146
954 185
954 229
954 361
955 135
955 257
955 342
955 409
956 118
956 138
956 340
956 433
957 6
957 92
957 366
957 476
958 184
958 329
958 338
958 516
959 167
959 201
959 255
959 416
960 84
960 412
960 597
960 598
961 366
961 499
961 509
961 577
962 77
962 395
962 522
962 576
963 112
963 235
963 444
963 517
964 150
964 233
964 279
964 495
965 17
965 44
965 335
965 542
966 19
966 313
966 421
966 472
967 46
967 189
967 315
967 349
968 13
968 178
968 533
968 565
969 194
969 473
969 490
969 498
970 92
970 104
970 302
970 438
971 79
971 392
971 503
971 513
972 32
972 144
972 364
972 595
973 17
973 18
973 492
973 553
974 117
974 276
974 295
974 530
975 9
975 223
975 526
975 551
976 147
976 150
976 164
976 593
977 343
977 362
977 469
977 521
978 84
978 257
978 440
978 538
979 59
979 118
979 399
979 401
980 72
980 75
980 588
980 599
981 246
981 309
981 326
981 541
982 90
982 312
982 369
982 406
983 145
983 161
983 236
983 255
984 118
984 329
984 523
984 538
985 56
985 57
985 180
985 531
986 23
986 108
986 261
986 506
987 164
987 266
987 390
987 466
988 39
988 89
988 342
988 594
989 253
989 492
989 507
989 591
990 49
990 163
990 311
990 560
991 230
991 306
991 313
991 473
992 235
992 258
992 383
992 482
993 109
993 133
993 290
993 388
994 1
994 112
994 477
994 493
995 136
995 197
995 270
995 505
996 14
996 48
996 319
996 553
997 32
997 173
997 378
997 588
998 130
998 185
998 405
998 463
999 342
999 345
999 370
999 593
1000 99
1000 228
1000 238
1000 460
1001 219
1001 240
1001 251
1001 403
1002 156
1002 203
1002 239
1002 353
1003 217
1003 373
1003 565
1003 586
1004 24
1004 51
1004 87
1004 442
1005 9
1005 192
1005 296
1005 377
1006 91
1006 110
1006 315
1006 407
1007 32
1007 48
1007 290
1007 555
1008 254
1008 350
1008 496
1008 506
1009 110
1009 444
1009 535
1009 573
1010 391
1010 452
1010 453
1010 457
1011 128
1011 155
1011 363
1011 439
1012 228
1012 260
1012 382
1012 509
1013 98
1013 207
1013 357
1013 392
1014 8
1014 47
1014 285
1014 288
1015 18
1015 256
1015 548
1015 565
1016 264
1016 372
1016 520
1016 527
1017 123
1017 125
1017 404
1017 465
1018 137
1018 159
1018 297
1018 418
1019 1
1019 322
1019 336
1019 497
1020 145
1020 149
1020 550
1020 594
1021 119
1021 175
1021 197
1021 281
1022 31
1022 250
1022 286
1022 451
1023 295
1023 340
1023 379
1023 577
1024 69
1024 183
1024 272
1024 324
1025 18
1025 108
1025 429
1025 595
1026 354
1026 491
1026 566
1026 572
1027 33
1027 79
1027 196
1027 299
1028 105
1028 159
1028 187
1028 494
1029 19
1029 279
1029 409
1029 505
1030 134
1030 262
1030 463
1030 576
1031 89
1031 264
1031 309
1031 365
1032 35
1032 53
1032 88
1032 336
1033 50
1033 192
1033 531
1033 569
1034 151
1034 301
1034 326
1034 461
1035 44
1035 114
1035 327
1035 443
1036 111
1036 227
1036 423
1036 549
1037 325
1037 328
1037 338
1037 451
1038 58
1038 143
1038 528
1038 554
1039 69
1039 194
1039 218
1039 594
1040 361
1040 393
1040 405
1040 596
1041 115
1041 180
1041 182
1041 189
1042 39
1042 157
1042 311
1042 559
1043 122
1043 227
1043 485
1043 593
1044 52
1044 295
1044 496
1044 546
1045 143
1045 375
1045 581
1045 595
1046 195
1046 354
1046 371
1046 597
1047 254
1047 332
1047 370
1047 378
1048 4
1048 81
1048 258
1048 489
1049 166
1049 318
1049 331
1049 554
1050 24
1050 352
1050 475
1050 478
1051 21
1051 95
1051 175
1051 223
1052 30
1052 36
1052 86
1052 124
1053 189
1053 281
1053 434
1053 478
1054 232
1054 291
1054 330
1054 522
1055 101
1055 181
1055 453
1055 568
1056 16
1056 187
1056 240
1056 310
1057 57
1057 333
1057 492
1057 552
1058 43
1058 62
1058 331
1058 507
1059 184
1059 421
1059 434
1059 450
1060 214
1060 429
1060 481
1060 537
1061 46
1061 160
1061 273
1061 515
1062 48
1062 320
1062 396
1062 412
1063 156
1063 402
1063 526
1063 568
1064 268
1064 356
1064 554
1064 598
1065 113
1065 210
1065 251
1065 323
1066 20
1066 348
1066 351
1066 493
1067 117
1067 209
1067 266
1067 504
1068 17
1068 276
1068 427
1068 477
1069 46
1069 84
1069 156
1069 226
1070 148
1070 157
1070 332
1070 407
1071 219
1071 225
1071 322
1071 598
1072 229
1072 274
1072 390
1072 393
1073 126
1073 484
1073 507
1073 558
1074 8
1074 150
1074 169
1074 268
1075 95
1075 118
1075 192
1075 270
1076 47
1076 299
1076 389
1076 446
1077 128
1077 220
1077 294
1077 504
1078 251
1078 336
1078 346
1078 500
1079 152
1079 304
1079 465
1079 594
1080 55
1080 456
1080 551
1080 571
1081 78
1081 245
1081 505
1081 564
1082 147
1082 210
1082 442
1082 496
1083 148
1083 358
1083 578
1083 589
1084 64
1084 85
1084 443
1084 520
1085 81
1085 176
1085 280
1085 357
1086 285
1086 514
1086 543
1086 544
1087 221
1087 226
1087 246
1087 329
1088 83
1088 226
1088 402
1088 466
1089 3
1089 147
1089 544
1089 569
1090 0
1090 97
1090 239
1090 543
1091 93
1091 231
1091 274
1091 591
1092 5
1092 244
1092 494
1092 554
1093 70
1093 75
1093 210
1093 289
1094 1
1094 61
1094 314
1094 350
1095 80
1095 143
1095 371
1095 463
1096 20
1096 214
1096 289
1096 427
1097 25
1097 62
1097 295
1097 402
1098 116
1098 464
1098 488
1098 582
1099 45
1099 91
1099 333
1099 524
1100 111
1100 364
1100 445
1100 573
1101 173
1101 179
1101 301
1101 483
1102 77
1102 233
1102 367
1102 519
1103 33
1103 335
1103 477
1103 555
1104 24
1104 45
1104 184
1104 537
1105 178
1105 321
1105 334
1105 576
1106 66
1106 201
1106 388
1106 585
1107 28
1107 34
1107 297
1107 522
1108 83
1108 247
1108 451
1108 502
1109 365
1109 529
1109 534
1109 577
1110 69
1110 221
1110 377
1110 479
1111 40
1111 244
1111 315
1111 559
1112 109
1112 316
1112 352
1112 520
1113 69
1113 112
1113 263
1113 450
1114 62
1114 179
1114 204
1114 351
1115 17
1115 340
1115 535
1115 545
1116 168
1116 301
1116 407
1116 482
1117 127
1117 396
1117 575
1117 581
1118 334
1118 389
1118 416
1118 454
1119 127
1119 234
1119 520
1119 529
1120 62
1120 162
1120 341
1120 548
1121 30
1121 209
1121 264
1121 536
1122 34
1122 44
1122 177
1122 253
1123 356
1123 440
1123 441
1123 517
1124 34
1124 153
1124 159
1124 498
1125 184
1125 211
1125 354
1125 369
1126 125
1126 183
1126 545
1126 558
1127 140
1127 173
1127 374
1127 490
1128 53
1128 256
1128 404
1128 589
1129 189
1129 213
1129 443
1129 563
1130 135
1130 239
1130 273
1130 323
1131 85
1131 104
1131 164
1131 573
1132 155
1132 171
1132 321
1132 495
1133 56
1133 204
1133 290
1133 325
1134 10
1134 327
1134 329
1134 368
1135 171
1135 496
1135 534
1135 545
1136 116
1136 437
1136 470
1136 530
1137 141
1137 202
1137 259
1137 546
1138 56
1138 332
1138 371
1138 430
1139 191
1139 227
1139 431
1139 557
1140 16
1140 51
1140 498
1140 555
1141 66
1141 69
1141 532
1141 565
1142 63
1142 113
1142 186
1142 208
1143 109
1143 202
1143 221
1143 561
1144 6
1144 88
1144 144
1144 541
1145 220
1145 355
1145 376
1145 569
1146 34
1146 54
1146 128
1146 288
1147 157
1147 179
1147 448
1147 583
1148 93
1148 153
1148 300
1148 508
1149 46
1149 125
1149 216
1149 565
1150 110
1150 240
1150 451
1150 564
1151 262
1151 294
1151 471
1151 479
1152 58
1152 123
1152 213
1152 449
1153 334
1153 366
1153 431
1153 547
1154 115
1154 331
1154 399
1154 482
1155 147
1155 402
1155 559
1155 570
1156 42
1156 206
1156 311
1156 574
1157 111
1157 363
1157 369
1157 378
1158 12
1158 286
1158 298
1158 531
1159 313
1159 375
1159 399
1159 452
1160 108
1160 134
1160 398
1160 444
1161 51
1161 103
1161 160
1161 408
1162 203
1162 301
1162 447
1162 460
1163 273
1163 442
1163 445
1163 458
1164 263
1164 316
1164 499
1164 567
1165 14
1165 119
1165 161
1165 387
1166 82
1166 169
1166 355
1166 574
1167 10
1167 397
1167 454
1167 540
1168 302
1168 369
1168 379
1168 580
1169 59
1169 268
1169 287
1169 588
1170 8
1170 214
1170 244
1170 478
1171 275
1171 336
1171 468
1171 525
1172 69
1172 117
1172 143
1172 179
1173 242
1173 432
1173 446
1173 487
1174 212
1174 221
1174 337
1174 552
1175 135
1175 312
1175 320
1175 373
1176 81
1176 219
1176 396
1176 434
1177 21
1177 64
1177 336
1177 391
1178 42
1178 173
1178 255
1178 377
1179 132
1179 257
1179 509
1179 544
1180 208
1180 359
1180 455
1180 556
1181 317
1181 405
1181 528
1181 539
1182 67
1182 106
1182 124
1182 459
1183 188
1183 237
1183 273
1183 570
1184 112
1184 165
1184 464
1184 486
1185 99
1185 229
1185 348
1185 462
1186 41
1186 117
1186 151
1186 540
1187 18
1187 203
1187 277
1187 371
1188 10
1188 63
1188 445
1188 508
1189 151
1189 237
1189 515
1189 590
1190 39
1190 241
1190 472
1190 532
1191 71
1191 331
1191 348
1191 352
1192 165
1192 387
1192 426
1192 491
1193 186
1193 279
1193 354
1193 560
1194 200
1194 291
1194 465
1194 495
1195 20
1195 439
1195 491
1195 564
1196 215
1196 234
1196 483
1196 597
1197 102
1197 169
1197 183
1197 428
1198 155
1198 420
1198 475
1198 481
1199 115
1199 352
1199 358
1199 387
