2400 1200 7200
0 552
0 746
0 970
1 259
1 379
1 895
2 54
2 291
2 805
3 61
3 421
3 944
4 420
4 816
4 1140
5 513
5 896
5 1081
6 217
6 380
6 789
7 85
7 603
7 632
8 67
8 107
8 483
9 249
9 877
9 1193
10 498
10 899
10 916
11 445
11 598
11 977
12 96
12 667
12 959
13 263
13 1056
13 1142
14 234
14 319
14 1125
15 210
15 963
15 1109
16 534
16 576
16 1042
17 124
17 883
17 923
18 206
18 298
18 729
19 68
19 987
19 1187
20 548
20 796
20 903
21 245
21 454
21 630
22 197
22 616
22 849
23 19
23 1082
23 1160
24 119
24 762
24 1137
25 119
25 647
25 924
26 652
26 720
26 948
27 413
27 435
27 1163
28 331
28 909
28 1126
29 357
29 774
29 995
30 33
30 629
30 802
31 388
31 580
31 1091
32 40
32 112
32 257
33 295
33 934
33 996
34 260
34 417
34 822
35 712
35 1016
35 1061
36 179
36 965
36 1053
37 5
37 806
37 1042
38 201
38 526
38 1199
39 537
39 701
39 1062
40 72
40 803
40 1181
41 119
41 773
41 915
42 420
42 915
42 964
43 126
43 355
43 1075
44 147
44 231
44 614
45 81
45 543
45 590
46 586
46 747
46 894
47 563
47 606
47 769
48 302
48 779
48 1113
49 461
49 527
49 925
50 392
50 1096
50 1155
51 595
51 901
51 957
52 694
52 914
52 1037
53 37
53 497
53 1177
54 52
54 713
54 876
55 539
55 1086
55 1110
56 79
56 236
56 879
57 176
57 390
57 1073
58 623
58 728
58 1057
59 49
59 114
59 304
60 325
60 424
60 484
61 355
61 425
61 690
62 348
62 564
62 914
63 364
63 887
63 1168
64 222
64 883
64 998
65 44
65 168
65 586
66 37
66 693
66 873
67 57
67 768
67 927
68 425
68 434
68 1151
69 682
69 1093
69 1111
70 72
70 167
70 618
71 269
71 1045
71 1090
72 341
72 886
72 1015
73 703
73 744
73 782
74 845
74 905
74 940
75 30
75 256
75 1099
76 338
76 719
76 958
77 373
77 439
77 1004
78 187
78 561
78 993
79 238
79 519
79 1086
80 688
80 761
80 1164
81 784
81 1060
81 1109
82 144
82 660
82 1118
83 568
83 699
83 868
84 252
84 295
84 408
85 648
85 812
85 1169
86 56
86 650
86 862
87 357
87 543
87 607
88 500
88 695
88 1153
89 295
89 968
89 1012
90 238
90 699
90 825
91 182
91 291
91 797
92 550
92 619
92 1078
93 182
93 237
93 306
94 124
94 300
94 1125
95 202
95 232
95 684
96 593
96 910
96 1046
97 540
97 811
97 836
98 224
98 472
98 889
99 164
99 641
99 905
100 216
100 230
100 476
101 142
101 233
101 751
102 31
102 575
102 1077
103 347
103 908
103 999
104 304
104 793
104 1058
105 423
105 910
105 932
106 509
106 711
106 1122
107 3
107 483
107 571
108 376
108 665
108 684
109 181
109 592
109 660
110 620
110 788
110 1196
111 233
111 806
111 1052
112 2
112 576
112 697
113 335
113 348
113 503
114 468
114 657
114 660
115 121
115 618
115 829
116 307
116 396
116 534
117 319
117 838
117 928
118 449
118 692
118 902
119 209
119 479
119 622
120 257
120 467
120 987
121 584
121 971
121 1140
122 200
122 502
122 1068
123 85
123 254
123 384
124 819
124 858
124 1076
125 387
125 704
125 1133
126 55
126 572
126 908
127 204
127 375
127 1019
128 154
128 784
128 790
129 465
129 934
129 987
130 211
130 377
130 955
131 422
131 945
131 1084
132 67
132 390
132 908
133 18
133 749
133 1055
134 180
134 241
134 244
135 381
135 563
135 1195
136 194
136 242
136 1128
137 60
137 406
137 616
138 106
138 661
138 910
139 180
139 477
139 1035
140 337
140 446
140 791
141 223
141 426
141 969
142 174
142 374
142 600
143 152
143 903
143 980
144 370
144 448
144 839
145 372
145 679
145 1017
146 783
146 851
146 951
147 71
147 766
147 788
148 248
148 373
148 669
149 325
149 524
149 1094
150 5
150 10
150 302
151 9
151 168
151 912
152 896
152 930
152 1034
153 8
153 156
153 775
154 164
154 439
154 1044
155 459
155 750
155 1007
156 945
156 1026
156 1142
157 162
157 720
157 1126
158 99
158 700
158 1170
159 211
159 299
159 633
160 686
160 896
160 1129
161 45
161 257
161 784
162 683
162 757
162 875
163 381
163 382
163 1136
164 386
164 642
164 872
165 540
165 1020
165 1022
166 159
166 174
166 205
167 20
167 560
167 1132
168 14
168 114
168 242
169 230
169 347
169 1159
170 11
170 486
170 591
171 61
171 280
171 428
172 771
172 924
172 935
173 15
173 39
173 148
174 248
174 976
174 1018
175 772
175 925
175 1115
176 121
176 411
176 667
177 343
177 566
177 1023
178 88
178 320
178 1136
179 7
179 800
179 939
180 644
180 932
180 1047
181 19
181 254
181 282
182 166
182 576
182 894
183 521
183 533
183 568
184 381
184 478
184 1058
185 17
185 816
185 1037
186 266
186 553
186 850
187 74
187 304
187 862
188 232
188 324
188 786
189 287
189 801
189 1155
190 369
190 503
190 692
191 32
191 478
191 562
192 69
192 439
192 881
193 437
193 521
193 578
194 216
194 1053
194 1171
195 900
195 961
195 989
196 617
196 722
196 741
197 210
197 724
197 881
198 66
198 202
198 1164
199 519
199 698
199 872
200 379
200 1006
200 1177
201 806
201 1098
201 1151
202 211
202 728
202 1150
203 478
203 654
203 1160
204 26
204 525
204 990
205 86
205 483
205 880
206 318
206 432
206 1065
207 333
207 365
207 983
208 395
208 766
208 1149
209 321
209 567
209 1004
210 90
210 778
210 910
211 392
211 476
211 1141
212 199
212 263
212 570
213 11
213 155
213 863
214 283
214 449
214 742
215 954
215 1131
215 1154
216 271
216 603
216 1052
217 323
217 424
217 1091
218 16
218 591
218 1186
219 135
219 844
219 1120
220 132
220 503
220 1165
221 866
221 880
221 1030
222 307
222 485
222 543
223 261
223 853
223 1082
224 139
224 277
224 517
225 900
225 980
225 1150
226 35
226 954
226 1079
227 368
227 467
227 866
228 40
228 49
228 718
229 110
229 111
229 436
230 91
230 694
230 814
231 119
231 358
231 826
232 199
232 360
232 654
233 587
233 797
233 1122
234 12
234 377
234 585
235 301
235 317
235 695
236 6
236 396
236 674
237 907
237 1038
237 1192
238 905
238 1010
238 1085
239 50
239 607
239 820
240 502
240 503
240 791
241 494
241 789
241 1173
242 63
242 245
242 409
243 341
243 360
243 1110
244 441
244 843
244 934
245 387
245 443
245 1101
246 60
246 204
246 273
247 151
247 979
247 1119
248 50
248 634
248 961
249 137
249 308
249 724
250 76
250 836
250 1038
251 277
251 435
251 644
252 272
252 702
252 1117
253 98
253 765
253 1192
254 359
254 936
254 1188
255 662
255 717
255 808
256 56
256 845
256 854
257 223
257 507
257 533
258 88
258 332
258 1075
259 495
259 562
259 975
260 183
260 383
260 678
261 333
261 919
261 1094
262 437
262 589
262 1101
263 108
263 348
263 579
264 190
264 908
264 1192
265 403
265 767
265 1044
266 14
266 869
266 1112
267 47
267 100
267 854
268 114
268 578
268 1193
269 647
269 956
269 1011
270 422
270 663
270 1166
271 232
271 305
271 501
272 966
272 992
272 1040
273 22
273 36
273 86
274 327
274 716
274 1175
275 386
275 429
275 1001
276 166
276 694
276 961
277 628
277 675
277 952
278 332
278 604
278 705
279 561
279 810
279 1148
280 247
280 423
280 743
281 290
281 385
281 548
282 17
282 457
282 1028
283 258
283 809
283 1059
284 375
284 517
284 732
285 20
285 580
285 970
286 48
286 329
286 917
287 617
287 1027
287 1113
288 533
288 775
288 1088
289 74
289 193
289 1042
290 102
290 313
290 630
291 123
291 366
291 632
292 340
292 444
292 486
293 22
293 990
293 1025
294 721
294 751
294 842
295 268
295 438
295 732
296 265
296 670
296 1133
297 313
297 734
297 814
298 82
298 771
298 806
299 737
299 1094
299 1195
300 130
300 132
300 228
301 153
301 198
301 1198
302 512
302 781
302 938
303 584
303 792
303 1032
304 389
304 414
304 546
305 636
305 1183
305 1186
306 23
306 135
306 931
307 6
307 141
307 171
308 140
308 204
308 597
309 246
309 763
309 935
310 84
310 261
310 354
311 378
311 768
311 783
312 559
312 1022
312 1166
313 171
313 479
313 860
314 359
314 709
314 917
315 216
315 229
315 1111
316 6
316 143
316 436
317 860
317 998
317 1154
318 133
318 603
318 954
319 674
319 798
319 1196
320 12
320 284
320 1130
321 248
321 656
321 915
322 156
322 258
322 878
323 108
323 270
323 840
324 407
324 439
324 992
325 457
325 752
325 903
326 13
326 286
326 324
327 70
327 956
327 1196
328 373
328 542
328 918
329 12
329 426
329 801
330 363
330 771
330 1097
331 739
331 1094
331 1099
332 680
332 691
332 853
333 695
333 978
333 1074
334 42
334 222
334 308
335 258
335 533
335 741
336 352
336 655
336 790
337 119
337 254
337 911
338 28
338 293
338 626
339 656
339 919
339 952
340 68
340 459
340 842
341 50
341 221
341 882
342 249
342 406
342 958
343 666
343 792
343 896
344 635
344 1102
344 1115
345 93
345 189
345 999
346 1090
346 1121
346 1199
347 471
347 632
347 821
348 400
348 818
348 877
349 995
349 1000
349 1135
350 674
350 957
350 1012
351 6
351 257
351 278
352 202
352 961
352 1101
353 250
353 328
353 360
354 449
354 523
354 741
355 487
355 620
355 652
356 77
356 847
356 1010
357 60
357 95
357 1147
358 666
358 909
358 1103
359 92
359 941
359 1118
360 17
360 288
360 891
361 572
361 918
361 1075
362 368
362 580
362 791
363 452
363 620
363 1160
364 709
364 733
364 1178
365 213
365 707
365 788
366 511
366 625
366 815
367 141
367 637
367 1184
368 687
368 851
368 935
369 419
369 599
369 690
370 275
370 1082
370 1158
371 573
371 941
371 978
372 147
372 623
372 956
373 306
373 420
373 644
374 155
374 399
374 1154
375 407
375 471
375 555
376 710
376 723
376 1172
377 757
377 1176
377 1181
378 13
378 296
378 892
379 161
379 401
379 755
380 503
380 773
380 998
381 602
381 644
381 1157
382 113
382 950
382 1127
383 66
383 1114
383 1163
384 5
384 200
384 624
385 21
385 128
385 146
386 129
386 363
386 997
387 53
387 813
387 980
388 983
388 1048
388 1119
389 154
389 1049
389 1124
390 402
390 734
390 1176
391 60
391 686
391 833
392 780
392 828
392 1080
393 334
393 788
393 1085
394 194
394 1073
394 1094
395 149
395 743
395 955
396 604
396 751
396 970
397 510
397 621
397 844
398 400
398 748
398 995
399 31
399 126
399 723
400 306
400 464
400 871
401 129
401 1099
401 1110
402 567
402 847
402 957
403 433
403 471
403 1064
404 333
404 366
404 546
405 247
405 362
405 670
406 645
406 746
406 1078
407 104
407 266
407 558
408 610
408 614
408 659
409 307
409 616
409 633
410 265
410 299
410 499
411 630
411 1064
411 1122
412 51
412 910
412 1047
413 506
413 770
413 1092
414 831
414 848
414 968
415 507
415 830
415 940
416 906
416 1123
416 1158
417 8
417 794
417 1121
418 80
418 843
418 951
419 499
419 1073
419 1141
420 176
420 215
420 296
421 213
421 657
421 694
422 96
422 126
422 138
423 283
423 412
423 575
424 98
424 125
424 243
425 429
425 542
425 1100
426 355
426 402
426 653
427 741
427 904
427 937
428 308
428 470
428 1021
429 52
429 206
429 646
430 410
430 1098
430 1182
431 2
431 730
431 1125
432 830
432 847
432 1130
433 305
433 1103
433 1107
434 14
434 77
434 336
435 807
435 826
435 1080
436 202
436 348
436 395
437 827
437 1076
437 1155
438 64
438 324
438 366
439 2
439 599
439 717
440 13
440 59
440 596
441 542
441 587
441 1063
442 235
442 256
442 777
443 159
443 269
443 991
444 337
444 778
444 1012
445 250
445 427
445 982
446 467
446 593
446 810
447 91
447 1001
447 1133
448 348
448 417
448 753
449 629
449 738
449 782
450 340
450 513
450 1080
451 123
451 479
451 779
452 496
452 992
452 1097
453 94
453 1050
453 1143
454 500
454 560
454 962
455 65
455 697
455 900
456 542
456 705
456 766
457 451
457 495
457 923
458 242
458 889
458 1031
459 105
459 531
459 555
460 713
460 778
460 1161
461 162
461 187
461 435
462 46
462 314
462 930
463 597
463 844
463 867
464 236
464 418
464 852
465 368
465 391
465 1083
466 364
466 680
466 929
467 59
467 238
467 763
468 154
468 705
468 970
469 949
469 1041
469 1195
470 182
470 524
470 904
471 378
471 815
471 989
472 164
472 875
472 1193
473 909
473 1048
473 1153
474 89
474 151
474 995
475 601
475 654
475 806
476 46
476 381
476 523
477 189
477 191
477 916
478 671
478 965
478 1174
479 473
479 863
479 1135
480 881
480 909
480 1011
481 32
481 545
481 720
482 158
482 539
482 1027
483 399
483 650
483 966
484 373
484 522
484 738
485 43
485 406
485 1140
486 177
486 988
486 1056
487 143
487 534
487 898
488 376
488 656
488 764
489 392
489 690
489 1119
490 827
490 876
490 1074
491 425
491 635
491 784
492 27
492 105
492 1170
493 184
493 226
493 808
494 658
494 749
494 1138
495 44
495 856
495 943
496 1
496 1081
496 1168
497 547
497 843
497 1095
498 470
498 598
498 1066
499 44
499 239
499 361
500 180
500 206
500 572
501 481
501 786
501 1187
502 252
502 531
502 1191
503 83
503 467
503 1122
504 56
504 290
504 975
505 415
505 590
505 788
506 586
506 742
506 756
507 351
507 941
507 1025
508 151
508 833
508 892
509 752
509 756
509 1127
510 32
510 773
510 952
511 520
511 564
511 942
512 341
512 487
512 625
513 115
513 483
513 1144
514 237
514 689
514 707
515 570
515 848
515 1066
516 124
516 702
516 1018
517 22
517 293
517 581
518 87
518 395
518 398
519 188
519 192
519 552
520 273
520 393
520 893
521 35
521 823
521 1077
522 46
522 453
522 1196
523 367
523 469
523 609
524 214
524 286
524 313
525 214
525 465
525 475
526 277
526 595
526 966
527 1
527 143
527 388
528 129
528 636
528 785
529 648
529 807
529 1026
530 890
530 1084
530 1102
531 382
531 658
531 1044
532 570
532 681
532 698
533 159
533 940
533 1103
534 564
534 790
534 1182
535 82
535 539
535 903
536 231
536 731
536 762
537 734
537 1002
537 1052
538 274
538 305
538 828
539 253
539 877
539 1183
540 259
540 388
540 1114
541 173
541 866
541 1009
542 330
542 579
542 751
543 311
543 577
543 842
544 78
544 415
544 867
545 218
545 411
545 1032
546 62
546 309
546 1052
547 146
547 536
547 820
548 175
548 434
548 769
549 721
549 878
549 1185
550 67
550 427
550 758
551 68
551 157
551 781
552 481
552 615
552 803
553 796
553 1108
553 1114
554 356
554 801
554 1064
555 280
555 594
555 972
556 145
556 166
556 404
557 157
557 332
557 556
558 71
558 859
558 861
559 487
559 535
559 559
560 244
560 424
560 913
561 678
561 895
561 1095
562 393
562 484
562 918
563 174
563 278
563 719
564 0
564 928
564 997
565 46
565 233
565 858
566 442
566 584
566 1020
567 187
567 912
567 1111
568 757
568 798
568 880
569 270
569 1009
569 1018
570 421
570 924
570 1195
571 1119
571 1141
571 1143
572 253
572 323
572 496
573 103
573 360
573 1069
574 100
574 374
574 959
575 96
575 309
575 767
576 496
576 665
576 735
577 58
577 81
577 885
578 294
578 519
578 785
579 59
579 84
579 155
580 8
580 776
580 1073
581 29
581 92
581 1185
582 115
582 243
582 1148
583 207
583 273
583 336
584 282
584 330
584 794
585 532
585 579
585 971
586 583
586 662
586 1112
587 301
587 708
587 1072
588 380
588 629
588 926
589 493
589 618
589 685
590 828
590 1024
590 1072
591 491
591 902
591 1142
592 663
592 743
592 871
593 354
593 534
593 739
594 125
594 530
594 899
595 537
595 599
595 604
596 968
596 1013
596 1081
597 151
597 524
597 674
598 333
598 637
598 1093
599 254
599 310
599 1187
600 460
600 831
600 997
601 203
601 782
601 1053
602 675
602 828
602 927
603 227
603 841
603 1157
604 27
604 86
604 759
605 888
605 1102
605 1145
606 458
606 978
606 1064
607 162
607 338
607 619
608 259
608 376
608 514
609 163
609 1142
609 1189
610 205
610 310
610 486
611 320
611 353
611 845
612 325
612 418
612 449
613 41
613 626
613 728
614 344
614 368
614 415
615 114
615 286
615 941
616 342
616 829
616 1121
617 317
617 408
617 581
618 113
618 637
618 1069
619 39
619 827
619 1172
620 684
620 802
620 907
621 43
621 973
621 1152
622 121
622 353
622 357
623 230
623 776
623 1081
624 247
624 1049
624 1165
625 105
625 732
625 1055
626 233
626 671
626 783
627 943
627 1129
627 1152
628 209
628 629
628 988
629 8
629 460
629 708
630 869
630 1154
630 1182
631 40
631 643
631 800
632 160
632 753
632 985
633 84
633 472
633 1012
634 441
634 559
634 569
635 19
635 139
635 1016
636 533
636 574
636 963
637 510
637 654
637 1040
638 974
638 1107
638 1184
639 267
639 803
639 849
640 296
640 617
640 1187
641 161
641 754
641 834
642 218
642 846
642 1172
643 194
643 651
643 1129
644 626
644 1067
644 1072
645 221
645 760
645 855
646 15
646 317
646 824
647 254
647 275
647 349
648 634
648 722
648 829
649 57
649 689
649 1190
650 512
650 724
650 864
651 225
651 940
651 1117
652 42
652 47
652 1051
653 338
653 592
653 1089
654 73
654 344
654 494
655 28
655 150
655 687
656 500
656 886
656 1174
657 288
657 420
657 677
658 176
658 635
658 845
659 583
659 608
659 813
660 253
660 389
660 1043
661 291
661 1120
661 1144
662 8
662 830
662 1093
663 379
663 407
663 924
664 482
664 646
664 902
665 75
665 478
665 542
666 423
666 609
666 746
667 33
667 389
667 754
668 73
668 356
668 398
669 240
669 1093
669 1156
670 687
670 886
670 1177
671 540
671 575
671 1038
672 100
672 178
672 489
673 114
673 140
673 1094
674 87
674 142
674 998
675 456
675 560
675 1081
676 357
676 564
676 1139
677 4
677 85
677 328
678 333
678 377
678 610
679 149
679 316
679 739
680 344
680 439
680 947
681 26
681 142
681 591
682 619
682 1032
682 1146
683 23
683 491
683 920
684 805
684 819
684 1191
685 62
685 829
685 835
686 358
686 422
686 879
687 24
687 535
687 835
688 63
688 783
688 996
689 148
689 558
689 828
690 634
690 875
690 1033
691 117
691 285
691 307
692 516
692 818
692 1185
693 67
693 593
693 739
694 681
694 847
694 969
695 129
695 631
695 1059
696 582
696 638
696 1040
697 331
697 850
697 1051
698 303
698 447
698 609
699 241
699 1038
699 1045
700 212
700 686
700 876
701 734
701 817
701 1137
702 686
702 875
702 1165
703 158
703 205
703 573
704 186
704 786
704 983
705 460
705 797
705 1114
706 725
706 875
706 1002
707 149
707 201
707 675
708 24
708 122
708 883
709 341
709 626
709 962
710 1
710 444
710 638
711 68
711 532
711 936
712 492
712 923
712 942
713 183
713 213
713 1158
714 39
714 145
714 198
715 458
715 504
715 841
716 68
716 539
716 745
717 47
717 779
717 1106
718 325
718 625
718 1097
719 153
719 505
719 840
720 372
720 1086
720 1112
721 166
721 209
721 557
722 170
722 450
722 1066
723 375
723 395
723 446
724 370
724 986
724 1135
725 403
725 606
725 921
726 433
726 1015
726 1042
727 228
727 501
727 911
728 279
728 502
728 967
729 124
729 862
729 1011
730 219
730 821
730 957
731 740
731 866
731 942
732 292
732 405
732 696
733 20
733 394
733 776
734 787
734 981
734 1043
735 591
735 736
735 879
736 55
736 450
736 525
737 250
737 1066
737 1181
738 117
738 218
738 1183
739 404
739 655
739 730
740 40
740 212
740 1050
741 36
741 66
741 1108
742 484
742 926
742 1199
743 307
743 405
743 865
744 165
744 813
744 1180
745 247
745 262
745 829
746 300
746 438
746 545
747 476
747 509
747 800
748 269
748 646
748 832
749 262
749 335
749 705
750 417
750 513
750 1134
751 582
751 956
751 960
752 228
752 434
752 1046
753 723
753 880
753 1089
754 709
754 901
754 990
755 161
755 452
755 909
756 255
756 901
756 1007
757 159
757 427
757 884
758 7
758 173
758 1017
759 647
759 898
759 1079
760 278
760 643
760 706
761 107
761 452
761 815
762 556
762 960
762 1101
763 94
763 461
763 838
764 73
764 1004
764 1162
765 97
765 378
765 1022
766 299
766 754
766 871
767 306
767 658
767 662
768 292
768 936
768 965
769 205
769 473
769 827
770 150
770 552
770 864
771 868
771 1012
771 1039
772 116
772 391
772 811
773 198
773 485
773 773
774 204
774 245
774 483
775 25
775 623
775 703
776 548
776 814
776 956
777 1023
777 1172
777 1184
778 397
778 765
778 1011
779 224
779 716
779 1148
780 124
780 939
780 1139
781 185
781 591
781 1132
782 372
782 858
782 1026
783 17
783 142
783 235
784 27
784 42
784 1124
785 558
785 879
785 1134
786 106
786 901
786 1036
787 94
787 646
787 654
788 330
788 754
788 863
789 344
789 821
789 1137
790 697
790 1042
790 1058
791 29
791 353
791 826
792 1023
792 1032
792 1109
793 25
793 446
793 914
794 55
794 780
794 1025
795 998
795 1006
795 1142
796 234
796 1017
796 1080
797 34
797 466
797 713
798 390
798 1085
798 1145
799 99
799 559
799 907
800 352
800 515
800 1115
801 557
801 645
801 973
802 29
802 676
802 832
803 518
803 682
803 831
804 10
804 61
804 392
805 396
805 443
805 791
806 188
806 490
806 1003
807 408
807 949
807 1110
808 54
808 273
808 1159
809 234
809 621
809 675
810 207
810 220
810 945
811 494
811 600
811 1139
812 128
812 335
812 1133
813 308
813 437
813 942
814 771
814 794
814 1054
815 345
815 925
815 1075
816 197
816 353
816 442
817 45
817 744
817 968
818 143
818 228
818 326
819 47
819 488
819 879
820 7
820 472
820 1108
821 82
821 296
821 839
822 219
822 782
822 841
823 185
823 265
823 358
824 249
824 262
824 373
825 128
825 181
825 904
826 299
826 319
826 665
827 460
827 481
827 619
828 685
828 866
828 1063
829 139
829 1005
829 1187
830 154
830 280
830 313
831 78
831 147
831 283
832 429
832 691
832 1065
833 436
833 543
833 1008
834 374
834 492
834 732
835 484
835 510
835 860
836 25
836 170
836 566
837 103
837 1044
837 1046
838 65
838 198
838 1173
839 118
839 509
839 795
840 108
840 275
840 362
841 531
841 535
841 1085
842 94
842 179
842 761
843 57
843 463
843 858
844 178
844 215
844 245
845 464
845 605
845 880
846 314
846 1002
846 1022
847 186
847 442
847 693
848 450
848 715
848 1008
849 46
849 740
849 1105
850 64
850 234
850 889
851 985
851 1106
851 1140
852 80
852 271
852 555
853 13
853 289
853 764
854 742
854 802
854 1127
855 287
855 745
855 1068
856 958
856 971
856 1165
857 487
857 691
857 848
858 49
858 726
858 775
859 438
859 900
859 1193
860 550
860 1076
860 1077
861 297
861 304
861 555
862 72
862 595
862 883
863 208
863 271
863 334
864 719
864 834
864 887
865 271
865 1011
865 1130
866 459
866 540
866 973
867 238
867 553
867 576
868 185
868 1089
868 1099
869 572
869 676
869 1045
870 755
870 1009
870 1024
871 933
871 1076
871 1079
872 850
872 902
872 916
873 104
873 376
873 847
874 130
874 797
874 840
875 9
875 139
875 431
876 466
876 833
876 1003
877 305
877 1179
877 1191
878 728
878 947
878 948
879 51
879 630
879 859
880 455
880 1091
880 1176
881 453
881 607
881 642
882 359
882 649
882 760
883 281
883 977
883 993
884 557
884 768
884 1060
885 175
885 278
885 1120
886 419
886 1001
886 1032
887 197
887 551
887 1046
888 660
888 677
888 687
889 1
889 16
889 678
890 338
890 383
890 1071
891 15
891 285
891 565
892 53
892 280
892 953
893 887
893 973
893 1030
894 229
894 334
894 649
895 88
895 256
895 1156
896 178
896 311
896 368
897 557
897 984
897 1135
898 378
898 771
898 1166
899 365
899 1064
899 1180
900 349
900 626
900 834
901 137
901 356
901 516
902 310
902 323
902 763
903 285
903 297
903 347
904 299
904 805
904 811
905 17
905 110
905 600
906 495
906 556
906 1045
907 322
907 919
907 1066
908 76
908 110
908 380
909 276
909 346
909 518
910 218
910 265
910 820
911 383
911 852
911 937
912 327
912 841
912 999
913 192
913 878
913 1115
914 217
914 289
914 449
915 464
915 903
915 1084
916 72
916 698
916 762
917 21
917 329
917 331
918 110
918 531
918 776
919 304
919 713
919 769
920 851
920 967
920 1092
921 237
921 547
921 982
922 44
922 109
922 541
923 170
923 528
923 748
924 293
924 973
924 1197
925 133
925 653
925 891
926 19
926 34
926 343
927 491
927 512
927 1100
928 71
928 584
928 1048
929 372
929 668
929 1118
930 532
930 849
930 891
931 310
931 492
931 966
932 148
932 848
932 1149
933 421
933 815
933 1070
934 57
934 111
934 993
935 211
935 753
935 1058
936 244
936 367
936 375
937 639
937 857
937 959
938 164
938 393
938 989
939 211
939 548
939 642
940 83
940 921
940 1199
941 391
941 563
941 638
942 670
942 865
942 1096
943 679
943 770
943 884
944 219
944 453
944 1169
945 128
945 174
945 761
946 575
946 817
946 1070
947 277
947 311
947 575
948 32
948 802
948 981
949 91
949 236
949 638
950 511
950 569
950 870
951 399
951 550
951 1194
952 155
952 209
952 632
953 51
953 96
953 683
954 45
954 521
954 944
955 807
955 1132
955 1176
956 58
956 131
956 437
957 171
957 419
957 994
958 805
958 881
958 1050
959 284
959 830
959 1021
960 78
960 793
960 1185
961 349
961 454
961 726
962 134
962 446
962 837
963 659
963 950
963 1088
964 117
964 130
964 884
965 67
965 477
965 512
966 256
966 491
966 846
967 393
967 454
967 526
968 65
968 279
968 1029
969 64
969 603
969 858
970 212
970 360
970 863
971 184
971 611
971 955
972 217
972 299
972 759
973 411
973 430
973 592
974 93
974 544
974 663
975 398
975 969
975 1186
976 525
976 668
976 947
977 58
977 208
977 252
978 177
978 415
978 889
979 108
979 393
979 660
980 861
980 884
980 1126
981 53
981 669
981 1062
982 455
982 520
982 590
983 163
983 451
983 1052
984 679
984 1079
984 1153
985 75
985 641
985 649
986 92
986 459
986 494
987 510
987 1050
987 1069
988 249
988 332
988 481
989 267
989 561
989 855
990 147
990 236
990 922
991 357
991 379
991 426
992 546
992 785
992 1092
993 261
993 1030
993 1076
994 157
994 342
994 639
995 250
995 726
995 815
996 658
996 742
996 1134
997 928
997 1093
997 1150
998 224
998 565
998 1156
999 176
999 610
999 1027
1000 529
1000 622
1000 914
1001 80
1001 361
1001 1146
1002 144
1002 672
1002 716
1003 878
1003 920
1003 943
1004 246
1004 480
1004 841
1005 127
1005 672
1005 839
1006 223
1006 660
1006 714
1007 30
1007 62
1007 416
1008 111
1008 183
1008 264
1009 189
1009 486
1009 720
1010 292
1010 727
1010 1123
1011 611
1011 736
1011 1193
1012 429
1012 488
1012 859
1013 779
1013 895
1013 1028
1014 462
1014 940
1014 1106
1015 175
1015 407
1015 1105
1016 441
1016 633
1016 737
1017 159
1017 170
1017 853
1018 43
1018 172
1018 190
1019 582
1019 892
1019 901
1020 306
1020 738
1020 825
1021 215
1021 1015
1021 1061
1022 270
1022 1026
1022 1132
1023 194
1023 930
1023 1197
1024 161
1024 489
1024 1068
1025 386
1025 508
1025 930
1026 24
1026 174
1026 1051
1027 51
1027 220
1027 597
1028 97
1028 320
1028 1000
1029 371
1029 747
1029 1083
1030 589
1030 707
1030 954
1031 184
1031 685
1031 804
1032 250
1032 505
1032 562
1033 132
1033 276
1033 1108
1034 785
1034 849
1034 1112
1035 358
1035 436
1035 782
1036 258
1036 527
1036 623
1037 295
1037 554
1037 1035
1038 225
1038 691
1038 789
1039 599
1039 786
1039 933
1040 363
1040 527
1040 750
1041 681
1041 730
1041 1191
1042 41
1042 756
1042 855
1043 66
1043 569
1043 1172
1044 79
1044 322
1044 463
1045 22
1045 827
1045 1132
1046 1018
1046 1088
1046 1157
1047 679
1047 696
1047 1141
1048 264
1048 496
1048 808
1049 209
1049 917
1049 1149
1050 15
1050 408
1050 1121
1051 10
1051 236
1051 968
1052 505
1052 607
1052 730
1053 81
1053 854
1053 987
1054 217
1054 267
1054 1030
1055 631
1055 790
1055 990
1056 294
1056 440
1056 704
1057 0
1057 274
1057 944
1058 105
1058 145
1058 221
1059 279
1059 704
1059 927
1060 90
1060 180
1060 718
1061 723
1061 882
1061 1141
1062 174
1062 735
1062 988
1063 117
1063 696
1063 1111
1064 820
1064 1071
1064 1131
1065 261
1065 495
1065 508
1066 101
1066 295
1066 965
1067 498
1067 570
1067 749
1068 224
1068 578
1068 869
1069 180
1069 315
1069 933
1070 888
1070 937
1070 972
1071 109
1071 400
1071 537
1072 318
1072 382
1072 616
1073 190
1073 288
1073 336
1074 503
1074 719
1074 964
1075 303
1075 388
1075 967
1076 8
1076 33
1076 1039
1077 210
1077 753
1077 913
1078 75
1078 844
1078 1103
1079 557
1079 708
1079 1155
1080 276
1080 1035
1080 1158
1081 124
1081 554
1081 611
1082 132
1082 278
1082 544
1083 667
1083 856
1083 994
1084 386
1084 501
1084 882
1085 156
1085 612
1085 695
1086 537
1086 675
1086 799
1087 592
1087 618
1087 865
1088 347
1088 556
1088 748
1089 134
1089 159
1089 931
1090 153
1090 713
1090 791
1091 224
1091 988
1091 1114
1092 20
1092 270
1092 500
1093 115
1093 958
1093 1167
1094 259
1094 458
1094 846
1095 158
1095 528
1095 962
1096 172
1096 446
1096 1074
1097 498
1097 696
1097 841
1098 139
1098 521
1098 1156
1099 806
1099 853
1099 974
1100 152
1100 761
1100 914
1101 256
1101 336
1101 672
1102 238
1102 567
1102 909
1103 525
1103 530
1103 1169
1104 113
1104 1036
1104 1116
1105 191
1105 767
1105 1138
1106 434
1106 476
1106 954
1107 669
1107 715
1107 777
1108 352
1108 677
1108 884
1109 85
1109 469
1109 1154
1110 88
1110 477
1110 764
1111 25
1111 836
1111 1181
1112 132
1112 138
1112 555
1113 102
1113 339
1113 393
1114 621
1114 755
1114 1054
1115 116
1115 544
1115 624
1116 64
1116 177
1116 290
1117 107
1117 1051
1117 1175
1118 129
1118 385
1118 870
1119 491
1119 1182
1119 1197
1120 120
1120 729
1120 945
1121 131
1121 184
1121 592
1122 390
1122 465
1122 929
1123 301
1123 339
1123 809
1124 123
1124 541
1124 1072
1125 714
1125 811
1125 824
1126 608
1126 911
1126 944
1127 162
1127 233
1127 684
1128 455
1128 793
1128 1008
1129 120
1129 710
1129 948
1130 167
1130 412
1130 868
1131 571
1131 601
1131 850
1132 337
1132 438
1132 1195
1133 594
1133 1052
1133 1099
1134 14
1134 543
1134 799
1135 225
1135 468
1135 1145
1136 888
1136 999
1136 1186
1137 573
1137 907
1137 1180
1138 133
1138 237
1138 974
1139 414
1139 781
1139 1063
1140 215
1140 482
1140 597
1141 263
1141 310
1141 1190
1142 210
1142 769
1142 1059
1143 363
1143 678
1143 1006
1144 256
1144 728
1144 919
1145 296
1145 398
1145 852
1146 200
1146 731
1146 935
1147 149
1147 505
1147 1158
1148 769
1148 874
1148 898
1149 321
1149 358
1149 615
1150 528
1150 731
1150 1135
1151 48
1151 733
1151 947
1152 686
1152 1000
1152 1050
1153 533
1153 737
1153 854
1154 643
1154 654
1154 1143
1155 760
1155 933
1155 971
1156 296
1156 433
1156 714
1157 137
1157 747
1157 1176
1158 25
1158 201
1158 347
1159 144
1159 185
1159 1054
1160 26
1160 168
1160 406
1161 70
1161 328
1161 490
1162 134
1162 710
1162 724
1163 49
1163 131
1163 460
1164 596
1164 804
1164 1152
1165 46
1165 972
1165 1168
1166 727
1166 855
1166 860
1167 489
1167 530
1167 964
1168 316
1168 589
1168 777
1169 2
1169 366
1169 403
1170 269
1170 848
1170 1021
1171 136
1171 667
1171 807
1172 80
1172 410
1172 522
1173 70
1173 852
1173 979
1174 462
1174 565
1174 1179
1175 740
1175 870
1175 906
1176 208
1176 915
1176 1058
1177 359
1177 658
1177 813
1178 95
1178 429
1178 1159
1179 264
1179 1050
1179 1166
1180 514
1180 823
1180 946
1181 216
1181 225
1181 861
1182 345
1182 570
1182 871
1183 181
1183 891
1183 1076
1184 127
1184 215
1184 1173
1185 312
1185 668
1185 920
1186 2
1186 558
1186 938
1187 123
1187 340
1187 530
1188 95
1188 203
1188 932
1189 541
1189 816
1189 1104
1190 199
1190 329
1190 554
1191 31
1191 287
1191 924
1192 696
1192 786
1192 1024
1193 134
1193 164
1193 897
1194 362
1194 724
1194 840
1195 468
1195 770
1195 1095
1196 177
1196 1098
1196 1124
1197 65
1197 264
1197 1100
1198 148
1198 176
1198 1107
1199 506
1199 604
1199 1147
1200 476
1200 790
1200 1145
1201 312
1201 1003
1201 1058
1202 747
1202 760
1202 872
1203 16
1203 342
1203 836
1204 214
1204 643
1204 854
1205 524
1205 734
1205 1041
1206 315
1206 665
1206 960
1207 6
1207 455
1207 1119
1208 158
1208 399
1208 683
1209 195
1209 518
1209 761
1210 136
1210 339
1210 676
1211 27
1211 691
1211 743
1212 350
1212 748
1212 913
1213 617
1213 708
1213 1028
1214 16
1214 272
1214 770
1215 493
1215 906
1215 986
1216 567
1216 724
1216 941
1217 9
1217 669
1217 692
1218 502
1218 1109
1218 1162
1219 38
1219 231
1219 899
1220 89
1220 214
1220 666
1221 195
1221 292
1221 1014
1222 718
1222 986
1222 1047
1223 303
1223 616
1223 819
1224 37
1224 469
1224 799
1225 630
1225 688
1225 843
1226 612
1226 642
1226 1189
1227 11
1227 84
1227 1005
1228 615
1228 817
1228 965
1229 673
1229 845
1229 1013
1230 320
1230 397
1230 535
1231 83
1231 454
1231 914
1232 350
1232 937
1232 1118
1233 5
1233 549
1233 1024
1234 445
1234 473
1234 1149
1235 63
1235 160
1235 551
1236 97
1236 509
1236 857
1237 508
1237 650
1237 1140
1238 413
1238 665
1238 674
1239 156
1239 527
1239 812
1240 525
1240 931
1240 1162
1241 263
1241 268
1241 1177
1242 192
1242 481
1242 826
1243 519
1243 606
1243 818
1244 41
1244 727
1244 792
1245 70
1245 780
1245 873
1246 722
1246 1108
1246 1128
1247 13
1247 294
1247 527
1248 399
1248 663
1248 895
1249 91
1249 421
1249 1103
1250 192
1250 898
1250 904
1251 207
1251 501
1251 502
1252 118
1252 402
1252 733
1253 401
1253 586
1253 1066
1254 507
1254 612
1254 761
1255 175
1255 636
1255 1140
1256 596
1256 1078
1256 1116
1257 400
1257 549
1257 825
1258 683
1258 789
1258 1179
1259 262
1259 961
1259 1175
1260 160
1260 628
1260 932
1261 403
1261 508
1261 1107
1262 97
1262 812
1262 950
1263 295
1263 512
1263 794
1264 529
1264 539
1264 921
1265 186
1265 338
1265 461
1266 116
1266 442
1266 712
1267 236
1267 745
1267 978
1268 108
1268 605
1268 772
1269 786
1269 922
1269 974
1270 342
1270 625
1270 664
1271 690
1271 969
1271 1070
1272 80
1272 444
1272 687
1273 255
1273 391
1273 647
1274 725
1274 921
1274 1112
1275 839
1275 917
1275 1131
1276 160
1276 653
1276 1069
1277 275
1277 406
1277 517
1278 283
1278 289
1278 706
1279 362
1279 378
1279 1096
1280 74
1280 155
1280 985
1281 582
1281 595
1281 1199
1282 62
1282 461
1282 856
1283 566
1283 934
1283 1153
1284 266
1284 377
1284 1163
1285 53
1285 652
1285 1196
1286 66
1286 337
1286 594
1287 179
1287 767
1287 1030
1288 880
1288 892
1288 967
1289 369
1289 481
1289 560
1290 419
1290 797
1290 820
1291 574
1291 949
1291 1010
1292 145
1292 459
1292 1101
1293 326
1293 473
1293 989
1294 122
1294 263
1294 322
1295 232
1295 1147
1295 1164
1296 633
1296 711
1296 946
1297 54
1297 1012
1297 1080
1298 462
1298 774
1298 1095
1299 68
1299 444
1299 953
1300 133
1300 358
1300 493
1301 242
1301 283
1301 536
1302 33
1302 196
1302 762
1303 245
1303 551
1303 780
1304 18
1304 419
1304 592
1305 10
1305 229
1305 1036
1306 23
1306 461
1306 758
1307 410
1307 663
1307 1131
1308 482
1308 485
1308 752
1309 195
1309 797
1309 1152
1310 384
1310 648
1310 661
1311 594
1311 721
1311 1126
1312 177
1312 566
1312 987
1313 554
1313 1121
1313 1175
1314 78
1314 201
1314 824
1315 408
1315 469
1315 823
1316 607
1316 649
1316 911
1317 163
1317 212
1317 906
1318 398
1318 752
1318 1104
1319 773
1319 1067
1319 1087
1320 188
1320 885
1320 1174
1321 141
1321 762
1321 1127
1322 640
1322 999
1322 1130
1323 137
1323 317
1323 1179
1324 86
1324 260
1324 752
1325 492
1325 527
1325 1134
1326 35
1326 808
1326 1016
1327 158
1327 330
1327 442
1328 706
1328 939
1328 1171
1329 360
1329 791
1329 1131
1330 595
1330 847
1330 978
1331 370
1331 513
1331 1164
1332 609
1332 723
1332 1112
1333 208
1333 293
1333 1136
1334 468
1334 489
1334 605
1335 435
1335 538
1335 831
1336 137
1336 583
1336 962
1337 319
1337 701
1337 1107
1338 28
1338 456
1338 715
1339 3
1339 562
1339 1184
1340 191
1340 426
1340 787
1341 237
1341 529
1341 679
1342 446
1342 755
1342 991
1343 105
1343 319
1343 937
1344 506
1344 562
1344 765
1345 14
1345 286
1345 731
1346 21
1346 873
1346 1150
1347 104
1347 504
1347 577
1348 187
1348 337
1348 1061
1349 213
1349 887
1349 1047
1350 67
1350 867
1350 949
1351 0
1351 52
1351 1087
1352 840
1352 925
1352 963
1353 35
1353 170
1353 822
1354 515
1354 684
1354 838
1355 244
1355 274
1355 608
1356 122
1356 198
1356 447
1357 610
1357 808
1357 1130
1358 108
1358 239
1358 1160
1359 564
1359 795
1359 926
1360 447
1360 474
1360 480
1361 149
1361 902
1361 1078
1362 9
1362 453
1362 744
1363 545
1363 641
1363 725
1364 65
1364 87
1364 427
1365 311
1365 1011
1365 1013
1366 424
1366 893
1366 934
1367 523
1367 583
1367 655
1368 4
1368 614
1368 641
1369 178
1369 805
1369 1031
1370 536
1370 628
1370 667
1371 298
1371 457
1371 1182
1372 416
1372 598
1372 843
1373 126
1373 705
1373 804
1374 23
1374 271
1374 770
1375 54
1375 222
1375 427
1376 139
1376 587
1376 911
1377 318
1377 632
1377 639
1378 73
1378 842
1378 1157
1379 370
1379 488
1379 1015
1380 396
1380 720
1380 738
1381 109
1381 282
1381 493
1382 55
1382 901
1382 975
1383 280
1383 361
1383 977
1384 121
1384 789
1384 1156
1385 465
1385 710
1385 848
1386 199
1386 612
1386 1198
1387 699
1387 743
1387 1138
1388 455
1388 736
1388 948
1389 540
1389 568
1389 653
1390 96
1390 509
1390 968
1391 384
1391 1034
1391 1113
1392 421
1392 970
1392 1111
1393 511
1393 928
1393 1105
1394 141
1394 911
1394 1039
1395 574
1395 846
1395 1091
1396 301
1396 323
1396 795
1397 240
1397 255
1397 918
1398 613
1398 625
1398 1029
1399 413
1399 659
1399 1017
1400 676
1400 757
1400 981
1401 81
1401 513
1401 969
1402 113
1402 350
1402 1185
1403 417
1403 662
1403 958
1404 51
1404 169
1404 869
1405 165
1405 228
1405 243
1406 38
1406 475
1406 664
1407 317
1407 470
1407 960
1408 255
1408 645
1408 889
1409 259
1409 297
1409 936
1410 366
1410 437
1410 538
1411 362
1411 794
1411 986
1412 289
1412 321
1412 351
1413 451
1413 912
1413 1194
1414 101
1414 181
1414 485
1415 190
1415 431
1415 912
1416 167
1416 852
1416 1069
1417 193
1417 279
1417 1118
1418 131
1418 364
1418 851
1419 511
1419 793
1419 888
1420 253
1420 780
1420 807
1421 31
1421 472
1421 1080
1422 0
1422 420
1422 1089
1423 22
1423 598
1423 787
1424 474
1424 814
1424 1170
1425 502
1425 605
1425 1107
1426 110
1426 401
1426 499
1427 294
1427 362
1427 1120
1428 1000
1428 1184
1428 1190
1429 182
1429 589
1429 668
1430 135
1430 837
1430 873
1431 76
1431 328
1431 975
1432 440
1432 448
1432 757
1433 979
1433 1104
1433 1195
1434 531
1434 961
1434 1013
1435 163
1435 191
1435 485
1436 415
1436 576
1436 671
1437 76
1437 226
1437 798
1438 396
1438 755
1438 877
1439 135
1439 379
1439 1048
1440 128
1440 394
1440 1024
1441 219
1441 634
1441 729
1442 575
1442 671
1442 1162
1443 248
1443 425
1443 1164
1444 318
1444 343
1444 445
1445 637
1445 897
1445 1123
1446 140
1446 498
1446 620
1447 38
1447 190
1447 1084
1448 56
1448 584
1448 1149
1449 66
1449 516
1449 610
1450 302
1450 423
1450 1060
1451 0
1451 49
1451 1125
1452 622
1452 631
1452 980
1453 577
1453 897
1453 945
1454 104
1454 365
1454 570
1455 10
1455 18
1455 451
1456 64
1456 435
1456 814
1457 157
1457 370
1457 430
1458 475
1458 1064
1458 1135
1459 381
1459 882
1459 1116
1460 83
1460 609
1460 1183
1461 111
1461 276
1461 1128
1462 142
1462 210
1462 1045
1463 1
1463 1019
1463 1144
1464 235
1464 270
1464 890
1465 444
1465 655
1465 796
1466 492
1466 893
1466 1173
1467 585
1467 763
1467 927
1468 450
1468 854
1468 1095
1469 227
1469 454
1469 1171
1470 74
1470 123
1470 1162
1471 440
1471 652
1471 700
1472 314
1472 832
1472 863
1473 252
1473 490
1473 778
1474 301
1474 749
1474 799
1475 665
1475 1062
1475 1109
1476 480
1476 648
1476 1016
1477 56
1477 404
1477 602
1478 112
1478 507
1478 600
1479 479
1479 759
1479 1004
1480 93
1480 568
1480 795
1481 69
1481 223
1481 908
1482 627
1482 664
1482 1188
1483 339
1483 409
1483 768
1484 74
1484 290
1484 1014
1485 611
1485 737
1485 1025
1486 456
1486 716
1486 1070
1487 345
1487 385
1487 777
1488 142
1488 999
1488 1163
1489 15
1489 400
1489 678
1490 6
1490 599
1490 780
1491 63
1491 579
1491 697
1492 148
1492 402
1492 1157
1493 432
1493 1037
1493 1097
1494 581
1494 778
1494 1078
1495 111
1495 493
1495 588
1496 16
1496 364
1496 628
1497 162
1497 740
1497 1010
1498 178
1498 635
1498 1079
1499 412
1499 863
1499 1071
1500 267
1500 345
1500 496
1501 100
1501 866
1501 984
1502 193
1502 887
1502 1034
1503 31
1503 294
1503 697
1504 394
1504 433
1504 764
1505 62
1505 677
1505 732
1506 131
1506 344
1506 349
1507 470
1507 929
1507 985
1508 423
1508 754
1508 916
1509 127
1509 488
1509 983
1510 488
1510 501
1510 890
1511 284
1511 1019
1511 1132
1512 272
1512 274
1512 930
1513 290
1513 518
1513 981
1514 367
1514 404
1514 646
1515 546
1515 704
1515 825
1516 405
1516 709
1516 758
1517 193
1517 1087
1517 1161
1518 137
1518 637
1518 823
1519 3
1519 226
1519 369
1520 72
1520 130
1520 838
1521 59
1521 551
1521 976
1522 84
1522 1109
1522 1142
1523 196
1523 230
1523 838
1524 119
1524 598
1524 1102
1525 109
1525 140
1525 813
1526 432
1526 635
1526 816
1527 883
1527 981
1527 1178
1528 11
1528 597
1528 851
1529 436
1529 772
1529 1188
1530 314
1530 334
1530 487
1531 50
1531 93
1531 673
1532 227
1532 510
1532 818
1533 65
1533 922
1533 1040
1534 220
1534 603
1534 1056
1535 428
1535 735
1535 746
1536 339
1536 562
1536 721
1537 219
1537 719
1537 1049
1538 86
1538 463
1538 950
1539 370
1539 820
1539 953
1540 293
1540 614
1540 688
1541 102
1541 711
1541 1067
1542 49
1542 541
1542 871
1543 350
1543 712
1543 1082
1544 440
1544 523
1544 988
1545 233
1545 646
1545 1198
1546 733
1546 779
1546 1175
1547 521
1547 716
1547 938
1548 207
1548 739
1548 1198
1549 287
1549 694
1549 819
1550 725
1550 768
1550 1133
1551 213
1551 329
1551 802
1552 9
1552 150
1552 462
1553 673
1553 703
1553 798
1554 172
1554 803
1554 1110
1555 613
1555 860
1555 892
1556 584
1556 717
1556 1057
1557 266
1557 633
1557 1090
1558 462
1558 590
1558 760
1559 639
1559 1016
1559 1018
1560 34
1560 429
1560 976
1561 474
1561 515
1561 1021
1562 604
1562 726
1562 1006
1563 809
1563 894
1563 1029
1564 668
1564 800
1564 1139
1565 30
1565 871
1565 993
1566 136
1566 371
1566 556
1567 152
1567 759
1567 774
1568 246
1568 419
1568 1008
1569 332
1569 954
1569 1122
1570 214
1570 458
1570 844
1571 390
1571 701
1571 749
1572 26
1572 667
1572 1079
1573 50
1573 727
1573 884
1574 588
1574 689
1574 958
1575 501
1575 736
1575 913
1576 103
1576 113
1576 243
1577 77
1577 1004
1577 1091
1578 19
1578 311
1578 514
1579 567
1579 861
1579 1150
1580 303
1580 414
1580 1000
1581 115
1581 664
1581 864
1582 209
1582 520
1582 718
1583 927
1583 996
1583 1124
1584 472
1584 607
1584 1126
1585 173
1585 497
1585 586
1586 992
1586 1018
1586 1021
1587 298
1587 408
1587 735
1588 542
1588 657
1588 888
1589 450
1589 488
1589 645
1590 465
1590 775
1590 920
1591 183
1591 532
1591 1144
1592 76
1592 354
1592 984
1593 388
1593 589
1593 1039
1594 54
1594 254
1594 946
1595 167
1595 507
1595 727
1596 82
1596 529
1596 882
1597 150
1597 618
1597 1170
1598 638
1598 816
1598 1179
1599 516
1599 744
1599 822
1600 416
1600 1036
1600 1073
1601 915
1601 1014
1601 1151
1602 89
1602 169
1602 964
1603 87
1603 475
1603 813
1604 29
1604 988
1604 1083
1605 53
1605 549
1605 809
1606 127
1606 160
1606 196
1607 551
1607 799
1607 979
1608 347
1608 506
1608 881
1609 942
1609 979
1609 1100
1610 143
1610 517
1610 766
1611 281
1611 359
1611 891
1612 689
1612 787
1612 977
1613 126
1613 204
1613 545
1614 106
1614 700
1614 996
1615 336
1615 441
1615 1033
1616 51
1616 363
1616 711
1617 495
1617 1031
1617 1057
1618 628
1618 921
1618 983
1619 263
1619 466
1619 1114
1620 17
1620 497
1620 865
1621 297
1621 509
1621 845
1622 849
1622 959
1622 1048
1623 645
1623 661
1623 1173
1624 154
1624 472
1624 602
1625 101
1625 458
1625 1088
1626 545
1626 747
1626 1102
1627 2
1627 323
1627 1148
1628 89
1628 386
1628 870
1629 867
1629 935
1629 1160
1630 188
1630 483
1630 924
1631 47
1631 395
1631 933
1632 268
1632 692
1632 1034
1633 264
1633 670
1633 1180
1634 265
1634 873
1634 925
1635 430
1635 658
1635 1145
1636 305
1636 343
1636 380
1637 551
1637 699
1637 1043
1638 183
1638 1031
1638 1123
1639 50
1639 407
1639 534
1640 1002
1640 1084
1640 1167
1641 93
1641 192
1641 368
1642 235
1642 340
1642 995
1643 75
1643 203
1643 466
1644 410
1644 831
1644 972
1645 404
1645 535
1645 995
1646 267
1646 361
1646 969
1647 526
1647 561
1647 752
1648 193
1648 664
1648 1169
1649 164
1649 632
1649 647
1650 7
1650 112
1650 1031
1651 251
1651 643
1651 1123
1652 173
1652 899
1652 913
1653 285
1653 710
1653 1179
1654 544
1654 578
1654 1104
1655 685
1655 823
1655 1054
1656 53
1656 458
1656 960
1657 275
1657 443
1657 1054
1658 504
1658 629
1658 1191
1659 165
1659 261
1659 327
1660 657
1660 702
1660 1019
1661 179
1661 229
1661 861
1662 247
1662 722
1662 767
1663 21
1663 600
1663 897
1664 268
1664 402
1664 1098
1665 284
1665 312
1665 688
1666 371
1666 676
1666 825
1667 176
1667 571
1667 676
1668 104
1668 274
1668 602
1669 48
1669 266
1669 738
1670 3
1670 955
1670 1146
1671 199
1671 832
1671 1033
1672 241
1672 823
1672 1126
1673 248
1673 302
1673 510
1674 131
1674 1014
1674 1029
1675 109
1675 197
1675 231
1676 20
1676 872
1676 1141
1677 156
1677 161
1677 203
1678 449
1678 824
1678 1100
1679 582
1679 677
1679 1165
1680 431
1680 689
1680 722
1681 234
1681 353
1681 506
1682 5
1682 853
1682 1043
1683 18
1683 251
1683 515
1684 122
1684 130
1684 291
1685 397
1685 476
1685 1017
1686 464
1686 772
1686 1087
1687 345
1687 750
1687 1120
1688 564
1688 810
1688 1197
1689 418
1689 484
1689 1082
1690 341
1690 686
1690 963
1691 7
1691 515
1691 1167
1692 401
1692 651
1692 1091
1693 195
1693 249
1693 485
1694 238
1694 410
1694 418
1695 218
1695 397
1695 690
1696 219
1696 320
1696 406
1697 134
1697 195
1697 754
1698 235
1698 343
1698 627
1699 655
1699 759
1699 764
1700 102
1700 227
1700 682
1701 385
1701 989
1701 1007
1702 606
1702 691
1702 808
1703 95
1703 907
1703 1197
1704 71
1704 810
1704 1025
1705 469
1705 962
1705 1151
1706 18
1706 52
1706 795
1707 422
1707 559
1707 697
1708 250
1708 316
1708 329
1709 72
1709 109
1709 980
1710 201
1710 801
1710 985
1711 98
1711 733
1711 897
1712 63
1712 346
1712 457
1713 309
1713 856
1713 1086
1714 616
1714 1089
1714 1127
1715 300
1715 774
1715 836
1716 118
1716 517
1716 580
1717 88
1717 291
1717 1056
1718 28
1718 395
1718 1002
1719 431
1719 712
1719 837
1720 278
1720 663
1720 1010
1721 600
1721 695
1721 898
1722 61
1722 617
1722 895
1723 198
1723 277
1723 1005
1724 482
1724 811
1724 1005
1725 4
1725 112
1725 917
1726 636
1726 951
1726 1046
1727 5
1727 246
1727 842
1728 373
1728 426
1728 886
1729 651
1729 833
1729 1138
1730 279
1730 952
1730 1147
1731 166
1731 252
1731 617
1732 206
1732 582
1732 670
1733 283
1733 324
1733 387
1734 565
1734 669
1734 681
1735 143
1735 147
1735 537
1736 56
1736 723
1736 1147
1737 146
1737 451
1737 1004
1738 118
1738 228
1738 242
1739 42
1739 367
1739 874
1740 242
1740 589
1740 598
1741 59
1741 547
1741 1167
1742 704
1742 991
1742 1068
1743 298
1743 682
1743 1020
1744 798
1744 849
1744 1003
1745 411
1745 581
1745 1128
1746 315
1746 655
1746 872
1747 222
1747 423
1747 975
1748 241
1748 491
1748 922
1749 331
1749 357
1749 846
1750 518
1750 647
1750 1071
1751 489
1751 951
1751 997
1752 623
1752 878
1752 997
1753 628
1753 812
1753 910
1754 168
1754 563
1754 936
1755 41
1755 918
1755 1192
1756 319
1756 811
1756 868
1757 454
1757 506
1757 1121
1758 305
1758 457
1758 1032
1759 381
1759 648
1759 1117
1760 232
1760 239
1760 992
1761 221
1761 380
1761 1003
1762 352
1762 453
1762 832
1763 767
1763 855
1763 971
1764 292
1764 824
1764 1167
1765 153
1765 523
1765 694
1766 563
1766 608
1766 1188
1767 54
1767 486
1767 982
1768 532
1768 576
1768 731
1769 69
1769 601
1769 922
1770 188
1770 227
1770 482
1771 230
1771 461
1771 972
1772 24
1772 216
1772 905
1773 208
1773 766
1773 1025
1774 77
1774 500
1774 1173
1775 325
1775 346
1775 855
1776 725
1776 860
1776 966
1777 118
1777 925
1777 1088
1778 511
1778 688
1778 1040
1779 651
1779 689
1779 944
1780 215
1780 272
1780 642
1781 310
1781 801
1781 986
1782 330
1782 432
1782 919
1783 19
1783 99
1783 994
1784 202
1784 367
1784 1148
1785 411
1785 580
1785 758
1786 622
1786 775
1786 1180
1787 199
1787 361
1787 1106
1788 346
1788 928
1788 1051
1789 467
1789 1177
1789 1199
1790 292
1790 877
1790 885
1791 641
1791 1131
1791 1163
1792 138
1792 664
1792 1124
1793 196
1793 322
1793 936
1794 92
1794 191
1794 821
1795 385
1795 769
1795 881
1796 375
1796 756
1796 1035
1797 862
1797 950
1797 1065
1798 40
1798 634
1798 1127
1799 11
1799 578
1799 713
1800 200
1800 286
1800 364
1801 557
1801 701
1801 993
1802 190
1802 377
1802 638
1803 452
1803 640
1803 756
1804 193
1804 203
1804 977
1805 415
1805 835
1805 1047
1806 371
1806 714
1806 882
1807 136
1807 538
1807 749
1808 197
1808 499
1808 730
1809 643
1809 736
1809 783
1810 120
1810 329
1810 470
1811 38
1811 104
1811 1068
1812 387
1812 445
1812 1013
1813 177
1813 404
1813 631
1814 258
1814 572
1814 1037
1815 772
1815 1164
1815 1196
1816 192
1816 315
1816 403
1817 196
1817 631
1817 758
1818 105
1818 285
1818 886
1819 382
1819 468
1819 868
1820 12
1820 821
1820 967
1821 328
1821 620
1821 912
1822 311
1822 629
1822 904
1823 28
1823 623
1823 748
1824 426
1824 731
1824 908
1825 326
1825 384
1825 1102
1826 186
1826 593
1826 596
1827 21
1827 321
1827 579
1828 308
1828 546
1828 642
1829 70
1829 609
1829 862
1830 494
1830 1057
1830 1090
1831 474
1831 873
1831 1171
1832 23
1832 167
1832 721
1833 621
1833 963
1833 1189
1834 28
1834 107
1834 669
1835 244
1835 448
1835 741
1836 175
1836 613
1836 1194
1837 112
1837 165
1837 1185
1838 64
1838 252
1838 1067
1839 85
1839 463
1839 560
1840 287
1840 460
1840 1181
1841 536
1841 921
1841 1162
1842 301
1842 1144
1842 1166
1843 95
1843 456
1843 1008
1844 465
1844 942
1844 1187
1845 25
1845 101
1845 1194
1846 388
1846 547
1846 1088
1847 700
1847 771
1847 835
1848 340
1848 720
1848 1023
1849 943
1849 1136
1849 1176
1850 75
1850 746
1850 893
1851 204
1851 275
1851 735
1852 181
1852 529
1852 614
1853 351
1853 678
1853 1044
1854 26
1854 1035
1854 1055
1855 315
1855 1038
1855 1070
1856 62
1856 504
1856 1055
1857 36
1857 221
1857 673
1858 440
1858 561
1858 862
1859 58
1859 300
1859 864
1860 260
1860 322
1860 897
1861 457
1861 765
1861 948
1862 698
1862 742
1862 1001
1863 82
1863 907
1863 1103
1864 248
1864 640
1864 890
1865 384
1865 482
1865 1072
1866 172
1866 618
1866 896
1867 361
1867 737
1867 790
1868 289
1868 401
1868 624
1869 463
1869 611
1869 1169
1870 596
1870 1026
1870 1159
1871 817
1871 982
1871 1062
1872 477
1872 851
1872 1005
1873 59
1873 569
1873 815
1874 680
1874 802
1874 987
1875 34
1875 474
1875 585
1876 201
1876 246
1876 1087
1877 98
1877 99
1877 788
1878 839
1878 953
1878 1081
1879 27
1879 150
1879 932
1880 81
1880 276
1880 286
1881 36
1881 180
1881 1167
1882 602
1882 825
1882 899
1883 269
1883 369
1883 1005
1884 144
1884 341
1884 1049
1885 498
1885 652
1885 984
1886 366
1886 409
1886 1009
1887 34
1887 486
1887 621
1888 145
1888 971
1888 1045
1889 273
1889 1003
1889 1153
1890 425
1890 571
1890 916
1891 36
1891 138
1891 666
1892 556
1892 874
1892 972
1893 836
1893 983
1893 1090
1894 211
1894 280
1894 1123
1895 244
1895 682
1895 1053
1896 157
1896 695
1896 762
1897 125
1897 414
1897 1138
1898 47
1898 348
1898 479
1899 80
1899 929
1899 963
1900 129
1900 536
1900 603
1901 864
1901 923
1901 1180
1902 185
1902 313
1902 727
1903 349
1903 534
1903 550
1904 321
1904 957
1904 1061
1905 220
1905 729
1905 1077
1906 135
1906 604
1906 1133
1907 37
1907 79
1907 394
1908 626
1908 776
1908 1023
1909 392
1909 430
1909 1147
1910 464
1910 480
1910 1129
1911 103
1911 776
1911 920
1912 140
1912 463
1912 748
1913 132
1913 266
1913 1160
1914 136
1914 407
1914 1016
1915 725
1915 1071
1915 1096
1916 422
1916 436
1916 1041
1917 671
1917 1034
1917 1065
1918 138
1918 245
1918 947
1919 474
1919 624
1919 1027
1920 763
1920 840
1920 1089
1921 369
1921 578
1921 804
1922 257
1922 1041
1922 1085
1923 526
1923 878
1923 916
1924 302
1924 383
1924 1083
1925 167
1925 549
1925 1096
1926 169
1926 385
1926 653
1927 707
1927 784
1927 898
1928 226
1928 487
1928 1137
1929 26
1929 651
1929 1178
1930 90
1930 601
1930 1188
1931 397
1931 622
1931 812
1932 522
1932 728
1932 1151
1933 171
1933 1096
1933 1144
1934 639
1934 774
1934 844
1935 560
1935 765
1935 1057
1936 601
1936 946
1936 1093
1937 306
1937 416
1937 974
1938 146
1938 342
1938 757
1939 398
1939 837
1939 1063
1940 259
1940 336
1940 416
1941 297
1941 746
1941 793
1942 624
1942 625
1942 1043
1943 157
1943 650
1943 656
1944 321
1944 931
1944 982
1945 389
1945 652
1945 701
1946 743
1946 1143
1946 1178
1947 184
1947 290
1947 1116
1948 10
1948 134
1948 672
1949 351
1949 705
1949 1033
1950 184
1950 374
1950 659
1951 90
1951 150
1951 1174
1952 140
1952 155
1952 687
1953 212
1953 355
1953 1030
1954 154
1954 500
1954 874
1955 833
1955 948
1955 1161
1956 331
1956 755
1956 890
1957 519
1957 804
1957 1026
1958 413
1958 892
1958 938
1959 541
1959 763
1959 1027
1960 382
1960 745
1960 1037
1961 246
1961 984
1961 1036
1962 349
1962 508
1962 523
1963 383
1963 478
1963 659
1964 906
1964 1092
1964 1192
1965 657
1965 857
1965 1014
1966 549
1966 613
1966 826
1967 307
1967 492
1967 817
1968 58
1968 115
1968 1113
1969 323
1969 397
1969 846
1970 264
1970 587
1970 1034
1971 276
1971 714
1971 750
1972 316
1972 452
1972 496
1973 585
1973 976
1973 990
1974 257
1974 922
1974 947
1975 43
1975 77
1975 950
1976 650
1976 736
1976 1059
1977 57
1977 798
1977 818
1978 356
1978 508
1978 512
1979 700
1979 885
1979 1146
1980 39
1980 640
1980 869
1981 640
1981 822
1981 1053
1982 414
1982 853
1982 930
1983 456
1983 877
1983 1056
1984 196
1984 810
1984 935
1985 613
1985 726
1985 1155
1986 18
1986 38
1986 58
1987 96
1987 282
1987 702
1988 165
1988 932
1988 1067
1989 513
1989 531
1989 711
1990 262
1990 284
1990 448
1991 548
1991 717
1991 1165
1992 125
1992 384
1992 1001
1993 60
1993 715
1993 891
1994 30
1994 93
1994 1159
1995 212
1995 619
1995 929
1996 402
1996 874
1996 900
1997 335
1997 438
1997 719
1998 334
1998 345
1998 1161
1999 169
1999 926
1999 1007
2000 114
2000 906
2000 997
2001 438
2001 541
2001 1069
2002 666
2002 1125
2002 1139
2003 318
2003 583
2003 635
2004 87
2004 207
2004 504
2005 448
2005 1019
2005 1060
2006 281
2006 294
2006 826
2007 374
2007 741
2007 768
2008 952
2008 953
2008 1100
2009 195
2009 593
2009 712
2010 394
2010 1044
2010 1146
2011 367
2011 703
2011 885
2012 14
2012 169
2012 832
2013 38
2013 622
2013 792
2014 288
2014 396
2014 1059
2015 151
2015 326
2015 1022
2016 412
2016 504
2016 1039
2017 631
2017 1174
2017 1194
2018 103
2018 955
2018 1116
2019 405
2019 417
2019 1010
2020 795
2020 949
2020 1152
2021 138
2021 522
2021 774
2022 279
2022 641
2022 886
2023 1136
2023 1137
2023 1188
2024 315
2024 401
2024 606
2025 324
2025 850
2025 875
2026 430
2026 621
2026 1098
2027 221
2027 613
2027 970
2028 87
2028 213
2028 389
2029 693
2029 842
2029 1060
2030 671
2030 740
2030 1159
2031 210
2031 539
2031 553
2032 98
2032 179
2032 1110
2033 351
2033 444
2033 644
2034 20
2034 656
2034 1073
2035 514
2035 903
2035 912
2036 31
2036 1075
2036 1168
2037 224
2037 431
2037 585
2038 16
2038 225
2038 505
2039 220
2039 376
2039 874
2040 287
2040 338
2040 515
2041 44
2041 645
2041 867
2042 45
2042 696
2042 931
2043 480
2043 789
2043 915
2044 450
2044 563
2044 706
2045 334
2045 929
2045 1043
2046 328
2046 480
2046 868
2047 382
2047 889
2047 959
2048 425
2048 455
2048 973
2049 35
2049 857
2049 1015
2050 648
2050 698
2050 940
2051 203
2051 586
2051 1065
2052 653
2052 809
2052 939
2053 78
2053 538
2053 1191
2054 79
2054 136
2054 435
2055 309
2055 715
2055 1134
2056 309
2056 680
2056 859
2057 32
2057 240
2057 1015
2058 95
2058 223
2058 1175
2059 543
2059 765
2059 944
2060 135
2060 588
2060 657
2061 320
2061 735
2061 1118
2062 69
2062 354
2062 447
2063 376
2063 424
2063 778
2064 48
2064 758
2064 1072
2065 115
2065 145
2065 507
2066 27
2066 548
2066 549
2067 127
2067 409
2067 1170
2068 71
2068 81
2068 226
2069 141
2069 627
2069 894
2070 60
2070 243
2070 1099
2071 830
2071 850
2071 1031
2072 128
2072 690
2072 1049
2073 30
2073 794
2073 1037
2074 234
2074 251
2074 350
2075 90
2075 346
2075 753
2076 432
2076 1036
2076 1154
2077 838
2077 1129
2077 1161
2078 268
2078 405
2078 605
2079 205
2079 640
2079 783
2080 130
2080 1053
2080 1098
2081 24
2081 466
2081 956
2082 269
2082 753
2082 1020
2083 314
2083 734
2083 951
2084 692
2084 1145
2084 1183
2085 13
2085 405
2085 437
2086 120
2086 372
2086 896
2087 399
2087 817
2087 828
2088 101
2088 569
2088 1021
2089 175
2089 1013
2089 1190
2090 477
2090 1083
2090 1190
2091 340
2091 979
2091 1168
2092 350
2092 693
2092 1186
2093 185
2093 957
2093 1047
2094 188
2094 569
2094 1190
2095 39
2095 1117
2095 1129
2096 270
2096 711
2096 1014
2097 371
2097 467
2097 931
2098 526
2098 781
2098 819
2099 100
2099 281
2099 726
2100 327
2100 594
2100 651
2101 116
2101 722
2101 1166
2102 313
2102 327
2102 796
2103 77
2103 239
2103 729
2104 497
2104 673
2104 1151
2105 41
2105 538
2105 938
2106 343
2106 608
2106 876
2107 614
2107 661
2107 883
2108 173
2108 680
2108 770
2109 166
2109 498
2109 766
2110 459
2110 787
2110 1041
2111 61
2111 312
2111 383
2112 178
2112 262
2112 890
2113 84
2113 91
2113 121
2114 168
2114 466
2114 830
2115 540
2115 824
2115 982
2116 74
2116 441
2116 738
2117 133
2117 152
2117 904
2118 82
2118 272
2118 949
2119 94
2119 240
2119 445
2120 122
2120 200
2120 627
2121 214
2121 222
2121 1074
2122 644
2122 991
2122 1067
2123 312
2123 800
2123 1008
2124 274
2124 1007
2124 1186
2125 782
2125 994
2125 1019
2126 271
2126 615
2126 744
2127 239
2127 240
2127 1039
2128 680
2128 709
2128 955
2129 593
2129 606
2129 870
2130 282
2130 471
2130 666
2131 316
2131 516
2131 1163
2132 182
2132 661
2132 733
2133 386
2133 708
2133 1062
2134 206
2134 525
2134 839
2135 153
2135 187
2135 371
2136 12
2136 674
2136 781
2137 117
2137 222
2137 524
2138 333
2138 567
2138 594
2139 434
2139 573
2139 1143
2140 577
2140 1074
2140 1194
2141 389
2141 636
2141 1028
2142 223
2142 251
2142 913
2143 9
2143 443
2143 934
2144 656
2144 859
2144 1068
2145 97
2145 574
2145 739
2146 45
2146 229
2146 803
2147 97
2147 428
2147 702
2148 76
2148 89
2148 547
2149 339
2149 462
2149 684
2150 165
2150 187
2150 834
2151 83
2151 805
2151 1143
2152 11
2152 125
2152 1148
2153 4
2153 43
2153 440
2154 636
2154 872
2154 1106
2155 497
2155 612
2155 821
2156 181
2156 742
2156 779
2157 218
2157 718
2157 801
2158 141
2158 610
2158 792
2159 163
2159 443
2159 1168
2160 409
2160 799
2160 905
2161 48
2161 235
2161 831
2162 85
2162 568
2162 1060
2163 123
2163 433
2163 1009
2164 630
2164 704
2164 993
2165 424
2165 434
2165 587
2166 73
2166 588
2166 751
2167 288
2167 453
2167 1198
2168 298
2168 978
2168 1177
2169 490
2169 497
2169 902
2170 484
2170 834
2170 1170
2171 172
2171 441
2171 740
2172 33
2172 943
2172 1062
2173 12
2173 183
2173 413
2174 326
2174 522
2174 959
2175 857
2175 1125
2175 1157
2176 3
2176 220
2176 432
2177 627
2177 919
2177 1071
2178 112
2178 682
2178 804
2179 30
2179 499
2179 707
2180 103
2180 447
2180 966
2181 843
2181 1038
2181 1113
2182 3
2182 100
2182 120
2183 162
2183 1020
2183 1065
2184 29
2184 781
2184 869
2185 337
2185 475
2185 833
2186 169
2186 394
2186 1171
2187 156
2187 202
2187 985
2188 473
2188 554
2188 1084
2189 79
2189 939
2189 976
2190 125
2190 685
2190 1153
2191 70
2191 107
2191 615
2192 189
2192 303
2192 428
2193 170
2193 300
2193 702
2194 197
2194 439
2194 706
2195 521
2195 561
2195 591
2196 314
2196 1092
2196 1108
2197 359
2197 714
2197 1082
2198 544
2198 837
2198 1086
2199 241
2199 775
2199 1074
2200 580
2200 946
2200 1136
2201 273
2201 524
2201 835
2202 745
2202 856
2202 1181
2203 379
2203 994
2203 1086
2204 260
2204 756
2204 1115
2205 375
2205 387
2205 611
2206 517
2206 588
2206 945
2207 526
2207 1101
2207 1105
2208 403
2208 818
2208 1193
2209 344
2209 701
2209 1033
2210 433
2210 612
2210 1095
2211 251
2211 834
2211 888
2212 29
2212 369
2212 420
2213 43
2213 293
2213 324
2214 378
2214 571
2214 827
2215 116
2215 225
2215 662
2216 42
2216 495
2216 856
2217 189
2217 255
2217 1061
2218 377
2218 677
2218 1097
2219 230
2219 272
2219 552
2220 102
2220 400
2220 1029
2221 649
2221 662
2221 994
2222 90
2222 153
2222 161
2223 698
2223 1020
2223 1048
2224 144
2224 468
2224 887
2225 451
2225 1033
2225 1056
2226 464
2226 760
2226 927
2227 42
2227 1009
2227 1055
2228 282
2228 428
2228 477
2229 99
2229 330
2229 452
2230 322
2230 547
2230 599
2231 354
2231 650
2231 1139
2232 57
2232 302
2232 620
2233 412
2233 535
2233 583
2234 353
2234 511
2234 528
2235 528
2235 681
2235 1169
2236 73
2236 107
2236 553
2237 573
2237 964
2237 1172
2238 364
2238 473
2238 1042
2239 365
2239 387
2239 448
2240 151
2240 953
2240 991
2241 217
2241 258
2241 784
2242 226
2242 624
2242 879
2243 44
2243 251
2243 1104
2244 514
2244 1001
2244 1183
2245 110
2245 857
2245 1083
2246 216
2246 1049
2246 1106
2247 207
2247 285
2247 298
2248 318
2248 565
2248 685
2249 422
2249 445
2249 870
2250 86
2250 354
2250 456
2251 55
2251 633
2251 747
2252 520
2252 707
2252 1189
2253 291
2253 590
2253 668
2254 231
2254 688
2254 692
2255 414
2255 430
2255 1075
2256 546
2256 568
2256 807
2257 679
2257 812
2257 895
2258 308
2258 917
2258 1113
2259 41
2259 981
2259 1184
2260 1055
2260 1105
2260 1134
2261 126
2261 777
2261 1152
2262 182
2262 316
2262 1077
2263 374
2263 516
2263 1149
2264 191
2264 243
2264 342
2265 121
2265 475
2265 675
2266 699
2266 1007
2266 1155
2267 356
2267 581
2267 1040
2268 380
2268 528
2268 1063
2269 45
2269 819
2269 1070
2270 189
2270 335
2270 1120
2271 21
2271 479
2271 1117
2272 217
2272 520
2272 683
2273 91
2273 559
2273 859
2274 267
2274 442
2274 980
2275 659
2275 744
2275 923
2276 412
2276 478
2276 1006
2277 574
2277 984
2277 1057
2278 37
2278 89
2278 1156
2279 92
2279 206
2279 800
2280 489
2280 494
2280 1022
2281 163
2281 327
2281 693
2282 0
2282 208
2282 1146
2283 550
2283 960
2283 1178
2284 239
2284 288
2284 558
2285 530
2285 1002
2285 1171
2286 171
2286 709
2286 792
2287 227
2287 304
2287 595
2288 146
2288 260
2288 391
2289 717
2289 809
2289 1189
2290 99
2290 822
2290 975
2291 536
2291 1063
2291 1174
2292 52
2292 974
2292 1117
2293 365
2293 447
2293 865
2294 390
2294 558
2294 893
2295 106
2295 587
2295 1198
2296 537
2296 555
2296 1158
2297 79
2297 309
2297 317
2298 332
2298 416
2298 554
2299 61
2299 365
2299 773
2300 1
2300 703
2300 989
2301 200
2301 822
2301 858
2302 355
2302 615
2302 928
2303 409
2303 893
2303 976
2304 69
2304 693
2304 835
2305 716
2305 967
2305 977
2306 335
2306 514
2306 673
2307 116
2307 281
2307 325
2308 265
2308 590
2308 962
2309 231
2309 772
2309 1046
2310 581
2310 661
2310 670
2311 133
2311 346
2311 710
2312 15
2312 428
2312 730
2313 148
2313 639
2313 1092
2314 71
2314 249
2314 1061
2315 83
2315 553
2315 1051
2316 127
2316 519
2316 764
2317 120
2317 571
2317 865
2318 102
2318 232
2318 1023
2319 4
2319 803
2319 876
2320 418
2320 992
2320 1078
2321 410
2321 751
2321 837
2322 144
2322 194
2322 729
2323 240
2323 471
2323 1028
2324 634
2324 718
2324 1104
2325 268
2325 627
2325 900
2326 356
2326 431
2326 876
2327 111
2327 777
2327 814
2328 427
2328 499
2328 785
2329 443
2329 577
2329 1027
2330 40
2330 937
2330 1090
2331 152
2331 505
2331 926
2332 22
2332 413
2332 522
2333 24
2333 605
2333 796
2334 98
2334 118
2334 173
2335 35
2335 619
2335 1059
2336 160
2336 759
2336 964
2337 158
2337 417
2337 681
2338 168
2338 951
2338 1105
2339 106
2339 355
2339 894
2340 253
2340 255
2340 545
2341 179
2341 552
2341 585
2342 75
2342 708
2342 938
2343 152
2343 241
2343 1029
2344 32
2344 253
2344 923
2345 861
2345 867
2345 1024
2346 7
2346 566
2346 1138
2347 544
2347 939
2347 1017
2348 326
2348 864
2348 998
2349 550
2349 703
2349 1182
2350 363
2350 418
2350 596
2351 471
2351 553
2351 1150
2352 573
2352 588
2352 750
2353 69
2353 566
2353 1189
2354 34
2354 48
2354 1028
2355 171
2355 572
2355 1161
2356 186
2356 411
2356 785
2357 186
2357 312
2357 991
2358 745
2358 905
2358 1087
2359 469
2359 1122
2359 1192
2360 289
2360 577
2360 683
2361 36
2361 52
2361 574
2362 261
2362 493
2362 552
2363 149
2363 597
2363 649
2364 78
2364 92
2364 490
2365 63
2365 796
2365 943
2366 372
2366 1041
2366 1119
2367 4
2367 106
2367 1137
2368 94
2368 529
2368 721
2369 810
2369 1035
2369 1130
2370 172
2370 601
2370 926
2371 37
2371 205
2371 700
2372 23
2372 351
2372 1111
2373 229
2373 787
2373 1178
2374 331
2374 352
2374 737
2375 303
2375 918
2375 1116
2376 672
2376 712
2376 996
2377 147
2377 421
2377 715
2378 565
2378 717
2378 1085
2379 101
2379 672
2379 1000
2380 117
2380 391
2380 933
2381 706
2381 941
2381 1128
2382 260
2382 732
2382 793
2383 194
2383 532
2383 602
2384 490
2384 699
2384 986
2385 247
2385 352
2385 1197
2386 55
2386 816
2386 1124
2387 284
2387 750
2387 885
2388 33
2388 608
2388 894
2389 518
2389 899
2389 1054
2390 113
2390 237
2390 1128
2391 520
2391 946
2391 1006
2392 122
2392 637
2392 965
2393 277
2393 829
2393 996
2394 88
2394 990
2394 1115
2395 146
2395 1077
2395 1097
2396 281
2396 300
2396 392
2397 39
2397 579
2397 920
2398 538
2398 852
2398 952
2399 297
2399 470
2399 530
